BEGIN IONS
PEPMASS=666.312
CHARGE=1+
COMPOUNDNAME=Natamycin (Pimaricin)
LIBRARYQUALITY=1
SMILES=[C@@H]1([C@@H]([C@H](O[C@]([C@@H]1O)(O[C@H]2/C=C/C=C/C=C/C=C/C[C@H](OC(=O)/C=C/[C@@H]3[C@@](C[C@@H](C[C@@]4(C[C@@H]([C@H]([C@@](O4)(C2)[H])C(=O)O)O)O)O)(O3)[H])C)[H])C)O)N
INCHIKEY=NCXMLFZGDNKEPB-RNAPBSOWSA-N
INCHI=N/A
MSLEVEL=2
SOURCE_INSTRUMENT=LC-ESI-qTof
FILENAME=Plate3_21_40_GG10_01_16499.mzXML
SEQ=*..*
IONMODE=Positive
ORGANISM=GNPS-SELLECKCHEM-FDA-PART2
NAME=Natamycin (Pimaricin) [M+H]
PI=Dorrestein
DATACOLLECTOR=Garg_Neha
PUBMED=N/A
SUBMITUSER=negarg
TAGS=
SPECTRUMID=CCMSLIB00000078178
SCANS=1125
45.316971 140.0 
45.893581 216.0 
46.544415 216.0 
50.096684 256.0 
50.493317 184.0 
51.822891 224.0 
55.543232 176.0 
55.607639 228.0 
57.741188 184.0 
58.118385 164.0 
60.745052 180.0 
63.035683 224.0 
64.42115 144.0 
65.65062 176.0 
65.844276 152.0 
65.970306 236.0 
71.5811 152.0 
72.200432 152.0 
78.644196 192.0 
84.032394 200.0 
85.802254 184.0 
87.030769 148.0 
88.959366 204.0 
91.055283 240.0 
91.580215 152.0 
95.0504 368.0 
95.116386 156.0 
95.826202 200.0 
97.304794 168.0 
103.881371 212.0 
105.069275 272.0 
107.052444 236.0 
108.052559 168.0 
108.381767 160.0 
109.027122 204.0 
111.045395 264.0 
112.052895 244.0 
113.024681 356.0 
114.267479 228.0 
115.86657 176.0 
116.063751 212.0 
117.070297 176.0 
118.07724 172.0 
119.087105 140.0 
120.947105 212.0 
121.029221 220.0 
121.067062 172.0 
121.396233 164.0 
121.437904 172.0 
123.009155 220.0 
123.044281 168.0 
124.044205 164.0 
125.025032 176.0 
125.061531 160.0 
128.065277 168.0 
128.104645 216.0 
129.068024 344.0 
130.079819 212.0 
130.517258 192.0 
131.052139 160.0 
131.08667 528.0 
131.919388 176.0 
132.095474 156.0 
132.521286 188.0 
132.888138 188.0 
133.067154 168.0 
133.102081 300.0 
134.070053 164.0 
135.044968 276.0 
136.047668 340.0 
137.06012 444.0 
138.828934 160.0 
139.037735 492.0 
139.702682 176.0 
141.044434 180.0 
141.068466 376.0 
142.079269 192.0 
143.050354 164.0 
143.084503 760.0 
143.398987 248.0 
143.558716 164.0 
144.090622 176.0 
144.463943 160.0 
145.100159 1088.0 
146.078796 560.0 
147.040787 140.0 
147.083679 316.0 
147.119415 184.0 
148.343475 256.0 
149.061935 480.0 
151.03273 364.0 
153.065231 148.0 
154.223328 168.0 
155.087006 556.0 
155.114426 144.0 
157.049713 928.0 
157.100662 1020.0 
158.111191 212.0 
159.078262 144.0 
159.116714 420.0 
160.124252 184.0 
161.058899 304.0 
162.078003 244.0 
162.102341 168.0 
163.032196 136.0 
163.056534 204.0 
165.06076 200.0 
167.084412 148.0 
168.094284 152.0 
168.545837 164.0 
169.044891 228.0 
169.099686 196.0 
170.351624 196.0 
171.074554 152.0 
171.115997 256.0 
171.340195 164.0 
172.08609 296.0 
172.956619 140.0 
173.059891 188.0 
173.133484 608.0 
173.506744 144.0 
175.041168 156.0 
175.066391 180.0 
175.18866 192.0 
176.074448 160.0 
176.109253 176.0 
178.082474 160.0 
179.076935 348.0 
180.096069 168.0 
181.049683 380.0 
182.051163 156.0 
182.110245 312.0 
182.228439 152.0 
182.456894 212.0 
183.046127 184.0 
183.079407 360.0 
183.115707 508.0 
183.258926 176.0 
184.04921 216.0 
184.085999 160.0 
184.120361 172.0 
184.476074 184.0 
184.543671 144.0 
184.995468 176.0 
185.057739 140.0 
185.090225 172.0 
185.131042 876.0 
186.098892 168.0 
186.590652 152.0 
187.039505 180.0 
187.070953 176.0 
187.113007 232.0 
189.051407 208.0 
189.089371 148.0 
189.790588 148.0 
193.060623 128.0 
193.100677 576.0 
195.087906 160.0 
195.116608 144.0 
196.093658 160.0 
197.039612 160.0 
197.095154 472.0 
197.129898 192.0 
198.142059 152.0 
199.075943 192.0 
199.106827 188.0 
199.129303 200.0 
199.147751 200.0 
200.119141 152.0 
200.151413 188.0 
201.05217 212.0 
201.09024 228.0 
201.128448 632.0 
202.133789 192.0 
203.078079 296.0 
203.140182 324.0 
203.250931 188.0 
204.137192 164.0 
204.945587 184.0 
205.08522 312.0 
205.108429 196.0 
206.098312 156.0 
207.075668 152.0 
207.114639 416.0 
208.07457 212.0 
208.122406 236.0 
209.040329 152.0 
209.08316 204.0 
209.133331 296.0 
210.080444 140.0 
210.123718 160.0 
211.075073 168.0 
211.111267 144.0 
213.054947 132.0 
213.07515 180.0 
213.113861 200.0 
214.076904 176.0 
215.066055 164.0 
215.132538 152.0 
216.117752 156.0 
216.140549 152.0 
216.843994 268.0 
217.125443 212.0 
218.047302 180.0 
218.111374 160.0 
219.085983 140.0 
219.115448 140.0 
219.198166 168.0 
220.082184 160.0 
221.074707 176.0 
221.106201 200.0 
221.132294 268.0 
223.056213 188.0 
223.146729 212.0 
224.024414 160.0 
224.151688 144.0 
225.073853 504.0 
225.127289 516.0 
225.159866 172.0 
226.159439 168.0 
227.072479 184.0 
227.116653 188.0 
227.142395 180.0 
227.994934 216.0 
228.070068 144.0 
228.145294 168.0 
229.120285 212.0 
231.069626 488.0 
231.112488 196.0 
232.067047 148.0 
233.041321 188.0 
233.083389 176.0 
234.133362 160.0 
235.082977 184.0 
235.142487 160.0 
235.661621 204.0 
236.10791 176.0 
239.141708 148.0 
240.251511 268.0 
241.063553 152.0 
241.121552 156.0 
242.050323 160.0 
242.093674 148.0 
242.161804 188.0 
243.081772 144.0 
243.136719 836.0 
244.092102 176.0 
244.144363 164.0 
244.608566 160.0 
245.087158 148.0 
247.145828 160.0 
249.084778 140.0 
249.130539 448.0 
250.07373 144.0 
250.129196 168.0 
251.102859 144.0 
251.147705 364.0 
251.186005 196.0 
253.088531 176.0 
253.124115 148.0 
255.131271 240.0 
255.179443 144.0 
257.156189 164.0 
259.05304 104.0 
259.098633 152.0 
259.142853 176.0 
260.063843 164.0 
260.12381 160.0 
260.474854 144.0 
261.120911 176.0 
261.150391 116.0 
264.120514 228.0 
265.082062 156.0 
265.122406 152.0 
265.155518 228.0 
265.727295 156.0 
266.695007 152.0 
267.106445 268.0 
267.134918 276.0 
268.144592 200.0 
269.08609 152.0 
269.121307 156.0 
270.163422 356.0 
271.137238 172.0 
273.134186 176.0 
275.140137 144.0 
277.071289 220.0 
277.117523 200.0 
278.169189 180.0 
279.072235 136.0 
282.120056 144.0 
283.10376 252.0 
283.167389 148.0 
284.101562 144.0 
285.163666 172.0 
287.139862 144.0 
289.14856 340.0 
291.182404 156.0 
292.081665 204.0 
292.17691 140.0 
293.156525 184.0 
295.079376 236.0 
295.135284 152.0 
297.103271 156.0 
299.103241 156.0 
299.144073 136.0 
301.116821 176.0 
301.151367 156.0 
302.129608 140.0 
303.085205 172.0 
303.508057 152.0 
305.146484 140.0 
307.101654 308.0 
307.172119 288.0 
309.143646 164.0 
309.180817 144.0 
311.124573 140.0 
311.167328 432.0 
313.1138 160.0 
313.168518 196.0 
315.132202 264.0 
315.171387 168.0 
317.151733 144.0 
319.164429 132.0 
321.120972 160.0 
322.163452 144.0 
325.07074 164.0 
327.158051 192.0 
329.082977 180.0 
329.169617 268.0 
330.10675 156.0 
330.178986 160.0 
332.167542 152.0 
333.129486 192.0 
334.183807 176.0 
334.904602 212.0 
335.108612 168.0 
337.136414 160.0 
337.167389 200.0 
337.689453 144.0 
338.106537 144.0 
338.205353 208.0 
339.022064 152.0 
339.159149 200.0 
341.104614 168.0 
341.14801 112.0 
342.184692 172.0 
343.171356 260.0 
345.168854 320.0 
346.168762 164.0 
346.943146 176.0 
350.153564 180.0 
351.189697 264.0 
353.116913 296.0 
355.128174 236.0 
355.196198 148.0 
356.119049 160.0 
357.18219 232.0 
359.20932 148.0 
361.137787 160.0 
361.529175 184.0 
363.184845 160.0 
364.167877 192.0 
364.988739 184.0 
366.145569 156.0 
366.324585 180.0 
367.170441 152.0 
368.182098 208.0 
369.114532 188.0 
369.177032 164.0 
371.187592 432.0 
371.94574 160.0 
373.144226 184.0 
375.196655 140.0 
376.195496 156.0 
377.803101 160.0 
379.131195 200.0 
379.175476 108.0 
380.202728 156.0 
385.186096 232.0 
386.620148 188.0 
387.194519 224.0 
388.17926 160.0 
388.296906 188.0 
395.142151 112.0 
397.206512 164.0 
398.207336 152.0 
398.866913 172.0 
400.199615 168.0 
402.767883 144.0 
403.171295 172.0 
404.17511 148.0 
405.153015 288.0 
405.209473 316.0 
406.197601 116.0 
406.214142 160.0 
407.193359 172.0 
410.489655 192.0 
413.177094 116.0 
414.172791 180.0 
418.740784 148.0 
421.198151 316.0 
423.22226 236.0 
424.194611 180.0 
424.220612 412.0 
425.174835 188.0 
425.212799 280.0 
431.185699 604.0 
439.222931 140.0 
439.832153 148.0 
441.222504 228.0 
442.238251 332.0 
443.186127 224.0 
443.232208 212.0 
443.87262 164.0 
449.19632 1980.0 
450.195587 708.0 
450.341919 160.0 
451.207977 260.0 
456.032166 180.0 
465.555206 228.0 
467.206207 2612.0 
468.207825 1180.0 
469.211487 108.0 
483.184387 176.0 
483.670135 160.0 
484.083191 304.0 
484.808868 176.0 
484.966644 176.0 
485.067474 184.0 
485.216705 3852.0 
486.220551 1056.0 
487.220734 676.0 
487.323914 96.0 
488.967804 180.0 
489.227509 172.0 
500.669006 152.0 
502.858032 204.0 
503.032104 144.0 
503.152649 168.0 
503.225891 6712.0 
504.135284 236.0 
504.233398 1748.0 
504.390045 244.0 
505.228699 264.0 
505.776672 192.0 
505.849182 160.0 
506.23764 148.0 
508.035126 168.0 
515.482178 164.0 
529.819275 152.0 
534.967285 144.0 
542.886658 208.0 
549.907043 144.0 
552.126221 140.0 
605.322876 216.0 
614.399292 176.0 
622.978577 144.0 
630.284363 140.0 
648.30072 652.0 
649.29541 392.0 
650.311157 152.0 
667.394348 152.0 
668.330444 140.0 
1022.982483 144.0 
1342.059448 144.0 
1388.610107 208.0 
1426.03125 224.0 
1451.525391 184.0 
1512.550781 152.0 
1526.717285 204.0 
1580.77002 236.0 
1603.10022 156.0 
1638.757935 144.0 
1702.788452 164.0 
1706.839844 216.0 
1869.932373 140.0 
1871.335571 176.0 
1878.583374 176.0 
1927.263428 184.0 
1931.792114 156.0 
1961.314087 188.0 
1971.675781 212.0 
END IONS

