BEGIN IONS
PEPMASS=321.134
CHARGE=1+
COMPOUNDNAME=MLS001074701-01!(E)-6-(4-hydroxy-6-methoxy-7-methyl-3-oxo-1H-2-benzofuran-5-yl)-4-methylhex-4-enoic acid
LIBRARYQUALITY=1
SMILES=COc1c(C)c2COC(=O)c2c(O)c1C/C=C(\C)/CCC(=O)O
INCHIKEY=HPNSFSBZBAHARI-RUDMXATFSA-N
INCHI=N/A
MSLEVEL=2
SOURCE_INSTRUMENT=LC-ESI-qTof
FILENAME=p2-C02_GC2_01_18002.mzXML
SEQ=*..*
IONMODE=Positive
ORGANISM=GNPS-NIH-NATURALPRODUCTSLIBRARY
NAME=MLS001074701-01!(E)-6-(4-hydroxy-6-methoxy-7-methyl-3-oxo-1H-2-benzofuran-5-yl)-4-methylhex-4-enoic acid M+H
PI=Dorrestein
DATACOLLECTOR=VVP/LMS
PUBMED=N/A
SUBMITUSER=vphelan
TAGS=
SPECTRUMID=CCMSLIB00000079956
SCANS=2027
95.047958 200.0 
95.623184 124.0 
95.837387 84.0 
95.884155 220.0 
95.913391 212.0 
95.985527 180.0 
96.174759 64.0 
96.327065 76.0 
96.342697 144.0 
96.684868 224.0 
97.410324 200.0 
97.909912 144.0 
97.93354 228.0 
97.957176 196.0 
98.428543 220.0 
98.582619 168.0 
98.715065 196.0 
99.815605 172.0 
100.397079 96.0 
100.618988 208.0 
100.748375 192.0 
101.250427 204.0 
101.338562 196.0 
101.414711 140.0 
101.583145 164.0 
102.0466 312.0 
102.067162 168.0 
102.185829 168.0 
102.413307 256.0 
102.751961 156.0 
103.012383 164.0 
103.055214 2388.0 
103.162819 140.0 
103.238754 68.0 
103.562569 148.0 
103.594978 208.0 
103.70845 36.0 
103.994438 208.0 
104.058952 208.0 
104.496368 80.0 
104.903671 124.0 
105.03373 188.0 
105.071877 184.0 
105.119865 188.0 
105.232124 192.0 
105.853714 132.0 
106.222626 32.0 
106.68055 116.0 
107.046783 192.0 
107.069435 152.0 
107.090027 160.0 
107.349701 76.0 
107.599365 176.0 
107.710876 56.0 
107.810051 92.0 
108.035423 212.0 
108.240318 140.0 
108.35424 176.0 
108.399818 152.0 
109.573769 180.0 
109.921974 164.0 
111.016022 240.0 
111.324501 216.0 
111.906952 132.0 
112.04174 176.0 
112.204018 172.0 
112.330551 192.0 
112.427605 124.0 
112.611275 92.0 
112.72113 184.0 
112.943115 52.0 
113.506454 136.0 
113.529778 204.0 
113.574318 164.0 
113.899071 88.0 
114.032928 180.0 
114.215782 156.0 
114.690613 72.0 
115.051117 164.0 
115.350182 140.0 
115.437843 160.0 
115.521255 220.0 
115.71814 140.0 
115.767387 192.0 
115.925911 140.0 
116.198227 88.0 
116.473 72.0 
116.745956 200.0 
117.032143 160.0 
117.062286 180.0 
117.40493 128.0 
117.799911 236.0 
119.010544 224.0 
119.045288 120.0 
120.133545 120.0 
120.423851 140.0 
120.950798 68.0 
121.031799 132.0 
122.069695 56.0 
123.087738 204.0 
123.211418 228.0 
123.757706 184.0 
123.985863 232.0 
124.056793 188.0 
124.482239 228.0 
124.518318 44.0 
124.569405 208.0 
125.336952 112.0 
125.591103 104.0 
125.618141 164.0 
126.252182 164.0 
126.364029 132.0 
126.442345 32.0 
126.491585 160.0 
126.767067 52.0 
126.787231 172.0 
127.078735 192.0 
127.339134 148.0 
128.004791 152.0 
128.063354 152.0 
128.173737 68.0 
128.760254 172.0 
129.096985 188.0 
130.130234 152.0 
130.566513 160.0 
130.598358 136.0 
130.976196 164.0 
131.04953 1256.0 
131.204071 160.0 
131.262772 204.0 
131.409332 116.0 
131.50975 152.0 
131.559967 48.0 
132.049973 208.0 
132.092407 144.0 
132.290405 220.0 
132.93782 212.0 
133.068665 172.0 
133.104263 124.0 
133.374191 132.0 
134.034683 192.0 
134.131485 108.0 
134.209869 80.0 
134.488998 168.0 
134.881668 172.0 
135.077988 348.0 
135.112915 140.0 
135.131424 204.0 
136.084 152.0 
136.135086 104.0 
136.188507 148.0 
136.272125 152.0 
136.551086 176.0 
137.235703 160.0 
138.123138 56.0 
138.464859 92.0 
138.481247 124.0 
138.872665 120.0 
139.055664 124.0 
139.076782 140.0 
139.10965 100.0 
140.026657 312.0 
140.078476 128.0 
140.266983 44.0 
140.415527 120.0 
140.756622 148.0 
141.031754 236.0 
141.070023 200.0 
142.072281 212.0 
144.367386 156.0 
145.026321 200.0 
145.061569 460.0 
145.553543 104.0 
146.253128 224.0 
146.580658 108.0 
147.046097 164.0 
147.089539 196.0 
147.120926 164.0 
147.389008 124.0 
147.618637 168.0 
147.858139 108.0 
149.05925 572.0 
149.143585 164.0 
150.04184 192.0 
150.062744 132.0 
150.241806 64.0 
150.454132 64.0 
150.480988 44.0 
150.498077 56.0 
151.04303 284.0 
151.077301 144.0 
151.412628 204.0 
152.664215 124.0 
152.910233 212.0 
153.062866 144.0 
153.252518 172.0 
153.86171 164.0 
154.806213 128.0 
155.287003 160.0 
155.766052 136.0 
156.397629 140.0 
157.097824 148.0 
157.327408 180.0 
157.377335 168.0 
158.07222 156.0 
158.263794 164.0 
158.350098 200.0 
158.480362 120.0 
158.537994 160.0 
158.68338 148.0 
158.823807 36.0 
158.873978 264.0 
158.899063 152.0 
158.931625 176.0 
159.010529 204.0 
159.045105 19996.0 
159.112396 136.0 
159.136414 112.0 
159.196671 68.0 
159.21283 100.0 
159.279114 72.0 
159.297256 188.0 
159.32724 160.0 
159.373596 236.0 
159.40593 60.0 
159.569641 136.0 
159.637527 108.0 
159.768311 68.0 
159.825455 88.0 
159.93692 76.0 
160.004883 108.0 
160.048172 1756.0 
160.090485 156.0 
160.423019 176.0 
160.54158 72.0 
160.599579 160.0 
160.829193 76.0 
160.862 204.0 
160.912491 156.0 
160.988235 108.0 
161.018539 132.0 
161.054092 320.0 
161.210541 96.0 
161.250977 48.0 
161.29274 100.0 
161.64296 64.0 
161.993134 64.0 
162.045547 172.0 
162.063278 108.0 
162.238159 92.0 
162.522202 108.0 
162.844543 164.0 
162.948746 180.0 
163.080887 164.0 
163.111389 200.0 
163.208008 104.0 
163.230881 116.0 
163.274109 76.0 
163.844284 56.0 
164.052429 136.0 
165.020828 156.0 
165.058517 332.0 
166.061661 44.0 
166.656052 184.0 
167.067398 148.0 
167.474106 144.0 
167.901947 104.0 
168.534378 128.0 
168.958389 40.0 
169.038605 184.0 
169.082596 92.0 
169.105881 168.0 
170.007767 136.0 
170.919861 48.0 
170.99794 80.0 
171.023956 76.0 
171.091644 72.0 
171.258301 84.0 
171.555344 64.0 
172.056229 192.0 
172.092941 192.0 
173.060181 140.0 
173.098862 208.0 
173.544907 40.0 
173.568497 64.0 
174.061813 48.0 
174.537415 216.0 
175.074951 472.0 
175.669891 176.0 
176.076752 196.0 
176.480667 124.0 
176.784866 92.0 
176.837784 160.0 
176.970154 180.0 
177.055954 6832.0 
177.147583 64.0 
177.184677 92.0 
177.311859 44.0 
177.356918 72.0 
177.375473 64.0 
177.420547 60.0 
177.450836 92.0 
177.826385 40.0 
177.919281 140.0 
178.060333 912.0 
178.211426 64.0 
179.070709 640.0 
179.113281 56.0 
179.181046 116.0 
179.275787 80.0 
179.326431 116.0 
180.049438 184.0 
180.074219 276.0 
180.106628 224.0 
180.12236 132.0 
180.14827 60.0 
180.70433 108.0 
180.872925 108.0 
181.076416 164.0 
181.735855 200.0 
183.12027 156.0 
185.097076 200.0 
185.86145 144.0 
186.548569 168.0 
186.624695 168.0 
187.072601 208.0 
187.506668 52.0 
188.921066 156.0 
189.159134 160.0 
190.533035 192.0 
190.917847 156.0 
191.069122 148.0 
191.592194 140.0 
191.647293 168.0 
191.713104 172.0 
192.037094 192.0 
192.273254 136.0 
192.494095 128.0 
192.891937 108.0 
193.047394 204.0 
193.104843 152.0 
193.663925 160.0 
194.046341 180.0 
195.064346 1516.0 
195.969635 120.0 
196.071671 444.0 
196.569122 20.0 
196.628571 184.0 
197.093201 128.0 
197.549789 112.0 
198.104065 156.0 
198.788162 160.0 
199.037994 148.0 
199.080582 120.0 
199.164368 148.0 
199.968491 160.0 
200.112061 136.0 
200.997101 240.0 
201.064819 316.0 
201.095871 56.0 
201.878433 116.0 
202.101898 180.0 
202.489716 132.0 
202.639847 64.0 
203.076385 152.0 
203.101913 140.0 
203.746292 144.0 
204.027649 60.0 
204.383163 96.0 
204.673492 108.0 
204.915588 268.0 
205.063766 148.0 
205.263321 60.0 
206.071091 172.0 
206.176804 152.0 
206.442673 192.0 
206.70871 168.0 
206.800293 172.0 
206.863251 40.0 
206.920517 112.0 
207.006927 220.0 
207.031525 244.0 
207.066406 27176.0 
207.11348 136.0 
207.181122 32.0 
207.221237 36.0 
207.252747 52.0 
207.275681 76.0 
207.299973 92.0 
207.358078 112.0 
207.431915 68.0 
207.48204 64.0 
207.590988 136.0 
207.611069 92.0 
207.654083 72.0 
207.674164 60.0 
207.754471 60.0 
207.874985 100.0 
207.906357 60.0 
207.917404 56.0 
207.922531 84.0 
208.018478 84.0 
208.069946 3188.0 
208.449295 60.0 
208.532623 60.0 
208.579773 60.0 
208.610229 64.0 
208.722366 60.0 
208.828766 88.0 
208.883423 88.0 
209.069275 256.0 
209.14238 80.0 
209.197067 44.0 
209.368439 132.0 
209.473511 108.0 
209.493683 104.0 
209.700317 56.0 
209.835922 264.0 
210.191391 44.0 
210.324142 56.0 
210.445404 104.0 
210.637726 84.0 
211.069504 152.0 
211.193863 64.0 
212.068268 144.0 
212.088547 116.0 
212.474228 36.0 
213.09407 180.0 
213.124573 132.0 
214.058289 160.0 
214.090317 104.0 
215.068771 304.0 
215.108063 776.0 
215.595627 48.0 
216.002029 168.0 
216.116119 116.0 
216.599152 72.0 
216.748566 84.0 
217.056351 132.0 
217.097397 280.0 
217.202988 44.0 
218.169098 56.0 
219.069305 168.0 
219.314163 96.0 
219.597198 20.0 
220.078217 180.0 
221.087784 292.0 
223.063553 444.0 
223.153671 68.0 
224.118011 36.0 
225.077423 220.0 
225.08551 144.0 
225.9841 96.0 
226.099152 180.0 
227.065491 164.0 
227.683731 84.0 
228.970901 152.0 
229.07933 68.0 
229.127533 136.0 
230.54567 96.0 
231.067902 316.0 
231.132309 172.0 
232.071274 232.0 
233.090897 156.0 
234.40567 160.0 
239.101318 120.0 
241.076553 148.0 
241.13031 172.0 
242.082428 140.0 
243.108505 164.0 
243.143875 172.0 
244.11499 140.0 
247.097565 216.0 
247.39418 52.0 
248.09903 152.0 
249.980408 164.0 
255.061829 148.0 
257.109833 244.0 
259.104065 148.0 
260.087311 176.0 
261.113678 496.0 
261.205536 36.0 
267.089386 148.0 
270.096558 128.0 
271.101898 124.0 
271.787231 52.0 
274.115265 128.0 
275.134003 484.0 
276.132324 132.0 
285.110809 512.0 
288.248016 80.0 
291.18512 100.0 
295.19278 104.0 
303.12674 164.0 
304.00473 28.0 
324.350281 124.0 
326.385834 140.0 
336.359741 68.0 
356.772949 56.0 
369.466309 104.0 
373.197998 84.0 
404.622833 120.0 
463.773315 36.0 
526.893433 80.0 
570.650452 120.0 
578.689758 64.0 
643.790527 80.0 
647.917847 44.0 
655.182556 168.0 
656.446594 228.0 
663.077026 72.0 
749.272522 200.0 
760.136597 124.0 
785.369995 120.0 
807.606873 100.0 
817.472595 176.0 
947.504089 92.0 
954.722351 108.0 
977.8479 68.0 
1044.557861 132.0 
1046.533569 156.0 
1059.877808 188.0 
1069.463013 156.0 
1074.278198 84.0 
1078.607544 208.0 
1095.227783 148.0 
1109.341919 176.0 
1112.4729 76.0 
1118.129272 132.0 
1121.699219 136.0 
1122.952759 244.0 
1131.485718 140.0 
1134.70813 200.0 
1135.942017 76.0 
1141.08606 88.0 
1153.51709 44.0 
1164.66333 136.0 
1169.769897 192.0 
1179.059448 184.0 
1181.302002 148.0 
1184.108276 172.0 
1186.725952 256.0 
1225.410156 52.0 
1239.292725 188.0 
1242.924683 172.0 
1246.098267 132.0 
1248.614624 48.0 
1250.035645 196.0 
1252.527832 176.0 
1254.648926 224.0 
1255.304688 140.0 
1263.78772 132.0 
1263.915161 160.0 
1265.812134 224.0 
1274.195557 176.0 
1276.278076 156.0 
1281.872681 168.0 
1291.095703 180.0 
1295.834229 144.0 
1298.550903 96.0 
1302.304565 192.0 
1308.056763 208.0 
1310.800659 164.0 
1316.390991 176.0 
1329.224976 160.0 
1329.6604 132.0 
1330.400757 100.0 
1338.376221 220.0 
1341.435913 156.0 
1341.982666 192.0 
1342.996338 156.0 
1343.076538 172.0 
1343.776855 228.0 
1346.740601 144.0 
1355.937134 228.0 
1356.259521 172.0 
1357.124634 204.0 
1369.168091 192.0 
1371.518433 132.0 
1373.310059 108.0 
1376.608887 184.0 
1385.862183 200.0 
1388.990601 176.0 
1393.66748 132.0 
1404.722778 140.0 
1412.506226 104.0 
1417.559692 116.0 
1418.421509 196.0 
1419.673584 60.0 
1423.470581 92.0 
1432.201904 144.0 
1432.458008 152.0 
1440.325195 160.0 
1441.639771 180.0 
1447.06311 76.0 
1447.184204 140.0 
1450.684204 156.0 
1454.059448 188.0 
1456.344727 180.0 
1457.453857 172.0 
1458.631836 192.0 
1458.753418 184.0 
1461.164062 96.0 
1468.369873 188.0 
1474.905396 152.0 
1475.425171 156.0 
1475.562744 216.0 
1479.831787 216.0 
1485.387695 196.0 
1488.434448 192.0 
1501.099976 144.0 
1503.545288 136.0 
END IONS

