BEGIN IONS
TITLE=Scan Number: 80
PEPMASS=734.5
CHARGE=1+
COMPOUNDNAME=Erythromycin A
LIBRARYQUALITY=3
SMILES=CC[C@@H]1[C@@]([C@@H]([C@H](C(=O)[C@@H](C[C@@]([C@@H]([C@H]([C@@H]([C@H](C(=O)O1)C)O[C@H]2C[C@@]([C@H]([C@@H](O2)C)O)(C)OC)C)O[C@H]3[C@@H]([C@H](C[C@H](O3)C)N(C)C)O)(C)O)C)C)O)(C)O
INCHIKEY=ULGZDMOVFRHVEP-RWJQBGPGSA-N
INCHI="InChI=1S/C37H67NO13/c1-14-25-37(10,45)30(41)20(4)27(39)18(2)16-35(8,44)32(51-34-28(40)24(38(11)12)15-19(3)47-34)21(5)29(22(6)33(43)49-25)50-26-17-36(9,46-13)31(42)23(7)48-26/h18-26,28-32,34,40-42,44-45H,14-17H2,1-13H3/t18-,19-,20+,21+,22-,23+,24+,25-,26+,28-,29+,30-,31+,32-,34+,35-,36-,37-/m1/s1"
MSLEVEL=2
SOURCE_INSTRUMENT=DI-ESI-Ion Trap
FILENAME=Erythromycin_A_IT_734mz.mzXML
SEQ=*..*
NOTES=
IONMODE=Positive
ORGANISM=GNPS-LIBRARY
NAME=Erythromycin A M+H
SPECTRUMID=CCMSLIB00000075305
ACTIVATION=CID
INSTRUMENT=ion trap
SCANS=80
208.881561 8.179291 
211.073532 12.42322 
214.929779 18.569201 
217.181824 1.169526 
219.991608 23.408176 
221.16301 43.467705 
223.177582 111.645798 
225.081345 67.222588 
226.149307 3.202294 
226.959518 12.18987 
229.330292 25.067379 
230.985748 147.396179 
231.818176 1.026573 
233.000488 2163.46582 
235.152725 10.48745 
238.116089 35.173492 
239.183182 46.3116 
240.970016 266.243744 
242.41481 4.167489 
242.981903 113.673653 
245.26944 63.545105 
246.116913 15.835817 
247.100098 37.618031 
249.175751 173.553528 
251.005234 437.872498 
253.220657 72.682854 
254.963654 63.628918 
257.168976 19.375399 
261.003723 169.259598 
263.060822 152.509171 
265.20462 30.091331 
267.011627 91.468216 
268.448944 26.803989 
268.963531 180.484253 
269.496338 37.977989 
270.298248 54.508186 
271.054382 354.39975 
272.235596 435.526642 
274.141724 74.665123 
281.104523 73.926086 
283.075867 6.1941 
284.030579 1241.684448 
285.996429 105.006279 
286.598602 99.844208 
287.193634 27.999908 
289.0336 2140.669922 
290.042603 5.571047 
290.71579 17.252428 
295.336334 15.191394 
297.11261 76.528122 
298.260101 244.199997 
299.039429 44.62793 
301.527924 10.304388 
302.157074 233.383698 
303.131989 33.323509 
305.083527 197.86908 
307.099365 2479.975098 
307.886017 14.267235 
309.22168 28.304651 
312.047974 2.842579 
314.393524 14.076563 
315.882751 10350.55957 
316.636353 24.77689 
319.985443 8.674785 
321.322815 6.024224 
323.161926 92.430817 
325.020966 5780.125 
326.252258 8.541822 
327.0 1.040768 
328.205322 163.736633 
329.559113 112.218353 
331.145386 8.540729 
332.184143 94.817154 
334.10733 87.329857 
340.277527 49.779472 
342.125122 10791.873047 
343.096222 10.954885 
344.375458 26.92281 
345.408295 2.198418 
346.171722 14.025597 
347.04483 1606.916016 
349.436676 17.497065 
350.089233 12.361738 
351.1409 85.728157 
358.433746 14.256516 
358.974701 24.716488 
360.170044 586.02594 
362.415436 19.17123 
363.134247 112.609741 
365.09024 8529.995117 
366.201141 55.488873 
367.261505 10.356171 
368.236908 5.490896 
377.019684 13.507221 
378.273193 10.456663 
381.134247 297.746246 
382.053741 54.921947 
383.049866 4213.296875 
384.118774 38.590725 
384.697968 65.703613 
385.215332 54.639114 
393.086975 78.853188 
396.773895 33.127514 
397.312286 20.327915 
399.146759 14.065824 
400.286194 21.115229 
401.026123 345.513123 
402.180481 19.356024 
408.01825 11819.495117 
411.102783 5.644487 
420.040894 62.975979 
420.545471 1.198456 
421.925262 71.67868 
426.165833 74.95433 
427.045013 32.575909 
436.461792 21.499819 
443.446899 12.079629 
444.203888 655.005066 
446.932861 12.196578 
447.533478 21.414589 
448.134399 2.969703 
450.094147 10.98272 
451.046448 2.333033 
453.232452 42.804638 
460.285553 42.465832 
462.491547 19.633886 
463.091217 21.137825 
464.062256 10647.485352 
465.0 8.149055 
466.191528 195.727066 
466.831909 24.768099 
477.323517 151.547134 
478.364929 24.307423 
479.374298 13.867819 
480.197327 1281.259033 
480.909088 1.961494 
482.134399 4554.228516 
483.138031 12.218197 
491.08255 29.958176 
495.016266 30.714428 
496.926666 21.005634 
498.815826 47.802444 
499.449615 103.049614 
500.157135 6151.152344 
502.443665 5.428195 
504.306854 35.010689 
508.214874 381.84787 
509.402344 14.596354 
511.567017 7.895749 
514.428772 59.389992 
516.311768 33.96904 
518.134155 179.889984 
518.727295 2.493838 
520.319763 11.025454 
521.403564 687.958252 
522.155884 211324.59375 
523.152466 241.516663 
524.310974 244.558899 
525.385498 35.77195 
526.261475 220.706757 
534.149536 71.348938 
536.054382 54.057354 
536.636902 4.138034 
538.312622 210.415482 
539.286743 317.04425 
540.148926 123926.710938 
540.669983 1844.493042 
541.194397 101.425316 
542.095886 402.597626 
544.053955 256.605347 
554.268799 70.750916 
555.136719 151.753448 
556.443787 133.516525 
557.212952 741.236389 
558.163391 191762.21875 
558.66748 3821.82251 
559.297485 63.060852 
560.339172 521.463501 
570.07312 8.143411 
570.611145 85.667053 
571.242615 18.968048 
572.275696 1055.316284 
573.554626 23.722565 
574.231201 1196.030762 
575.399536 3219.105713 
576.229797 652197.1875 
576.97406 319.087097 
577.66687 7.292619 
578.50769 47.637867 
589.159363 58.559971 
590.166199 5855.629883 
590.730713 53.813061 
592.315369 7.74525 
602.131592 246.557953 
602.818176 3.091342 
603.623108 8.070936 
604.17865 8.425346 
608.648804 14.62604 
617.883484 30.573311 
626.317566 70.509766 
631.859985 15.472919 
636.454529 1.187886 
639.359558 78.526077 
640.216736 3123.255127 
644.085632 78.702461 
644.653137 10.431042 
648.257019 11.687328 
653.730469 12.646415 
654.463074 16.608498 
657.369507 18.081322 
658.174072 2089.1875 
658.818176 10.723957 
661.976807 7.388765 
665.50885 75.202568 
666.251465 169.102158 
670.408569 6.699417 
676.056274 31.845179 
680.061279 233.776825 
683.212585 45.578365 
684.057495 1537.226929 
696.333191 20.31739 
697.362976 818.39093 
698.166626 114349.1875 
698.922241 147.877823 
700.0 1.445788 
701.065918 9.701358 
702.048157 3875.771973 
702.69696 168.467651 
714.806824 179.589005 
716.143799 239486.421875 
717.016113 88.753693 
721.181824 1.110324 
1800.186768 19.711956 
1891.370361 33.46489 
END IONS

