BEGIN IONS
PEPMASS=245.096
CHARGE=1+
COMPOUNDNAME=MLS001066402-01!
LIBRARYQUALITY=3
SMILES=OC(=O)CCCC[C@@H]1SC[C@@H]2NC(=O)N[C@H]12
INCHIKEY=YBJHBAHKTGYVGT-ZKWXMUAHSA-N
INCHI=N/A
MSLEVEL=2
SOURCE_INSTRUMENT=LC-ESI-qTof
FILENAME=p2-F07_GF7_01_18043.mzXML
SEQ=*..*
IONMODE=Positive
ORGANISM=GNPS-NIH-NATURALPRODUCTSLIBRARY
NAME=MLS001066402-01! M+H
PI=Dorrestein
DATACOLLECTOR=VVP/LMS
PUBMED=N/A
SUBMITUSER=vphelan
TAGS=
SPECTRUMID=CCMSLIB00000080354
SCANS=1327
95.067787 248.0 
95.081375 152.0 
95.333839 56.0 
96.222069 188.0 
96.871346 40.0 
97.010757 564.0 
97.039299 948.0 
97.206619 168.0 
97.739136 156.0 
98.004959 168.0 
98.095619 208.0 
98.565346 128.0 
98.893639 192.0 
98.977798 192.0 
99.032234 212.0 
99.056007 144.0 
99.297829 164.0 
99.641235 224.0 
100.022812 180.0 
100.663055 100.0 
101.904953 104.0 
101.953178 172.0 
103.002914 200.0 
103.057457 208.0 
103.938263 176.0 
104.055984 112.0 
105.068359 596.0 
106.028999 164.0 
106.069542 156.0 
107.082855 196.0 
107.593918 84.0 
107.85627 40.0 
108.040314 144.0 
108.082069 176.0 
108.365364 180.0 
110.027138 212.0 
110.045929 124.0 
110.100227 188.0 
110.861725 124.0 
110.981743 188.0 
111.022926 204.0 
111.053596 164.0 
112.023643 120.0 
112.040726 164.0 
113.034294 112.0 
113.3293 156.0 
113.844765 128.0 
114.004089 164.0 
114.033844 296.0 
115.00296 164.0 
115.030708 184.0 
115.053864 180.0 
116.016899 132.0 
117.069748 204.0 
117.550476 60.0 
117.662712 168.0 
118.47805 56.0 
120.138985 232.0 
120.956276 116.0 
121.013191 184.0 
121.06575 212.0 
121.464645 144.0 
121.499748 120.0 
122.018059 168.0 
122.099419 320.0 
122.616798 148.0 
123.004997 188.0 
123.026558 1444.0 
123.100815 140.0 
124.028366 320.0 
125.034828 124.0 
125.073151 180.0 
125.657021 192.0 
125.942764 212.0 
125.998024 152.0 
126.044273 320.0 
127.017189 160.0 
127.073273 128.0 
128.542587 100.0 
129.030472 188.0 
129.046295 196.0 
131.029968 128.0 
131.933731 156.0 
132.083099 220.0 
133.063202 136.0 
133.086166 184.0 
134.017715 60.0 
134.716782 208.0 
135.561295 176.0 
136.076401 152.0 
137.069427 216.0 
137.99826 280.0 
138.0401 364.0 
138.183197 44.0 
138.951675 32.0 
139.01738 180.0 
139.055527 512.0 
139.567047 44.0 
139.858765 180.0 
140.037598 160.0 
140.054428 168.0 
141.012146 172.0 
141.059418 208.0 
142.030273 168.0 
142.067215 204.0 
142.702347 168.0 
143.030655 152.0 
149.041962 472.0 
149.123611 40.0 
151.076797 392.0 
151.093933 152.0 
151.233414 80.0 
151.267685 184.0 
152.91716 60.0 
153.104279 168.0 
154.068726 132.0 
155.022919 300.0 
155.97438 176.0 
156.042786 180.0 
156.080429 196.0 
158.061859 124.0 
158.30217 56.0 
163.080078 160.0 
164.054321 192.0 
165.103989 180.0 
166.06543 516.0 
166.139847 32.0 
167.054184 588.0 
168.057343 384.0 
169.050888 172.0 
171.563126 68.0 
174.298218 132.0 
175.076889 208.0 
175.140091 144.0 
175.725327 76.0 
176.411987 156.0 
177.102631 148.0 
181.108719 144.0 
183.061234 184.0 
184.078949 520.0 
185.076965 432.0 
186.073746 180.0 
186.557022 120.0 
187.043945 116.0 
187.087509 124.0 
192.053513 220.0 
193.093872 204.0 
199.004898 112.0 
199.09436 328.0 
202.085587 152.0 
203.156509 156.0 
204.312759 76.0 
205.452316 184.0 
209.076035 760.0 
210.056656 108.0 
211.267059 68.0 
211.481201 48.0 
221.054779 160.0 
223.970261 196.0 
226.461349 224.0 
226.79393 136.0 
226.871872 120.0 
226.967819 156.0 
227.085236 2136.0 
228.088089 216.0 
229.071625 116.0 
229.09874 84.0 
229.596451 164.0 
229.822327 64.0 
252.70224 80.0 
400.838654 104.0 
592.897644 48.0 
791.900391 52.0 
816.451477 136.0 
825.381653 132.0 
840.650146 124.0 
862.943848 224.0 
905.589294 204.0 
940.001892 188.0 
951.183533 144.0 
1013.848633 140.0 
1032.482788 208.0 
1069.316162 128.0 
1074.333496 96.0 
1078.649902 164.0 
1097.379639 128.0 
1153.606567 20.0 
1167.699951 160.0 
1169.217041 204.0 
1176.71521 164.0 
1193.391602 264.0 
1206.83667 228.0 
1218.563843 176.0 
1228.665771 56.0 
1230.214966 164.0 
1231.045898 168.0 
1234.791748 84.0 
1239.033569 60.0 
1242.714355 124.0 
1254.86792 40.0 
1280.028809 140.0 
1282.985718 156.0 
1288.130859 252.0 
1288.909546 160.0 
1290.053101 192.0 
1311.84021 136.0 
1314.840698 136.0 
1318.408325 228.0 
1332.131226 28.0 
1332.254761 140.0 
1340.52002 180.0 
1347.232544 144.0 
1349.585938 20.0 
1352.043701 192.0 
1368.810425 180.0 
1386.799438 212.0 
1386.873535 264.0 
1390.745239 168.0 
1396.473755 188.0 
1412.241089 184.0 
1431.340454 244.0 
1433.750977 232.0 
1445.561768 148.0 
1461.18457 148.0 
1471.30542 128.0 
1475.109741 172.0 
1478.436768 160.0 
1485.086792 180.0 
END IONS

