BEGIN IONS
PEPMASS=826.471
CHARGE=1+
COMPOUNDNAME=TACROLIMUS
LIBRARYQUALITY=1
SMILES=CO[C@@H]1C[C@@H](CC[C@H]1O)/C=C(\C)/[C@H]2OC(=O)[C@@H]3CCCCN3C(=O)C(=O)[C@]4(O)O[C@@H]([C@H](C[C@H]4C)OC)[C@H](C[C@@H](C)CC(=C[C@@H](CC=C)C(=O)C[C@H](O)[C@H]2C)C)OC
INCHIKEY=QJJXYPPXXYFBGM-KVDYWLTISA-N
INCHI=N/A
MSLEVEL=2
SOURCE_INSTRUMENT=LC-ESI-qTof
FILENAME=NCP003352_A2_B11_BC4_01_15718.mzXML
SEQ=*..*
IONMODE=Positive
ORGANISM=GNPS-NIH-CLINICALCOLLECTION1
NAME=TACROLIMUS [M+Na]
PI=Dorrestein
DATACOLLECTOR=Garg_Neha
PUBMED=N/A
SUBMITUSER=negarg
TAGS=
SPECTRUMID=CCMSLIB00000078984
SCANS=2903
158.964218 160.0 
201.443115 152.0 
215.607269 172.0 
219.087555 140.0 
225.153076 180.0 
226.947006 132.0 
251.08931 144.0 
257.133179 148.0 
262.113434 140.0 
263.076477 248.0 
287.161072 156.0 
300.082397 200.0 
319.504639 176.0 
333.918823 140.0 
335.182037 164.0 
339.191193 200.0 
343.183655 164.0 
350.11676 208.0 
353.046295 176.0 
353.216309 152.0 
358.210815 180.0 
371.214691 224.0 
373.213806 192.0 
387.24173 264.0 
397.194397 220.0 
398.835205 144.0 
399.243591 228.0 
403.238708 140.0 
405.254608 240.0 
409.901123 224.0 
413.260559 144.0 
413.325287 152.0 
413.920319 152.0 
415.172485 160.0 
415.244781 2060.0 
416.246002 688.0 
417.247925 344.0 
429.221924 164.0 
431.242859 556.0 
433.257782 396.0 
434.907867 148.0 
443.240143 1256.0 
444.239777 672.0 
445.264069 144.0 
450.219116 260.0 
459.235657 368.0 
460.238495 332.0 
461.251587 500.0 
462.252533 264.0 
463.255829 148.0 
477.244995 604.0 
478.237762 420.0 
479.312866 160.0 
483.320099 128.0 
487.234467 1612.0 
488.22879 484.0 
489.33252 144.0 
499.270874 152.0 
505.240173 3716.0 
505.45813 180.0 
506.243683 988.0 
506.380341 176.0 
507.254242 212.0 
507.683136 200.0 
512.34552 104.0 
533.011597 160.0 
544.32074 324.0 
545.3396 120.0 
558.381287 172.0 
570.297607 120.0 
570.354736 104.0 
571.356262 168.0 
572.312683 372.0 
575.274475 120.0 
576.309875 152.0 
576.36438 220.0 
585.346741 148.0 
588.310669 880.0 
588.567749 160.0 
589.315125 452.0 
590.326172 124.0 
590.371033 172.0 
591.415649 300.0 
598.287903 324.0 
598.330017 156.0 
599.311768 200.0 
601.545105 148.0 
603.384827 268.0 
606.809021 252.0 
607.390564 1168.0 
608.392822 372.0 
616.308167 6580.0 
616.525635 176.0 
617.312561 2272.0 
618.311951 740.0 
619.304443 96.0 
623.386719 320.0 
624.39624 172.0 
625.408752 1708.0 
626.40741 680.0 
627.425293 148.0 
635.391968 732.0 
636.397034 364.0 
636.458008 208.0 
637.044189 156.0 
637.395569 192.0 
641.424316 124.0 
642.406494 116.0 
643.407043 128.0 
644.430359 96.0 
645.749146 144.0 
651.405823 252.0 
653.40271 1332.0 
654.400208 536.0 
654.461792 160.0 
655.407532 200.0 
657.355835 144.0 
665.36676 136.0 
670.387878 140.0 
671.412231 468.0 
672.411743 224.0 
673.417358 172.0 
679.377197 712.0 
680.373352 604.0 
681.377869 188.0 
690.050354 244.0 
697.273682 184.0 
697.392029 844.0 
698.388367 264.0 
699.410278 148.0 
704.852356 116.0 
712.847717 156.0 
715.399597 932.0 
716.385071 508.0 
716.418152 704.0 
717.407043 320.0 
717.462341 200.0 
718.414429 108.0 
722.803284 148.0 
745.419067 180.0 
746.963135 168.0 
750.23584 144.0 
750.688416 192.0 
753.259033 140.0 
758.040771 156.0 
764.453735 132.0 
765.479553 168.0 
770.768433 180.0 
782.468628 196.0 
782.543823 280.0 
783.451172 96.0 
783.495911 112.0 
787.388794 148.0 
788.350464 156.0 
790.453003 112.0 
791.447144 156.0 
805.904724 152.0 
808.012451 152.0 
808.466919 1492.0 
808.683777 148.0 
809.46051 1052.0 
810.467407 204.0 
811.4729 100.0 
811.720154 108.0 
813.431213 160.0 
825.263916 164.0 
825.400208 124.0 
825.762146 120.0 
825.885376 172.0 
825.968445 228.0 
826.094177 168.0 
826.345947 300.0 
826.47168 26584.0 
826.632385 320.0 
826.732117 160.0 
826.824219 136.0 
826.900757 132.0 
827.021606 160.0 
827.092957 96.0 
827.23175 100.0 
827.30249 208.0 
827.474121 15312.0 
827.594482 440.0 
827.692078 280.0 
828.357117 120.0 
828.47821 4556.0 
828.848267 164.0 
829.108765 168.0 
829.22168 104.0 
829.274536 132.0 
829.474976 1232.0 
829.575073 104.0 
830.456299 176.0 
830.529236 196.0 
831.238586 136.0 
831.35675 112.0 
831.776672 140.0 
832.435486 108.0 
832.515991 104.0 
832.760864 128.0 
833.100647 100.0 
835.210022 120.0 
851.172119 112.0 
942.27478 160.0 
969.6828 160.0 
999.370422 148.0 
1131.289795 156.0 
1338.509644 144.0 
END IONS

