BEGIN IONS
TITLE=Scan Number: 1818
PEPMASS=624.37701
CHARGE=1+
COMPOUNDNAME=Apicidin _120249
LIBRARYQUALITY=2
SMILES=O=C(N[C@@H](CCCCCC(CC)=O)C(N[C@@H](CC1=CN(OC)C2=C1C=CC=C2)C3=O)=O)[C@@H]4N(C([C@H]([C@H](CC)C)N3)=O)CCCC4
INCHIKEY=JWOGUUIOCYMBPV-GMFLJSBRSA-N
INCHI=N/A
MSLEVEL=2
SOURCE_INSTRUMENT=LC-ESI-qToF
FILENAME=P1_C4_conc_GA4_01_2410.mzXML
SEQ=*..*
NOTES=
IONMODE=Positive
ORGANISM=GNPS-LIBRARY
NAME=Apicidin _120249 M+H
SPECTRUMID=CCMSLIB00000478088
ACTIVATION=CID
INSTRUMENT=ion trap
SCANS=1818
98.095314 424.0 
112.075897 10092.0 
113.075897 364.0 
114.090073 464.0 
117.056793 1900.0 
127.085327 736.0 
128.048676 1032.0 
129.100372 300.0 
130.065063 6752.0 
131.064331 1732.0 
132.064072 716.0 
133.091156 252.0 
138.125198 700.0 
139.087601 276.0 
139.110336 612.0 
139.137054 320.0 
140.070557 11592.0 
141.074234 1280.0 
141.101074 584.0 
142.072525 536.0 
142.10817 516.0 
143.070801 900.0 
145.052841 2196.0 
146.058044 492.0 
148.080551 284.0 
150.086945 260.0 
154.122406 564.0 
156.137466 18996.0 
157.075256 4012.0 
157.139679 1128.0 
158.058563 424.0 
158.083359 7400.0 
158.144135 296.0 
159.091751 4156.0 
160.075699 13272.0 
161.079544 1680.0 
166.122192 356.0 
167.081512 904.0 
168.094818 332.0 
168.137482 560.0 
169.049423 404.0 
169.075317 548.0 
169.100754 324.0 
169.12352 272.0 
170.060226 10324.0 
170.102463 608.0 
171.06427 1576.0 
174.085861 404.0 
178.087067 3096.0 
179.090469 992.0 
180.100357 640.0 
180.137421 540.0 
180.160477 364.0 
181.13707 416.0 
183.148041 900.0 
184.132004 1280.0 
185.069901 1736.0 
185.134323 280.0 
186.077179 1024.0 
187.080536 600.0 
189.09996 732.0 
193.130661 632.0 
194.153275 1312.0 
195.151108 360.0 
197.164902 3048.0 
198.122025 252.0 
198.169159 792.0 
199.123184 1648.0 
200.066193 528.0 
200.124893 560.0 
201.071167 336.0 
201.158539 1420.0 
202.09903 572.0 
202.158691 628.0 
207.121948 604.0 
208.133011 1912.0 
209.136353 308.0 
210.102783 272.0 
210.1548 496.0 
211.106079 704.0 
211.143265 19724.0 
212.145905 3004.0 
213.098526 268.0 
213.142548 620.0 
217.093552 564.0 
218.078354 364.0 
222.135025 256.0 
222.161026 256.0 
223.118683 400.0 
223.144485 1028.0 
224.153564 964.0 
224.201462 340.0 
225.068909 652.0 
225.158768 12468.0 
226.161102 1820.0 
227.155869 1516.0 
228.158005 364.0 
237.137222 728.0 
237.184128 1128.0 
238.143036 692.0 
239.153214 440.0 
240.147644 1540.0 
241.147858 900.0 
242.161148 424.0 
249.192444 396.0 
251.139053 756.0 
251.210938 400.0 
252.151642 572.0 
253.154251 1440.0 
254.143158 772.0 
255.147217 996.0 
257.163574 296.0 
263.164673 300.0 
264.147003 268.0 
265.15802 360.0 
265.189789 900.0 
266.150238 316.0 
266.200134 300.0 
267.205872 16736.0 
268.138733 304.0 
268.2117 4296.0 
269.153259 312.0 
269.210083 448.0 
270.159576 9232.0 
271.159943 948.0 
273.187439 276.0 
277.188782 600.0 
278.195923 388.0 
279.204468 668.0 
280.165436 1520.0 
281.129181 1568.0 
281.172699 688.0 
282.132141 1608.0 
282.189819 376.0 
283.141541 3260.0 
284.147705 376.0 
285.160553 660.0 
292.183899 596.0 
293.154907 532.0 
293.183563 860.0 
294.193573 1500.0 
294.21933 1516.0 
295.199982 9544.0 
296.205139 2172.0 
297.162567 528.0 
297.19809 640.0 
298.155914 3936.0 
298.192383 292.0 
299.156647 496.0 
302.180756 260.0 
304.196533 320.0 
305.199066 424.0 
306.212402 504.0 
307.178406 952.0 
308.189087 600.0 
309.197357 548.0 
310.204163 816.0 
311.221741 564.0 
312.226349 3436.0 
313.228424 712.0 
322.21991 348.0 
324.205048 752.0 
325.232635 416.0 
326.199585 1000.0 
327.175964 264.0 
331.157593 448.0 
333.160309 1060.0 
333.200012 456.0 
334.209442 500.0 
336.129395 352.0 
336.204071 624.0 
337.207733 424.0 
338.217285 580.0 
340.202759 672.0 
341.208801 2880.0 
342.212769 2428.0 
343.217743 440.0 
346.220825 384.0 
349.211639 544.0 
350.212006 700.0 
351.171021 1664.0 
351.213501 2644.0 
352.177948 924.0 
352.214661 744.0 
353.228394 1824.0 
354.192688 1848.0 
354.229248 1100.0 
355.192535 324.0 
362.27771 820.0 
363.244995 596.0 
364.221741 1264.0 
365.223511 528.0 
366.231415 524.0 
367.233521 520.0 
368.191772 516.0 
368.226837 324.0 
369.202423 820.0 
370.210907 688.0 
371.219543 308.0 
372.225983 1892.0 
373.233093 744.0 
374.185028 256.0 
379.199127 276.0 
381.226624 532.0 
382.213776 908.0 
390.270966 808.0 
391.26944 568.0 
393.210693 388.0 
396.221039 472.0 
397.195435 516.0 
397.232422 420.0 
400.22226 2740.0 
401.221405 828.0 
402.232849 384.0 
407.224701 304.0 
407.300201 1064.0 
408.23526 808.0 
408.283905 2508.0 
409.220276 2632.0 
409.289825 576.0 
410.232788 376.0 
411.233276 396.0 
419.303741 260.0 
420.304962 892.0 
423.277588 560.0 
425.223602 556.0 
433.268921 256.0 
435.274475 508.0 
436.260956 288.0 
436.30191 284.0 
437.268341 412.0 
438.238342 300.0 
439.289459 436.0 
441.248047 4196.0 
442.247345 1296.0 
443.255585 380.0 
446.295288 304.0 
451.281128 308.0 
452.27063 324.0 
453.284119 564.0 
454.288788 404.0 
463.28833 860.0 
464.298157 13744.0 
465.3013 4464.0 
466.303589 696.0 
467.276764 8996.0 
468.284821 2964.0 
469.277557 576.0 
477.305695 2428.0 
478.29483 608.0 
478.319763 472.0 
479.264801 772.0 
480.269073 2516.0 
481.279572 4620.0 
482.282227 1396.0 
483.28949 704.0 
484.294312 292.0 
485.311401 260.0 
491.294098 400.0 
493.275177 304.0 
508.266968 3696.0 
509.272797 676.0 
510.281586 2408.0 
511.28949 10844.0 
512.292725 3720.0 
513.304688 4832.0 
514.30658 1480.0 
522.362122 452.0 
537.289307 276.0 
549.363953 448.0 
550.347717 2048.0 
551.354736 656.0 
552.350952 356.0 
564.356079 1832.0 
565.360229 2528.0 
566.367188 1500.0 
567.373169 316.0 
568.348267 288.0 
575.346741 304.0 
580.375488 312.0 
592.347717 10992.0 
593.356018 16360.0 
594.360291 7452.0 
595.363892 2272.0 
596.379517 4012.0 
597.379272 1408.0 
598.398071 356.0 
606.357239 344.0 
607.372131 328.0 
624.376587 118800.0 
625.194824 592.0 
625.37915 42852.0 
625.607117 272.0 
625.966492 260.0 
626.274292 256.0 
626.380981 9356.0 
627.386536 732.0 
628.842529 356.0 
END IONS

