BEGIN IONS
PEPMASS=436.059
CHARGE=1+
COMPOUNDNAME="Aztreonam (Azactam, Cayston)"
LIBRARYQUALITY=1
SMILES=[C@H]1(C(N([C@@H]1C)S(O)(=O)=O)=O)NC(\C(=N/OC(C(O)=O)(C)C)C2N=C(SC=2)N)=O
INCHIKEY=WZPBZJONDBGPKJ-DZIOLEBDSA-N
INCHI=N/A
MSLEVEL=2
SOURCE_INSTRUMENT=LC-ESI-qTof
FILENAME=Plate3_1_20_GG9_01_16498.mzXML
SEQ=*..*
IONMODE=Positive
ORGANISM=GNPS-SELLECKCHEM-FDA-PART2
NAME="Aztreonam (Azactam, Cayston)" [M+H]
PI=Dorrestein
DATACOLLECTOR=Garg_Neha
PUBMED=N/A
SUBMITUSER=negarg
TAGS=Antibiotic[Drug Class]
SPECTRUMID=CCMSLIB00000078170
SCANS=1015
45.44191 188.0 
46.39407 164.0 
47.156342 160.0 
47.364319 164.0 
47.690884 184.0 
48.357063 148.0 
48.48864 160.0 
48.506657 184.0 
49.009445 200.0 
49.406261 176.0 
49.877438 172.0 
50.999752 208.0 
51.345726 176.0 
51.382812 144.0 
51.422768 208.0 
51.648521 208.0 
52.112999 140.0 
53.155521 204.0 
53.371956 188.0 
54.057541 140.0 
54.176136 264.0 
54.832951 140.0 
55.051289 140.0 
55.136974 208.0 
57.520905 224.0 
58.413433 180.0 
58.768402 212.0 
59.473892 156.0 
60.158886 168.0 
61.350307 164.0 
61.417358 204.0 
61.981731 140.0 
63.208385 164.0 
63.285946 144.0 
63.908134 216.0 
65.179321 172.0 
65.370674 148.0 
67.115273 156.0 
67.324142 160.0 
67.641335 180.0 
67.733032 148.0 
68.440857 184.0 
68.694664 152.0 
68.838249 148.0 
69.021072 208.0 
71.226631 144.0 
71.361069 240.0 
71.536034 204.0 
72.856796 160.0 
75.168289 168.0 
75.375496 152.0 
75.441177 208.0 
75.870506 176.0 
76.191566 152.0 
76.661362 160.0 
78.484413 188.0 
78.523209 144.0 
78.65731 224.0 
78.881645 208.0 
78.99305 168.0 
79.526398 196.0 
80.188034 284.0 
80.314629 156.0 
80.75222 140.0 
80.879257 172.0 
81.501556 188.0 
81.645363 148.0 
83.150299 188.0 
85.677399 176.0 
86.639908 148.0 
87.170555 160.0 
88.549217 160.0 
89.42601 164.0 
89.616211 188.0 
90.140762 180.0 
90.206917 180.0 
90.357727 220.0 
90.539925 180.0 
91.04438 188.0 
92.181664 184.0 
92.782333 180.0 
93.909515 148.0 
94.03878 168.0 
95.002235 132.0 
95.021812 168.0 
96.05677 244.0 
96.453163 252.0 
96.539185 172.0 
96.979691 180.0 
97.10125 140.0 
97.641342 160.0 
97.995667 152.0 
98.69635 224.0 
98.731949 180.0 
99.191292 156.0 
99.904198 148.0 
100.009659 148.0 
101.099373 208.0 
102.898392 176.0 
102.912521 140.0 
103.138786 184.0 
103.302574 140.0 
103.535339 200.0 
104.658295 228.0 
104.707161 180.0 
104.851814 164.0 
104.994522 232.0 
105.70134 156.0 
108.328484 232.0 
108.382355 192.0 
108.959145 140.0 
110.213417 208.0 
111.002319 140.0 
111.019478 180.0 
112.380302 180.0 
113.017586 204.0 
113.183502 260.0 
113.72197 172.0 
114.01506 196.0 
116.027931 168.0 
116.326118 152.0 
116.884918 184.0 
117.989227 208.0 
119.381264 172.0 
119.453041 212.0 
119.685905 156.0 
120.09343 264.0 
120.270164 184.0 
121.162361 192.0 
121.528503 188.0 
124.013847 148.0 
124.052147 328.0 
125.004402 564.0 
125.240334 216.0 
126.013496 4920.0 
126.950066 144.0 
126.992676 192.0 
127.020103 2152.0 
127.961205 156.0 
128.026184 264.0 
129.013168 280.0 
129.32695 192.0 
130.261154 184.0 
130.302048 172.0 
131.287643 152.0 
131.582001 144.0 
131.817261 168.0 
132.959991 196.0 
134.64061 192.0 
134.906326 196.0 
135.142212 180.0 
135.684174 172.0 
137.085754 156.0 
137.20929 164.0 
137.8535 140.0 
137.923615 196.0 
138.013016 948.0 
138.23056 164.0 
138.376556 184.0 
138.995209 392.0 
139.548218 176.0 
140.004456 136.0 
140.028473 180.0 
141.00737 164.0 
142.007797 2000.0 
142.326874 168.0 
143.009033 188.0 
144.005096 304.0 
144.168243 160.0 
144.785461 176.0 
146.177811 148.0 
146.977814 156.0 
147.296829 144.0 
147.915527 240.0 
148.846497 156.0 
149.054337 236.0 
150.070404 148.0 
150.477859 228.0 
150.900528 172.0 
152.027267 440.0 
153.032852 244.0 
153.399719 168.0 
154.007324 324.0 
154.040039 212.0 
155.013199 644.0 
155.03598 212.0 
155.924408 176.0 
156.001465 168.0 
156.02504 752.0 
156.165573 148.0 
156.618576 148.0 
156.715729 172.0 
157.014465 172.0 
157.028198 220.0 
157.079712 176.0 
157.489075 160.0 
158.454681 152.0 
158.968216 168.0 
159.292572 168.0 
159.649475 168.0 
160.107498 176.0 
160.513641 188.0 
160.656982 156.0 
160.725098 240.0 
162.075348 176.0 
163.00914 196.0 
163.535568 140.0 
163.711243 164.0 
163.953247 152.0 
164.185242 156.0 
164.381683 172.0 
165.033493 220.0 
166.003265 176.0 
166.031067 2248.0 
166.103516 192.0 
167.029816 580.0 
168.024078 176.0 
169.02536 164.0 
170.000626 216.0 
171.034042 432.0 
171.53656 144.0 
171.713867 192.0 
171.904312 156.0 
172.034988 276.0 
172.131424 180.0 
172.217606 152.0 
172.463211 224.0 
172.661911 248.0 
173.041336 184.0 
173.974655 148.0 
174.455399 316.0 
174.839417 216.0 
175.077438 164.0 
176.144547 192.0 
176.98555 152.0 
177.878983 180.0 
178.030319 228.0 
178.58046 204.0 
179.022247 184.0 
179.043549 440.0 
181.016739 996.0 
181.054535 180.0 
181.33049 208.0 
181.56105 152.0 
181.90448 188.0 
181.998993 392.0 
182.026993 1844.0 
182.105865 148.0 
182.167648 160.0 
182.216003 184.0 
182.74028 148.0 
182.783325 140.0 
183.033234 5540.0 
183.117142 152.0 
184.027847 416.0 
184.252777 148.0 
185.028931 192.0 
185.207138 176.0 
185.294373 152.0 
185.882751 192.0 
186.882675 176.0 
188.354828 180.0 
189.873886 148.0 
190.071396 156.0 
191.037155 160.0 
191.349472 156.0 
191.71582 144.0 
194.039398 180.0 
194.101456 208.0 
195.028717 176.0 
195.32901 188.0 
196.011108 176.0 
196.069641 324.0 
198.10376 172.0 
199.027954 1332.0 
200.030838 396.0 
201.025772 448.0 
201.485275 160.0 
202.036743 180.0 
203.354187 140.0 
205.357208 140.0 
205.802383 204.0 
206.04834 736.0 
206.885941 224.0 
207.036636 184.0 
208.046112 260.0 
208.791183 192.0 
208.967285 180.0 
209.012497 7340.0 
209.048737 1676.0 
209.369644 156.0 
209.847977 160.0 
209.91423 156.0 
210.020584 11636.0 
211.022568 1272.0 
211.084961 184.0 
211.81601 224.0 
211.885544 148.0 
212.014633 868.0 
212.443573 148.0 
212.52774 104.0 
213.644852 176.0 
214.635101 208.0 
214.661346 172.0 
215.934631 160.0 
217.613739 232.0 
220.536041 164.0 
222.66333 156.0 
223.061829 136.0 
223.38858 148.0 
224.063766 276.0 
224.630768 148.0 
225.027679 144.0 
225.072464 168.0 
226.645813 204.0 
227.023331 1952.0 
228.041656 316.0 
229.022583 156.0 
229.055176 148.0 
230.050369 152.0 
236.127533 176.0 
238.085892 184.0 
243.357025 216.0 
246.253113 148.0 
246.737457 144.0 
247.122147 184.0 
250.339554 156.0 
251.057556 120.0 
252.055481 132.0 
252.393799 192.0 
253.038223 452.0 
254.04071 164.0 
254.513596 176.0 
256.801697 148.0 
257.548584 224.0 
258.613312 144.0 
265.981873 212.0 
267.059692 224.0 
268.092682 196.0 
268.122009 152.0 
268.934113 160.0 
269.070465 964.0 
269.129974 196.0 
270.06723 1216.0 
270.107147 168.0 
271.048828 184.0 
272.058929 176.0 
273.46051 208.0 
276.490265 144.0 
282.951263 140.0 
285.063507 1364.0 
286.049042 296.0 
286.072693 404.0 
287.069733 128.0 
288.194733 172.0 
290.43924 184.0 
290.469757 272.0 
291.243683 160.0 
293.033051 144.0 
293.527283 180.0 
293.953674 208.0 
295.04129 180.0 
295.891663 156.0 
296.833923 296.0 
299.487061 184.0 
306.251678 192.0 
310.100494 324.0 
311.965881 164.0 
312.16629 376.0 
312.282349 256.0 
312.523712 164.0 
312.672882 140.0 
312.737732 124.0 
312.771423 180.0 
312.885284 224.0 
312.935608 144.0 
312.986176 152.0 
313.060486 43544.0 
313.290192 216.0 
313.458679 116.0 
313.511047 152.0 
313.588593 140.0 
313.65979 184.0 
313.787231 124.0 
313.89978 104.0 
313.971466 140.0 
314.061401 6140.0 
314.662323 176.0 
314.781006 104.0 
314.913422 96.0 
315.062164 2564.0 
315.747375 148.0 
316.066254 288.0 
316.104797 108.0 
316.413788 152.0 
317.071075 116.0 
317.403076 148.0 
328.109772 508.0 
333.142212 152.0 
340.355499 172.0 
345.345337 180.0 
352.180695 160.0 
355.790527 192.0 
356.101898 7576.0 
357.104065 1168.0 
358.097748 464.0 
364.215424 180.0 
364.9375 188.0 
367.405426 144.0 
381.975342 220.0 
389.515778 148.0 
400.177917 232.0 
430.294708 148.0 
436.056549 484.0 
437.235901 144.0 
438.052795 140.0 
497.705688 160.0 
641.291443 168.0 
796.869629 148.0 
973.167053 160.0 
1050.815186 216.0 
1101.907104 176.0 
1165.878052 272.0 
1270.881714 160.0 
1297.026245 164.0 
1384.163818 168.0 
1433.723022 192.0 
1453.429688 168.0 
1465.046875 156.0 
1467.394165 168.0 
1491.739258 224.0 
1525.451294 152.0 
1569.679932 204.0 
1595.356567 140.0 
1605.428711 212.0 
1610.44873 148.0 
1645.444824 180.0 
1652.015137 212.0 
1680.254272 140.0 
1702.042114 204.0 
1708.008667 224.0 
1738.022705 216.0 
1747.919067 188.0 
1751.923828 228.0 
1766.214844 156.0 
1789.182739 176.0 
1798.227417 212.0 
1801.148926 188.0 
1814.417847 176.0 
1846.272217 160.0 
1865.478394 196.0 
1880.509155 196.0 
1894.933105 192.0 
1895.678345 176.0 
1903.068604 212.0 
1910.777832 244.0 
1922.628296 160.0 
1922.881348 224.0 
1923.832764 196.0 
1950.594727 176.0 
1963.370239 140.0 
1984.70813 140.0 
1992.945068 192.0 
1993.327148 196.0 
2002.383423 168.0 
END IONS

