BEGIN IONS
PEPMASS=386.266
CHARGE=1+
COMPOUNDNAME=MLS002153199-01!Actinonin13434-13-4
LIBRARYQUALITY=1
SMILES=CCCCCC(CC(=O)NO)C(=O)NC(C(C)C)C(=O)N1CCCC1CO
INCHIKEY=XJLATMLVMSFZBN-UHFFFAOYSA-N
INCHI=N/A
MSLEVEL=2
SOURCE_INSTRUMENT=LC-ESI-qTof
FILENAME=p3-E10_GE10_01_18279.mzXML
SEQ=*..*
IONMODE=Positive
ORGANISM=GNPS-NIH-SMALLMOLECULEPHARMACOLOGICALLYACTIVE
NAME=MLS002153199-01!Actinonin13434-13-4 M+H
PI=Dorrestein
DATACOLLECTOR=VP/LMS
PUBMED=N/A
SUBMITUSER=vphelan
TAGS=
SPECTRUMID=CCMSLIB00000085105
SCANS=1531
44.980717 164.0 
46.553448 188.0 
54.55452 188.0 
54.935951 168.0 
56.240376 84.0 
58.684528 164.0 
58.924164 224.0 
60.041718 68.0 
60.997093 108.0 
61.800304 132.0 
65.825699 156.0 
65.908081 184.0 
70.893494 152.0 
76.453445 72.0 
80.189316 128.0 
83.972328 136.0 
95.109329 136.0 
96.502289 148.0 
97.100937 172.0 
98.061028 152.0 
98.311501 196.0 
100.217201 116.0 
100.917801 108.0 
101.538605 88.0 
101.713165 152.0 
102.058731 248.0 
102.091156 2324.0 
102.276009 80.0 
102.469337 80.0 
102.834343 64.0 
103.090668 236.0 
103.189888 36.0 
104.091591 172.0 
104.115959 256.0 
107.08577 200.0 
110.16835 76.0 
110.873512 108.0 
110.902855 72.0 
111.045441 176.0 
112.765648 116.0 
114.942513 188.0 
116.106293 92.0 
117.112183 148.0 
119.502228 40.0 
122.098892 144.0 
125.094963 292.0 
126.094269 120.0 
128.068069 544.0 
134.804367 232.0 
136.927155 212.0 
142.087173 92.0 
147.826218 244.0 
152.054688 56.0 
152.101318 68.0 
152.927231 152.0 
156.141266 176.0 
158.122955 184.0 
159.132523 216.0 
166.160919 116.0 
170.119949 292.0 
171.115891 152.0 
184.127182 140.0 
185.131226 180.0 
186.110291 436.0 
187.11174 208.0 
188.291122 80.0 
195.539825 132.0 
196.046707 40.0 
196.531921 84.0 
198.981018 124.0 
201.150497 228.0 
205.063217 84.0 
205.128693 148.0 
208.874405 200.0 
209.173676 92.0 
212.105698 120.0 
224.164001 816.0 
224.365707 100.0 
226.164062 144.0 
235.834778 132.0 
236.15889 132.0 
239.165924 148.0 
251.428467 180.0 
252.161209 80.0 
256.082855 164.0 
260.982483 196.0 
267.908875 164.0 
286.183716 204.0 
288.406952 252.0 
303.835541 128.0 
310.010895 148.0 
313.148285 104.0 
333.942688 88.0 
336.238068 172.0 
353.244873 200.0 
368.245605 192.0 
404.961273 108.0 
720.538208 116.0 
1230.844849 160.0 
1232.577271 124.0 
1237.592651 184.0 
1256.062378 144.0 
1282.419312 184.0 
1309.049927 184.0 
1346.32666 204.0 
1364.065674 96.0 
1377.248535 144.0 
1399.251709 160.0 
1420.656372 208.0 
1435.262695 168.0 
1443.682739 180.0 
1445.55127 132.0 
1447.860352 216.0 
1472.823486 172.0 
1481.73584 80.0 
1483.076904 100.0 
1486.543579 184.0 
END IONS

