BEGIN IONS
TITLE=Scan Number: 1
PEPMASS=741.0
CHARGE=1+
COMPOUNDNAME=Ferrichrome
LIBRARYQUALITY=2
SMILES=CC(=O)N(CCCC1C(=O)NC(C(=O)NC(C(=O)NCC(=O)NCC(=O)NCC(=O)N1)CCCN(C(=O)C)[O-])CCCN(C(=O)C)[O-])[O-].[Fe+3][H+]
INCHIKEY=GGUNGDGGXMHBMJ-UHFFFAOYSA-N
INCHI=
MSLEVEL=2
SOURCE_INSTRUMENT=DI-ESI-Hybrid FT
FILENAME=f.smascuch/Standards/STANDARD_Ferrichrome_FT01_50K_MS2_mz741.mzXML;
SEQ=*..*
NOTES=
IONMODE=Positive
ORGANISM=GNPS-LIBRARY
NAME=Ferrichrome M+H
SPECTRUMID=CCMSLIB00000078898
ACTIVATION=CID
INSTRUMENT=ion trap
SCANS=1
200.07843 1.0 
200.078949 1.0 
200.080536 5.0 
200.081589 5.0 
200.407318 8.0 
200.519135 2.0 
200.519669 2.0 
200.581726 16.0 
200.657089 2.0 
200.657623 2.0 
200.658157 2.0 
200.714462 17.0 
200.719772 14.0 
200.720306 14.0 
200.840973 1.0 
200.841507 1.0 
200.842041 1.0 
200.842575 1.0 
200.843109 1.0 
200.947418 6.0 
200.947952 6.0 
201.003357 2.0 
201.003876 2.0 
201.004944 1.0 
201.013474 9.0 
201.149445 2.0 
201.149979 2.0 
201.150513 2.0 
201.322464 13.0 
201.368439 12.0 
201.368973 12.0 
201.49472 24.0 
201.495255 24.0 
201.764389 4.0 
201.764923 4.0 
201.779419 1.0 
201.779953 1.0 
201.780502 1.0 
201.978287 1.0 
201.978821 1.0 
201.979355 1.0 
201.979889 1.0 
201.980438 1.0 
202.113403 35.0 
202.120941 3.0 
202.122025 4.0 
202.122559 4.0 
202.189926 1.0 
202.19046 1.0 
202.19101 1.0 
202.191544 1.0 
202.192078 1.0 
202.31723 43.0 
202.332352 1.0 
202.332886 1.0 
202.333435 1.0 
202.333969 1.0 
202.338287 2.0 
202.338837 2.0 
202.460922 16.0 
202.520935 6.0 
202.539871 6.0 
202.540405 6.0 
202.540955 6.0 
202.604263 3.0 
202.604813 3.0 
202.625916 24.0 
202.629166 50.0 
202.635132 361.0 
202.641632 39.0 
202.644882 51.0 
202.653 17.0 
202.655701 12.0 
202.65625 12.0 
202.658417 18.0 
202.663284 23.0 
202.663834 23.0 
202.667084 1.0 
202.669785 20.0 
202.703918 2.0 
202.704468 2.0 
202.705551 1.0 
202.938812 9.0 
202.962708 4.0 
202.963257 4.0 
202.977921 1.0 
202.97847 1.0 
202.979004 1.0 
202.979553 1.0 
203.124725 31.0 
203.125275 31.0 
203.227615 1.0 
203.228165 1.0 
203.228699 1.0 
203.304443 9.0 
203.304977 9.0 
203.367142 1.0 
203.367691 1.0 
203.368225 1.0 
203.368774 1.0 
203.492661 1.0 
203.493759 2.0 
203.494293 2.0 
203.495392 1.0 
203.51178 1.0 
203.512314 1.0 
203.692719 2.0 
203.693268 2.0 
203.693817 2.0 
203.694916 1.0 
203.982025 1.0 
204.195694 1.0 
204.196243 1.0 
204.196793 1.0 
204.197342 1.0 
204.234741 1.0 
204.235291 1.0 
204.272705 31.0 
204.386124 4.0 
204.484772 9.0 
204.548767 2.0 
204.549316 2.0 
204.549866 2.0 
204.955658 2.0 
204.956223 2.0 
204.973389 35.0 
205.028259 1.0 
205.029373 2.0 
205.030472 1.0 
205.3564 1.0 
205.356964 1.0 
205.357513 1.0 
205.358078 1.0 
205.358627 1.0 
205.62648 8.0 
205.843048 3.0 
205.843613 3.0 
205.844162 3.0 
205.925781 1.0 
205.926346 1.0 
205.926895 1.0 
205.92746 1.0 
206.065125 1.0 
206.065674 1.0 
206.153625 35.0 
206.162033 3.0 
206.163162 4.0 
206.598465 10.0 
206.633926 1.0 
206.634491 1.0 
206.635056 1.0 
206.787766 1.0 
206.78833 1.0 
206.788895 1.0 
206.855453 1.0 
206.856018 1.0 
206.856583 1.0 
207.271591 1.0 
207.272156 1.0 
207.27272 1.0 
207.2733 1.0 
207.381561 1.0 
207.382126 1.0 
207.38269 1.0 
207.407089 1.0 
207.407654 1.0 
207.408218 1.0 
207.430923 1.0 
207.432053 2.0 
207.433182 1.0 
207.478027 9.0 
207.478592 9.0 
207.542191 18.0 
207.967941 1.0 
207.968521 1.0 
207.969086 1.0 
207.96965 1.0 
208.07637 1.0 
208.076935 1.0 
208.077515 1.0 
208.527832 5.0 
208.528397 5.0 
208.528976 5.0 
208.674728 19.0 
208.717804 2.0 
208.718384 2.0 
208.718964 2.0 
208.790222 1.0 
208.790787 1.0 
208.81897 1.0 
208.819534 1.0 
208.978943 1.0 
208.979523 1.0 
208.986435 12.0 
209.110336 1.0 
209.110916 1.0 
209.111496 1.0 
209.112076 1.0 
209.11264 1.0 
209.219376 1.0 
209.316986 1.0 
209.317566 1.0 
209.31813 1.0 
209.549515 3.0 
209.550095 3.0 
209.550659 3.0 
209.80751 1.0 
209.80809 1.0 
209.80867 1.0 
209.980057 1.0 
209.980637 1.0 
209.981216 1.0 
209.981796 1.0 
210.396042 8.0 
210.396622 8.0 
210.431061 2.0 
210.432236 3.0 
210.550842 1.0 
210.551422 1.0 
210.635056 41.0 
210.647934 4.0 
210.648514 4.0 
210.676025 47.0 
210.716415 14.0 
210.782608 1.0 
210.783188 1.0 
210.783783 1.0 
210.784363 1.0 
210.784943 1.0 
210.899261 1.0 
210.899857 1.0 
211.207062 1.0 
211.207657 1.0 
211.208237 1.0 
211.291214 32.0 
211.364243 19.0 
211.364838 19.0 
211.396072 1.0 
211.396652 1.0 
211.397247 1.0 
212.109177 1.0 
212.270081 1.0 
212.270676 1.0 
212.382446 3.0 
212.383041 3.0 
212.424698 10.0 
212.516373 29.0 
212.516968 29.0 
212.714294 34.0 
212.768005 3.0 
212.7686 3.0 
212.769196 3.0 
212.874924 2.0 
212.876114 1.0 
213.040588 5.0 
213.054947 19.0 
213.212494 2.0 
213.213089 2.0 
213.30545 1.0 
213.306061 1.0 
213.421326 3.0 
213.422516 4.0 
213.426132 1.0 
213.426727 1.0 
213.427322 1.0 
213.427933 1.0 
213.547531 28.0 
213.593857 2.0 
213.897507 1.0 
213.898117 1.0 
214.136093 4.0 
214.177826 19.0 
214.350983 1.0 
214.351578 1.0 
214.352188 1.0 
214.740677 3.0 
214.741287 3.0 
214.741898 3.0 
214.744934 1.0 
214.746155 2.0 
214.74675 2.0 
214.758926 1.0 
214.759521 1.0 
214.988464 35.0 
215.064682 26.0 
215.366425 4.0 
215.367035 4.0 
215.599106 2.0 
215.599716 2.0 
215.600327 2.0 
215.600937 2.0 
215.676971 21.0 
215.724228 1.0 
215.724838 1.0 
215.725449 1.0 
215.726059 1.0 
215.963211 1.0 
215.963821 1.0 
216.003204 22.0 
216.003815 22.0 
216.021042 4.0 
216.022278 3.0 
216.42981 1.0 
216.430435 1.0 
216.431046 1.0 
216.431671 1.0 
216.441559 2.0 
216.442169 2.0 
216.443405 1.0 
216.576935 1.0 
216.578171 1.0 
216.578781 1.0 
216.730438 24.0 
216.858749 1.0 
216.85936 1.0 
216.859985 1.0 
216.961746 1.0 
216.962357 1.0 
216.962982 1.0 
216.963608 1.0 
217.21344 4.0 
217.214066 4.0 
217.4888 1.0 
217.490051 2.0 
217.490662 2.0 
217.619873 1.0 
217.620499 1.0 
217.621124 1.0 
217.62175 1.0 
217.629868 20.0 
217.70047 10.0 
217.784866 3.0 
217.786118 4.0 
218.005264 13.0 
218.00589 13.0 
218.118759 1.0 
218.119385 1.0 
218.12001 1.0 
218.167084 3.0 
218.167709 3.0 
218.168335 3.0 
218.199722 1.0 
218.200348 1.0 
218.200974 1.0 
218.201614 1.0 
218.439835 3.0 
218.441086 4.0 
218.701904 19.0 
218.80983 1.0 
218.810455 1.0 
218.826874 17.0 
218.894455 17.0 
218.895096 17.0 
219.034195 1.0 
219.034821 1.0 
219.035461 1.0 
219.036087 1.0 
219.044952 1.0 
219.045578 1.0 
219.046219 1.0 
219.101913 45.0 
219.216553 1.0 
219.217194 1.0 
219.237473 1.0 
219.238098 1.0 
219.238739 1.0 
219.340836 1.0 
219.515442 5.0 
219.516083 5.0 
219.531967 29.0 
219.713882 43.0 
219.75209 14.0 
219.855301 1.0 
219.856583 2.0 
219.857849 1.0 
219.906311 21.0 
220.040955 1.0 
220.041595 1.0 
220.042221 1.0 
220.563843 1.0 
220.564484 1.0 
220.565125 1.0 
220.565765 1.0 
220.568344 2.0 
220.568985 2.0 
220.569626 2.0 
220.584381 2.0 
220.585022 2.0 
220.642136 1.0 
220.642792 1.0 
220.643433 1.0 
220.644073 1.0 
220.644714 1.0 
220.683243 33.0 
220.747482 24.0 
220.772552 1.0 
220.773193 1.0 
220.773834 1.0 
220.943649 1.0 
220.94429 1.0 
220.944931 1.0 
220.945587 1.0 
220.946228 1.0 
220.962967 2.0 
220.963608 2.0 
220.964249 2.0 
221.182098 1.0 
221.182739 1.0 
221.260834 3.0 
221.261475 3.0 
221.307327 1.0 
221.439163 5.0 
221.439804 5.0 
221.44046 5.0 
221.475372 1.0 
221.476028 1.0 
221.476669 1.0 
221.477325 1.0 
221.532318 2.0 
221.533615 3.0 
221.618423 5.0 
221.61908 5.0 
221.711731 3.0 
221.712387 3.0 
221.80188 1.0 
221.802521 1.0 
221.803177 1.0 
221.837555 1.0 
221.838211 1.0 
221.951843 4.0 
221.952484 4.0 
222.026566 38.0 
222.031769 1.0 
222.032425 1.0 
222.073395 33.0 
222.093552 37.0 
222.284302 1.0 
222.285599 2.0 
222.286255 2.0 
222.286911 2.0 
222.337738 8.0 
222.338394 8.0 
222.457764 1.0 
222.45842 1.0 
222.459061 1.0 
222.538055 2.0 
222.539368 3.0 
222.540024 3.0 
222.759018 1.0 
222.759674 1.0 
222.76033 1.0 
222.760986 1.0 
222.89325 1.0 
222.893906 1.0 
222.894562 1.0 
222.895218 1.0 
222.94043 1.0 
222.941086 1.0 
222.941742 1.0 
222.942398 1.0 
223.325836 5.0 
223.326492 5.0 
223.550995 2.0 
223.552322 1.0 
223.912079 6.0 
224.011948 6.0 
224.069534 1.0 
224.070206 1.0 
224.13974 1.0 
224.140411 1.0 
224.141068 1.0 
224.141739 1.0 
224.142395 1.0 
224.143051 1.0 
224.319427 9.0 
224.320099 9.0 
224.352615 1.0 
224.401749 1.0 
224.402405 1.0 
224.403076 1.0 
224.583176 3.0 
224.583847 3.0 
224.829544 1.0 
224.830215 1.0 
225.019684 1.0 
225.020355 1.0 
225.021027 1.0 
225.135269 1.0 
225.135925 1.0 
225.136597 1.0 
225.137268 1.0 
225.267014 1.0 
225.267685 1.0 
225.276382 1.0 
225.277054 1.0 
225.277725 1.0 
225.278397 1.0 
225.279068 1.0 
225.279739 1.0 
225.500809 1.0 
225.50148 1.0 
225.502151 1.0 
225.696121 19.0 
225.749191 1.0 
225.749863 1.0 
225.750534 1.0 
225.763306 5.0 
225.763977 5.0 
225.805664 6.0 
225.841309 1.0 
225.84198 1.0 
225.983322 32.0 
226.0271 3.0 
226.027771 3.0 
226.06012 30.0 
226.088425 8.0 
226.089096 8.0 
226.113373 5.0 
226.321213 23.0 
226.44693 1.0 
226.447601 1.0 
226.593765 1.0 
226.594437 1.0 
226.595123 1.0 
226.595795 1.0 
226.596466 1.0 
226.614075 1.0 
226.615433 2.0 
226.616791 1.0 
226.617462 1.0 
226.618134 1.0 
226.687241 18.0 
226.696732 2.0 
226.697403 2.0 
226.69809 2.0 
226.698761 2.0 
227.009583 2.0 
227.233383 1.0 
227.23407 1.0 
227.234756 1.0 
227.362152 27.0 
227.401016 19.0 
227.411926 1.0 
227.412613 1.0 
227.4133 1.0 
227.413971 1.0 
227.414658 1.0 
227.468552 3.0 
227.469238 3.0 
227.50267 3.0 
227.503357 3.0 
227.830765 3.0 
227.831451 3.0 
227.838287 22.0 
228.026703 1.0 
228.02739 1.0 
228.028076 1.0 
228.028763 1.0 
228.043167 4.0 
228.185898 6.0 
228.186584 6.0 
228.189331 1.0 
228.20993 31.0 
228.288254 22.0 
228.396194 3.0 
228.396896 3.0 
228.397583 3.0 
228.508392 1.0 
228.509079 1.0 
228.509766 1.0 
228.630325 1.0 
228.67308 2.0 
228.673767 2.0 
228.674454 2.0 
228.67514 2.0 
228.80072 1.0 
228.801407 1.0 
228.802109 1.0 
228.827652 17.0 
228.883591 2.0 
228.884277 2.0 
228.884979 2.0 
228.954773 1.0 
228.95546 1.0 
228.956161 1.0 
228.956848 1.0 
229.005936 30.0 
229.06958 1.0 
229.071655 3.0 
229.072357 3.0 
229.07373 2.0 
229.075119 1.0 
229.075806 1.0 
229.669006 7.0 
229.778976 3.0 
229.779663 3.0 
229.780365 3.0 
229.870911 11.0 
229.871613 11.0 
229.997116 10.0 
230.223358 1.0 
230.224045 1.0 
230.224747 1.0 
230.277176 10.0 
230.277878 10.0 
230.332443 1.0 
230.333145 1.0 
230.333847 1.0 
230.334534 1.0 
230.368134 2.0 
230.36882 2.0 
230.369522 2.0 
230.370224 2.0 
230.370926 2.0 
230.432526 1.0 
230.433228 1.0 
230.433929 1.0 
230.867493 1.0 
230.868195 1.0 
230.868896 1.0 
230.869598 1.0 
231.052505 1.0 
231.053207 1.0 
231.152512 4.0 
231.153214 4.0 
231.153915 4.0 
231.170837 6.0 
231.239914 16.0 
231.244858 4.0 
231.246964 6.0 
231.247681 6.0 
231.270248 1.0 
231.27095 1.0 
231.516663 1.0 
231.51738 1.0 
231.518082 1.0 
231.518784 1.0 
231.840851 1.0 
231.841568 1.0 
231.992645 1.0 
231.993347 1.0 
232.208603 1.0 
232.391495 2.0 
232.392197 2.0 
232.392914 2.0 
232.393631 2.0 
232.394333 2.0 
232.39505 2.0 
232.397903 2.0 
232.398621 2.0 
232.399323 2.0 
232.40004 2.0 
232.637451 13.0 
232.690994 27.0 
232.818878 1.0 
232.819595 1.0 
232.820312 1.0 
232.846756 1.0 
232.847473 1.0 
232.84819 1.0 
232.901108 10.0 
232.904694 1.0 
232.905396 1.0 
232.906113 1.0 
232.913269 37.0 
233.104431 1.0 
233.105148 1.0 
233.105865 1.0 
233.106583 1.0 
233.1073 1.0 
233.108017 1.0 
233.287308 4.0 
233.727356 1.0 
233.728088 1.0 
233.752579 1.0 
233.754013 2.0 
233.754745 2.0 
233.755463 2.0 
233.75618 2.0 
233.80159 16.0 
233.871536 2.0 
233.872253 2.0 
233.919144 3.0 
233.919861 3.0 
233.966782 23.0 
234.211029 3.0 
234.211746 3.0 
234.347107 1.0 
234.347824 1.0 
234.538452 2.0 
234.539185 2.0 
234.539902 2.0 
234.591415 1.0 
234.59288 2.0 
234.676361 5.0 
234.677094 5.0 
234.737381 2.0 
234.738113 2.0 
234.738846 2.0 
234.79335 3.0 
234.794083 3.0 
234.7948 3.0 
235.002914 1.0 
235.241302 9.0 
235.242035 9.0 
235.261734 10.0 
235.262466 10.0 
235.345703 3.0 
235.346436 3.0 
235.480911 3.0 
235.481644 3.0 
235.535034 24.0 
235.557709 48.0 
235.664597 1.0 
235.665329 1.0 
235.705612 24.0 
235.888916 2.0 
235.889648 2.0 
235.890381 2.0 
235.901398 5.0 
235.90213 5.0 
235.981415 14.0 
236.008591 2.0 
236.009323 2.0 
236.010056 2.0 
236.048264 3.0 
236.048996 3.0 
236.155594 11.0 
236.397797 10.0 
236.435394 50.0 
236.470779 1.0 
236.471512 1.0 
236.47226 1.0 
236.472992 1.0 
236.640503 2.0 
236.641251 2.0 
236.710678 1.0 
236.711426 1.0 
236.712158 1.0 
236.712891 1.0 
236.779419 5.0 
236.820831 1.0 
236.821564 1.0 
236.822311 1.0 
236.956253 1.0 
236.956985 1.0 
237.019943 15.0 
237.038467 4.0 
237.039215 4.0 
237.039948 4.0 
237.109619 14.0 
237.126678 3.0 
237.127411 3.0 
237.151886 5.0 
237.152634 5.0 
237.153381 5.0 
237.19194 1.0 
237.260223 25.0 
237.277298 1.0 
237.278046 1.0 
237.278778 1.0 
237.366425 1.0 
237.367172 1.0 
237.617081 2.0 
237.617828 2.0 
237.618576 2.0 
237.620056 1.0 
237.646866 6.0 
237.686356 1.0 
237.687088 1.0 
237.687836 1.0 
238.027313 6.0 
238.119995 2.0 
238.120743 2.0 
238.12149 2.0 
238.126724 1.0 
238.127472 1.0 
238.12822 1.0 
238.158875 34.0 
238.28685 1.0 
238.287598 1.0 
238.424713 4.0 
238.425461 4.0 
238.546967 1.0 
238.547714 1.0 
238.562729 5.0 
238.563477 5.0 
238.670853 1.0 
238.6716 1.0 
238.672348 1.0 
238.673096 1.0 
238.673859 1.0 
238.674606 1.0 
238.922012 24.0 
239.015396 1.0 
239.016144 1.0 
239.034988 8.0 
239.193314 25.0 
239.221237 1.0 
239.222 1.0 
239.222748 1.0 
239.223511 1.0 
239.224258 1.0 
239.3564 1.0 
239.357162 1.0 
239.35791 1.0 
239.394943 10.0 
239.445587 1.0 
239.446335 1.0 
239.447098 1.0 
239.466751 35.0 
239.475082 2.0 
239.47583 2.0 
239.476593 2.0 
239.54921 2.0 
239.549973 2.0 
239.55072 2.0 
239.551483 2.0 
239.595383 1.0 
239.596893 2.0 
239.597656 2.0 
239.599167 1.0 
239.842422 18.0 
239.965378 2.0 
239.966141 2.0 
239.966904 2.0 
239.967667 2.0 
239.968414 2.0 
240.042862 28.0 
240.064896 4.0 
240.14473 34.0 
240.204819 7.0 
240.232224 4.0 
240.232986 4.0 
240.272568 1.0 
240.273315 1.0 
240.274078 1.0 
240.309875 1.0 
240.310638 1.0 
240.311401 1.0 
240.312149 1.0 
240.350235 6.0 
240.350998 6.0 
240.351761 6.0 
240.538559 42.0 
240.539322 42.0 
240.597321 4.0 
240.598083 4.0 
240.724106 24.0 
240.724869 24.0 
240.794434 23.0 
240.909943 6.0 
240.935211 1.0 
240.935974 1.0 
240.936737 1.0 
240.9375 1.0 
240.944397 38.0 
241.025574 31.0 
241.06311 3.0 
241.063873 3.0 
241.165848 1.0 
241.167374 2.0 
241.168915 1.0 
241.192688 17.0 
241.231827 1.0 
241.23259 1.0 
241.233353 1.0 
241.234131 1.0 
241.370804 1.0 
241.371567 1.0 
241.443817 1.0 
241.484558 1.0 
241.485336 1.0 
241.486099 1.0 
241.512253 12.0 
241.600739 1.0 
241.601517 1.0 
241.67543 5.0 
241.740921 1.0 
241.741684 1.0 
241.742462 1.0 
241.743225 1.0 
241.744003 1.0 
241.784088 2.0 
241.784851 2.0 
241.785629 2.0 
241.824173 1.0 
241.824951 1.0 
241.825714 1.0 
241.936829 20.0 
242.146957 1.0 
242.147736 1.0 
242.148514 1.0 
242.182541 1.0 
242.183304 1.0 
242.184082 1.0 
242.3172 3.0 
242.317963 3.0 
242.318741 3.0 
242.417892 1.0 
242.418671 1.0 
242.419449 1.0 
242.420227 1.0 
242.48999 4.0 
242.503952 19.0 
242.681671 1.0 
242.682449 1.0 
242.683228 1.0 
242.684006 1.0 
242.854996 7.0 
242.855774 7.0 
242.940582 3.0 
242.94136 3.0 
242.965485 1.0 
243.016876 36.0 
243.227341 1.0 
243.228119 1.0 
243.228897 1.0 
243.306931 19.0 
243.442062 7.0 
243.442841 7.0 
243.608643 3.0 
243.609421 3.0 
243.610214 3.0 
243.637604 24.0 
243.638382 24.0 
243.64856 28.0 
243.649353 28.0 
243.773102 7.0 
243.838165 2.0 
243.838943 2.0 
243.839737 2.0 
243.840515 2.0 
243.84993 1.0 
243.850708 1.0 
243.914246 1.0 
243.915024 1.0 
243.915817 1.0 
243.981735 3.0 
244.020996 1.0 
244.021774 1.0 
244.022568 1.0 
244.028061 1.0 
244.028839 1.0 
244.363052 4.0 
244.363846 4.0 
244.452072 4.0 
244.523804 6.0 
244.734512 30.0 
244.735306 30.0 
244.749512 2.0 
244.750305 2.0 
244.751099 2.0 
244.751892 2.0 
244.843552 3.0 
244.881516 1.0 
244.882309 1.0 
244.883087 1.0 
244.883881 1.0 
245.134033 9.0 
245.134827 9.0 
245.177628 1.0 
245.179214 2.0 
245.269623 33.0 
245.365646 1.0 
245.36644 1.0 
245.367233 1.0 
245.368027 1.0 
245.449829 1.0 
245.450623 1.0 
245.471283 26.0 
245.602463 4.0 
245.60405 3.0 
245.674072 1.0 
245.674881 1.0 
245.675674 1.0 
245.676468 1.0 
245.677261 1.0 
245.740952 1.0 
246.000046 1.0 
246.000839 1.0 
246.059906 7.0 
246.060715 7.0 
246.108627 1.0 
246.109421 1.0 
246.299667 6.0 
246.557541 35.0 
246.618484 5.0 
246.619278 5.0 
246.645752 1.0 
246.646561 1.0 
246.647354 1.0 
246.665009 13.0 
246.672226 2.0 
246.673035 2.0 
246.673843 2.0 
246.746078 13.0 
246.924438 2.0 
246.925247 2.0 
246.926056 2.0 
246.926865 2.0 
246.927658 2.0 
246.9534 21.0 
247.182816 30.0 
247.183624 30.0 
247.218277 1.0 
247.219086 1.0 
247.219879 1.0 
247.220688 1.0 
247.285187 6.0 
247.646179 1.0 
247.646988 1.0 
247.647797 1.0 
247.704422 2.0 
247.705231 2.0 
247.724655 1.0 
247.725464 1.0 
247.726273 1.0 
247.727081 1.0 
247.770782 33.0 
247.812897 1.0 
247.813705 1.0 
247.814514 1.0 
247.815323 1.0 
247.854202 26.0 
247.855011 26.0 
247.910919 7.0 
248.021194 2.0 
248.022003 2.0 
248.022812 2.0 
248.035797 17.0 
248.229034 37.0 
248.311142 23.0 
248.415253 1.0 
248.416077 1.0 
248.416885 1.0 
248.46817 1.0 
248.49585 4.0 
248.496658 4.0 
248.542267 1.0 
248.543091 1.0 
248.5439 1.0 
248.544724 1.0 
248.545532 1.0 
248.546341 1.0 
248.547165 1.0 
248.750183 26.0 
248.814651 2.0 
248.815475 2.0 
248.816284 2.0 
248.839157 3.0 
248.839966 3.0 
248.84079 3.0 
248.841599 3.0 
248.853027 24.0 
248.913483 1.0 
248.915115 2.0 
248.949432 1.0 
248.950256 1.0 
248.951065 1.0 
248.985397 8.0 
249.03038 22.0 
249.158844 1.0 
249.159653 1.0 
249.160477 1.0 
249.397293 1.0 
249.398117 1.0 
249.398941 1.0 
249.399765 1.0 
249.400574 1.0 
249.642792 1.0 
249.643616 1.0 
249.64444 1.0 
249.874771 1.0 
249.875595 1.0 
249.876419 1.0 
250.004929 6.0 
250.027191 8.0 
250.16658 9.0 
250.224365 5.0 
250.229324 1.0 
250.230148 1.0 
250.230972 1.0 
250.231796 1.0 
250.595657 1.0 
250.596481 1.0 
250.597305 1.0 
250.598145 1.0 
250.806183 7.0 
250.807007 7.0 
250.820282 20.0 
251.033676 2.0 
251.0345 2.0 
251.226624 1.0 
251.227448 1.0 
251.228287 1.0 
251.414032 1.0 
251.414871 1.0 
251.415695 1.0 
251.421539 3.0 
251.482407 1.0 
251.483231 1.0 
251.48407 1.0 
251.484909 1.0 
251.485733 1.0 
251.509094 1.0 
251.509933 1.0 
251.510757 1.0 
251.511597 1.0 
251.512436 1.0 
251.86412 2.0 
251.86496 2.0 
251.866638 1.0 
252.007248 12.0 
252.042435 20.0 
252.388046 1.0 
252.389725 2.0 
252.390564 2.0 
252.391403 2.0 
252.392242 2.0 
252.660507 22.0 
252.661346 22.0 
253.039062 11.0 
253.418747 1.0 
253.419601 1.0 
253.420441 1.0 
253.421295 1.0 
253.507706 2.0 
253.50856 2.0 
253.512787 6.0 
253.513641 6.0 
253.541611 1.0 
253.543304 2.0 
253.564499 1.0 
253.570435 11.0 
253.571289 11.0 
253.572128 11.0 
253.598419 3.0 
253.599274 3.0 
253.70108 1.0 
253.701935 1.0 
253.702789 1.0 
253.703629 1.0 
253.704483 1.0 
253.827621 37.0 
254.021484 48.0 
254.022339 48.0 
254.084473 38.0 
254.187531 36.0 
254.210526 11.0 
254.21138 11.0 
254.262527 1.0 
254.263382 1.0 
254.453644 4.0 
254.454498 4.0 
254.603149 1.0 
254.604004 1.0 
254.604858 1.0 
254.605713 1.0 
254.606567 1.0 
254.690369 1.0 
254.783646 1.0 
254.7845 1.0 
254.785355 1.0 
254.786209 1.0 
254.81105 1.0 
254.811905 1.0 
254.812759 1.0 
254.830734 1.0 
254.831589 1.0 
254.832458 1.0 
254.876129 16.0 
255.029572 31.0 
255.030426 31.0 
255.242462 4.0 
255.425583 32.0 
255.451401 1.0 
255.452255 1.0 
255.453125 1.0 
255.515091 1.0 
255.515961 1.0 
255.516815 1.0 
255.517685 1.0 
255.5616 2.0 
255.562454 2.0 
255.563324 2.0 
255.564178 2.0 
255.721039 3.0 
255.721893 3.0 
255.722763 3.0 
255.802124 18.0 
255.992096 2.0 
255.993835 1.0 
256.04657 4.0 
256.248169 4.0 
256.25769 12.0 
256.258545 12.0 
256.297516 28.0 
256.470886 3.0 
256.518616 8.0 
256.541168 25.0 
256.609741 6.0 
256.669678 7.0 
256.816589 23.0 
257.038574 32.0 
257.289734 1.0 
257.290619 1.0 
257.291473 1.0 
257.33252 4.0 
257.444336 1.0 
257.445221 1.0 
257.446106 1.0 
257.44696 1.0 
257.447845 1.0 
257.548401 8.0 
257.635895 1.0 
257.63678 1.0 
257.779541 10.0 
257.780426 10.0 
257.787415 1.0 
257.7883 1.0 
257.789185 1.0 
257.790039 1.0 
257.819855 17.0 
257.903168 2.0 
257.904907 3.0 
257.932983 38.0 
258.296722 13.0 
258.323975 1.0 
258.325745 2.0 
258.32663 2.0 
258.327515 2.0 
258.334564 2.0 
258.336304 3.0 
258.369751 2.0 
258.370636 2.0 
258.371521 2.0 
258.38559 2.0 
258.386475 2.0 
258.38736 2.0 
258.388245 2.0 
258.747955 11.0 
258.78064 1.0 
258.860138 5.0 
258.861023 5.0 
258.947662 1.0 
258.948547 1.0 
258.949432 1.0 
258.982147 3.0 
258.983032 3.0 
258.983917 3.0 
259.018402 16.0 
259.318695 1.0 
259.320465 2.0 
259.32135 2.0 
259.322235 2.0 
259.511261 11.0 
259.665009 1.0 
259.685455 5.0 
259.689026 2.0 
259.9534 1.0 
259.954315 1.0 
259.9552 1.0 
259.956085 1.0 
260.020264 1.0 
260.021149 1.0 
260.022034 1.0 
260.022949 1.0 
260.023834 1.0 
260.113037 11.0 
260.151398 3.0 
260.153168 2.0 
260.279083 1.0 
260.279968 1.0 
260.348785 4.0 
260.512451 4.0 
260.513367 4.0 
260.629761 25.0 
260.685303 2.0 
260.686218 2.0 
260.687103 2.0 
260.799164 2.0 
260.800079 2.0 
260.815308 1.0 
260.816223 1.0 
260.817108 1.0 
260.818024 1.0 
261.142273 1.0 
261.143158 1.0 
261.144043 1.0 
261.144958 1.0 
261.236725 1.0 
261.23761 1.0 
261.36908 1.0 
261.369995 1.0 
261.37088 1.0 
261.421356 22.0 
261.537659 2.0 
261.538544 2.0 
261.788666 1.0 
261.790466 2.0 
261.792267 1.0 
261.879974 9.0 
261.934235 1.0 
261.93515 1.0 
261.936066 1.0 
261.936951 1.0 
261.968628 3.0 
261.969543 3.0 
262.181488 3.0 
262.360168 1.0 
262.361084 1.0 
262.369263 6.0 
262.606415 1.0 
262.6073 1.0 
262.608215 1.0 
262.609131 1.0 
262.773834 1.0 
262.77475 1.0 
262.775665 1.0 
262.862213 1.0 
262.918701 1.0 
262.919617 1.0 
262.920532 1.0 
263.022675 1.0 
263.02359 1.0 
263.024506 1.0 
263.025421 1.0 
263.095673 11.0 
263.229919 10.0 
263.382599 2.0 
263.383514 2.0 
263.389008 17.0 
263.551056 11.0 
263.613342 1.0 
263.614258 1.0 
263.615173 1.0 
263.616089 1.0 
263.617004 1.0 
263.61792 1.0 
263.618835 1.0 
263.619751 1.0 
263.686676 26.0 
263.744446 32.0 
263.90509 42.0 
263.961121 1.0 
263.962036 1.0 
263.962952 1.0 
263.993286 5.0 
264.00708 2.0 
264.007996 2.0 
264.039246 10.0 
264.2435 45.0 
264.580017 41.0 
264.728729 1.0 
264.729645 1.0 
264.75 37.0 
264.867432 4.0 
264.869293 5.0 
264.870209 5.0 
265.013702 1.0 
265.014618 1.0 
265.229675 2.0 
265.231506 3.0 
265.255646 5.0 
265.256561 5.0 
265.336395 28.0 
265.630096 1.0 
265.631042 1.0 
265.631958 1.0 
265.661743 3.0 
265.662659 3.0 
265.663605 3.0 
265.783722 1.0 
265.784637 1.0 
265.785583 1.0 
265.786499 1.0 
265.852661 7.0 
266.0224 35.0 
266.052277 3.0 
266.053223 3.0 
266.054138 3.0 
266.058807 63.0 
266.169006 2.0 
266.169952 2.0 
266.254059 5.0 
266.254974 5.0 
266.355988 4.0 
266.356934 4.0 
266.401855 36.0 
266.42804 39.0 
266.443024 4.0 
266.51889 8.0 
266.532013 2.0 
266.532928 2.0 
266.533875 2.0 
266.627594 1.0 
266.960815 2.0 
266.961761 2.0 
266.962677 2.0 
266.963623 2.0 
267.017212 3.0 
267.018158 3.0 
267.029449 8.0 
267.030365 8.0 
267.052948 4.0 
267.053894 4.0 
267.104675 27.0 
267.195984 23.0 
267.242126 2.0 
267.243073 2.0 
267.243988 2.0 
267.24588 1.0 
267.407043 2.0 
267.40799 2.0 
267.408936 2.0 
267.495697 17.0 
267.503265 2.0 
267.504211 2.0 
267.505157 2.0 
267.595764 4.0 
267.59671 4.0 
267.597656 4.0 
267.894501 1.0 
267.895447 1.0 
267.896393 1.0 
267.98822 15.0 
268.024231 1.0 
268.025177 1.0 
268.037476 53.0 
268.226166 1.0 
268.265076 1.0 
268.266022 1.0 
268.266968 1.0 
268.267914 1.0 
268.43219 1.0 
268.434082 2.0 
268.436005 1.0 
268.485413 1.0 
268.486359 1.0 
268.559601 1.0 
268.560547 1.0 
268.561493 1.0 
268.562439 1.0 
268.586212 1.0 
268.587158 1.0 
268.588135 1.0 
268.627136 2.0 
268.628082 2.0 
268.629028 2.0 
268.661407 32.0 
268.828064 1.0 
268.82901 1.0 
268.829987 1.0 
268.830933 1.0 
268.831879 1.0 
268.836639 1.0 
268.837616 1.0 
268.838562 1.0 
268.862396 27.0 
268.897675 1.0 
268.898621 1.0 
268.899567 1.0 
268.900513 1.0 
268.901459 1.0 
268.996857 17.0 
269.045532 5.0 
269.046478 5.0 
269.22226 9.0 
269.239441 3.0 
269.240417 3.0 
269.241364 3.0 
269.772003 2.0 
270.180511 1.0 
270.181488 1.0 
270.3992 1.0 
270.400177 1.0 
270.401123 1.0 
270.628876 3.0 
270.629852 3.0 
270.630829 3.0 
270.631775 3.0 
270.632751 3.0 
270.949921 1.0 
270.950897 1.0 
270.951843 1.0 
271.111694 42.0 
271.276581 26.0 
271.590393 4.0 
271.59137 4.0 
271.592346 4.0 
271.601105 5.0 
271.602081 5.0 
271.603027 5.0 
271.698395 2.0 
271.699371 2.0 
271.700348 2.0 
271.75 1.0 
271.750977 1.0 
271.751953 1.0 
272.005402 3.0 
272.006378 3.0 
272.152802 10.0 
272.153778 10.0 
272.242706 2.0 
272.243683 2.0 
272.244659 2.0 
272.379608 6.0 
272.403076 1.0 
272.457886 1.0 
272.458893 1.0 
272.459869 1.0 
272.460846 1.0 
272.461823 1.0 
272.581299 7.0 
272.63913 2.0 
272.640106 2.0 
272.641083 2.0 
272.798004 2.0 
272.799988 3.0 
272.861816 38.0 
273.134064 2.0 
273.13504 2.0 
273.136017 2.0 
273.137024 2.0 
273.380219 1.0 
273.381226 1.0 
273.382202 1.0 
273.394043 5.0 
273.421631 1.0 
273.422607 1.0 
273.423615 1.0 
273.525177 20.0 
273.799744 30.0 
273.804688 21.0 
273.805664 21.0 
273.880829 9.0 
274.055054 7.0 
274.166016 1.0 
274.166992 1.0 
274.167999 1.0 
274.178894 43.0 
274.483582 7.0 
274.484589 7.0 
274.601868 3.0 
274.602844 3.0 
274.649597 2.0 
274.650604 2.0 
274.651581 2.0 
274.678467 1.0 
274.679443 1.0 
274.68045 1.0 
274.77301 1.0 
274.774017 1.0 
274.774994 1.0 
274.776001 1.0 
274.776978 1.0 
274.822815 2.0 
274.823792 2.0 
274.878601 1.0 
274.879578 1.0 
274.880585 1.0 
275.038116 39.0 
275.070038 2.0 
275.071014 2.0 
275.207794 4.0 
275.208801 4.0 
275.68103 1.0 
275.682037 1.0 
275.683044 1.0 
275.684052 1.0 
275.992096 23.0 
276.013184 2.0 
276.014191 2.0 
276.015198 2.0 
276.02121 30.0 
276.039307 4.0 
276.1539 2.0 
276.155914 1.0 
276.293762 1.0 
276.322968 20.0 
276.323975 20.0 
276.737427 9.0 
276.738434 9.0 
276.933472 51.0 
276.940552 1.0 
276.941559 1.0 
276.942596 1.0 
276.943604 1.0 
277.037689 10.0 
277.049835 7.0 
277.050842 7.0 
277.082245 1.0 
277.083252 1.0 
277.084259 1.0 
277.103485 1.0 
277.104492 1.0 
277.141968 10.0 
277.454285 1.0 
277.455322 1.0 
277.505066 1.0 
277.507111 2.0 
277.509125 1.0 
277.617828 1.0 
277.619873 2.0 
277.621918 1.0 
277.698151 42.0 
277.838562 3.0 
277.839569 3.0 
277.841614 2.0 
277.843658 2.0 
277.844666 2.0 
277.845703 2.0 
277.84671 2.0 
277.871155 1.0 
277.872162 1.0 
277.873169 1.0 
277.962799 1.0 
277.963837 1.0 
277.964844 1.0 
277.965881 1.0 
278.003571 5.0 
278.044342 1.0 
278.04538 1.0 
278.046387 1.0 
278.058624 70.0 
278.205536 1.0 
278.206543 1.0 
278.20755 1.0 
278.268829 11.0 
278.269836 11.0 
278.388336 1.0 
278.389374 1.0 
278.390381 1.0 
278.436371 6.0 
278.496704 2.0 
278.497742 2.0 
278.498749 2.0 
278.520233 6.0 
278.521271 6.0 
278.694275 1.0 
278.695282 1.0 
278.69632 1.0 
278.697327 1.0 
278.753693 1.0 
278.755737 2.0 
278.756744 2.0 
278.845947 1.0 
278.950562 19.0 
279.052185 2.0 
279.053223 2.0 
279.05423 2.0 
279.066559 50.0 
279.118958 1.0 
279.119965 1.0 
279.180603 2.0 
279.181641 2.0 
279.182678 2.0 
279.183685 2.0 
279.323547 5.0 
279.324585 5.0 
279.325623 5.0 
279.590302 1.0 
279.592346 2.0 
279.593384 2.0 
279.865814 15.0 
279.866821 15.0 
279.973267 6.0 
279.974304 6.0 
280.026001 9.0 
280.027039 9.0 
280.073578 1.0 
280.074585 1.0 
280.075623 1.0 
280.490021 30.0 
280.518036 1.0 
280.519073 1.0 
280.87442 1.0 
280.876495 2.0 
280.877533 2.0 
280.907715 4.0 
280.908752 4.0 
281.032654 24.0 
281.045135 6.0 
281.046204 6.0 
281.050354 120.0 
281.367371 2.0 
281.368408 2.0 
281.369476 2.0 
281.425842 10.0 
281.511536 13.0 
281.875671 9.0 
281.87674 9.0 
281.927032 1.0 
281.92807 1.0 
282.017212 3.0 
282.01825 3.0 
282.019287 3.0 
282.041321 4.0 
282.051819 10.0 
282.100067 1.0 
282.101135 1.0 
282.102173 1.0 
282.103241 1.0 
282.239716 2.0 
282.240784 2.0 
282.241821 2.0 
282.299622 1.0 
282.300659 1.0 
282.301727 1.0 
282.433136 27.0 
282.434204 27.0 
282.630005 2.0 
282.631042 2.0 
282.743805 27.0 
282.845062 1.0 
282.8461 1.0 
282.946381 1.0 
282.947418 1.0 
282.948486 1.0 
282.949524 1.0 
282.959045 11.0 
282.960083 11.0 
282.983337 3.0 
282.984375 3.0 
282.985443 3.0 
283.024506 2.0 
283.048828 24.0 
283.061493 29.0 
283.578064 26.0 
283.579132 26.0 
283.624725 41.0 
283.953979 20.0 
283.97525 1.0 
283.976288 1.0 
283.977356 1.0 
283.993317 2.0 
283.994385 2.0 
283.995453 2.0 
283.996521 2.0 
284.032684 9.0 
284.139099 38.0 
284.285034 1.0 
284.34259 23.0 
284.43219 14.0 
284.447113 29.0 
284.448181 29.0 
284.546387 1.0 
284.562408 1.0 
284.563477 1.0 
284.564545 1.0 
284.853149 1.0 
284.854218 1.0 
284.868134 1.0 
284.87027 1.0 
284.871338 1.0 
284.872437 1.0 
284.934509 8.0 
285.119843 7.0 
285.279663 2.0 
285.280731 2.0 
285.28183 2.0 
285.320465 1.0 
285.321533 1.0 
285.322601 1.0 
285.323669 1.0 
285.378448 1.0 
285.379517 1.0 
285.380585 1.0 
285.381653 1.0 
285.382751 1.0 
285.489105 1.0 
285.490173 1.0 
285.63858 1.0 
285.702087 2.0 
285.703156 2.0 
285.704224 2.0 
285.734375 19.0 
285.735443 19.0 
285.739746 1.0 
285.740845 1.0 
285.741913 1.0 
285.742981 1.0 
285.91214 4.0 
285.947723 1.0 
285.948792 1.0 
285.94986 1.0 
285.950958 1.0 
285.952026 1.0 
286.005951 6.0 
286.287781 4.0 
286.289948 5.0 
286.635132 2.0 
286.912781 3.0 
287.058319 1.0 
287.059418 1.0 
287.060486 1.0 
287.061584 1.0 
287.234467 1.0 
287.344391 1.0 
287.34549 1.0 
287.346588 1.0 
287.347656 1.0 
287.413025 1.0 
287.414093 1.0 
287.415192 1.0 
287.41629 1.0 
287.427185 2.0 
287.429352 1.0 
287.43045 1.0 
287.590698 1.0 
287.591766 1.0 
287.592865 1.0 
287.61142 2.0 
287.612488 2.0 
287.613586 2.0 
287.614685 2.0 
287.615784 2.0 
287.621216 2.0 
287.622314 2.0 
287.623413 2.0 
287.624512 2.0 
287.929199 12.0 
288.259735 1.0 
288.260834 1.0 
288.5625 3.0 
288.563599 3.0 
288.564697 3.0 
288.627289 1.0 
288.628387 1.0 
288.629486 1.0 
288.704224 1.0 
288.705322 1.0 
289.137939 1.0 
289.139038 1.0 
289.140137 1.0 
289.275818 1.0 
289.276917 1.0 
289.278015 1.0 
289.382904 6.0 
289.384003 6.0 
289.692444 34.0 
289.740021 3.0 
289.742249 2.0 
289.793182 1.0 
289.794281 1.0 
289.844147 5.0 
289.875153 21.0 
289.876282 21.0 
290.094727 15.0 
290.095825 15.0 
290.182434 1.0 
290.593872 4.0 
290.595001 4.0 
290.5961 4.0 
290.904907 1.0 
291.028839 18.0 
291.07016 1.0 
291.071289 1.0 
291.072388 1.0 
291.073517 1.0 
291.149506 33.0 
291.273651 31.0 
291.27475 31.0 
291.416931 2.0 
291.41803 2.0 
291.419159 2.0 
291.592865 13.0 
291.593964 13.0 
291.770111 37.0 
291.941986 1.0 
291.943115 1.0 
291.944244 1.0 
291.945343 1.0 
291.953217 1.0 
291.954346 1.0 
291.955475 1.0 
292.036438 1.0 
292.037567 1.0 
292.061188 6.0 
292.062286 6.0 
292.063416 6.0 
292.155701 27.0 
292.352814 1.0 
292.360687 3.0 
292.362946 2.0 
292.458801 1.0 
292.45993 1.0 
292.46106 1.0 
292.462189 1.0 
292.463318 1.0 
292.464447 1.0 
292.562592 12.0 
292.597595 2.0 
292.598724 2.0 
292.599854 2.0 
292.808868 9.0 
292.816772 1.0 
292.817932 1.0 
292.819061 1.0 
292.993286 3.0 
293.032898 28.0 
293.062347 2.0 
293.063477 2.0 
293.064606 2.0 
293.069153 5.0 
293.070282 5.0 
293.135986 8.0 
293.141663 29.0 
293.223267 29.0 
293.239136 2.0 
293.240295 2.0 
293.241425 2.0 
293.264099 33.0 
293.343506 6.0 
293.359406 4.0 
293.360535 4.0 
293.438873 4.0 
293.482025 1.0 
293.483154 1.0 
293.484283 1.0 
293.773071 11.0 
293.989471 2.0 
293.990631 2.0 
293.99176 2.0 
293.992889 2.0 
294.040771 24.0 
294.053314 15.0 
294.354645 3.0 
294.417511 1.0 
294.502136 2.0 
294.503265 2.0 
295.022308 12.0 
295.023468 12.0 
295.048706 42.0 
295.12793 1.0 
295.398132 1.0 
295.399261 1.0 
295.400421 1.0 
295.401581 1.0 
295.455658 2.0 
295.457977 1.0 
295.652649 1.0 
295.653809 1.0 
295.848724 28.0 
295.905304 17.0 
296.056641 72.0 
296.068207 11.0 
296.11792 8.0 
296.11908 8.0 
296.228973 7.0 
296.230133 7.0 
296.231293 7.0 
296.246338 1.0 
296.248657 2.0 
296.250946 1.0 
296.450165 1.0 
296.451324 1.0 
296.475647 7.0 
296.476807 7.0 
296.650787 23.0 
296.651947 23.0 
297.041229 1.0 
297.042389 1.0 
297.056366 1.0 
297.057526 1.0 
297.058685 1.0 
297.064514 68.0 
297.074982 34.0 
297.095917 1.0 
297.097107 1.0 
297.098267 1.0 
297.184418 17.0 
297.238007 2.0 
297.239166 2.0 
297.240326 2.0 
297.261322 1.0 
297.262482 1.0 
297.327759 35.0 
297.430359 6.0 
297.530731 2.0 
297.531891 2.0 
297.533081 2.0 
297.603119 4.0 
297.604309 4.0 
297.877869 5.0 
297.895416 3.0 
297.896576 3.0 
297.897736 3.0 
297.904785 2.0 
297.907104 3.0 
298.014832 1.0 
298.015991 1.0 
298.017151 1.0 
298.018341 1.0 
298.071045 1.0 
298.072235 1.0 
298.073395 1.0 
298.388916 2.0 
298.390076 2.0 
298.391266 2.0 
298.565125 1.0 
298.566315 1.0 
298.567474 1.0 
298.585114 21.0 
298.618042 1.0 
298.619202 1.0 
298.620392 1.0 
298.715668 1.0 
298.718018 3.0 
298.719208 3.0 
298.720367 3.0 
298.721558 3.0 
298.722748 3.0 
298.745087 2.0 
298.746277 2.0 
298.747437 2.0 
298.748627 2.0 
298.985382 9.0 
299.036072 30.0 
299.054962 2.0 
299.060852 14.0 
299.124542 10.0 
299.328827 1.0 
299.330017 1.0 
299.470673 2.0 
299.471863 2.0 
299.473053 2.0 
299.490784 4.0 
299.491974 4.0 
299.493134 4.0 
299.886383 3.0 
299.888733 2.0 
300.037048 38.0 
300.089294 1.0 
300.090485 1.0 
300.091675 1.0 
300.092865 1.0 
300.094055 1.0 
300.382904 3.0 
300.384094 3.0 
300.385284 3.0 
300.387665 1.0 
300.393616 17.0 
300.54007 1.0 
300.54126 1.0 
300.54364 1.0 
300.546021 2.0 
300.548401 1.0 
300.567474 2.0 
300.568665 2.0 
300.571045 1.0 
300.665192 1.0 
300.666382 1.0 
300.667572 1.0 
300.668762 1.0 
300.878723 1.0 
300.879913 1.0 
300.881104 1.0 
301.098541 19.0 
301.225342 3.0 
301.226532 3.0 
301.230133 2.0 
301.231323 2.0 
301.233704 1.0 
301.404938 1.0 
301.407318 2.0 
301.409729 1.0 
301.468445 4.0 
301.59314 15.0 
301.59433 15.0 
301.757538 1.0 
301.758759 1.0 
301.759949 1.0 
301.761139 1.0 
301.76236 1.0 
301.991882 9.0 
302.24707 2.0 
302.24826 2.0 
302.249481 2.0 
302.250671 2.0 
302.437531 1.0 
302.438751 1.0 
302.439941 1.0 
302.494232 1.0 
302.495453 1.0 
302.496643 1.0 
302.497864 1.0 
302.499054 1.0 
302.500275 1.0 
302.621002 1.0 
302.623413 2.0 
302.625824 1.0 
302.846985 20.0 
302.889343 1.0 
302.890533 1.0 
302.891754 1.0 
302.892975 1.0 
302.978882 3.0 
302.980103 3.0 
302.981293 3.0 
303.052734 1.0 
303.053955 1.0 
303.055176 1.0 
303.42746 11.0 
303.474823 4.0 
303.476013 4.0 
303.477234 4.0 
303.478455 4.0 
303.558624 1.0 
303.559845 1.0 
303.561066 1.0 
303.674133 4.0 
303.675323 4.0 
303.676544 4.0 
303.868835 1.0 
303.870026 1.0 
303.871246 1.0 
303.872467 1.0 
304.06134 1.0 
304.062561 1.0 
304.063782 1.0 
304.065002 1.0 
304.066223 1.0 
304.067444 1.0 
304.193054 44.0 
304.194275 44.0 
304.229675 1.0 
304.230896 1.0 
304.247986 8.0 
304.249207 8.0 
304.250427 8.0 
304.251648 8.0 
304.406769 3.0 
304.471527 26.0 
304.472748 26.0 
304.749298 2.0 
304.750519 2.0 
304.75174 2.0 
304.75296 2.0 
304.754211 2.0 
304.755432 2.0 
304.756653 2.0 
305.005493 4.0 
305.006714 4.0 
305.007935 4.0 
305.066833 6.0 
305.068054 6.0 
305.28421 1.0 
305.285461 1.0 
305.404724 11.0 
305.424408 18.0 
305.426849 19.0 
305.428101 19.0 
305.492065 8.0 
305.55484 6.0 
305.650909 1.0 
305.891327 1.0 
305.892578 1.0 
305.893799 1.0 
305.89505 1.0 
305.98761 2.0 
306.176636 1.0 
306.275574 1.0 
306.276825 1.0 
306.451324 1.0 
306.452576 1.0 
306.453796 1.0 
306.530609 3.0 
306.53186 3.0 
306.533081 3.0 
306.665741 40.0 
306.789795 1.0 
306.792297 2.0 
306.794769 1.0 
306.92514 2.0 
306.926392 2.0 
306.927643 2.0 
306.928864 2.0 
306.931366 1.0 
306.932617 1.0 
307.069336 1.0 
307.070557 1.0 
307.071808 1.0 
307.094208 13.0 
307.156403 32.0 
307.729767 1.0 
307.731018 1.0 
307.732269 1.0 
307.824707 6.0 
307.918457 11.0 
307.977234 5.0 
308.068573 6.0 
308.069824 6.0 
308.184998 1.0 
308.186249 1.0 
308.25766 3.0 
308.258911 3.0 
308.600128 5.0 
308.60141 5.0 
308.666718 1.0 
308.667969 1.0 
308.724518 4.0 
308.725769 4.0 
308.83139 14.0 
308.960999 1.0 
308.96225 1.0 
308.963531 1.0 
308.976105 1.0 
309.040314 14.0 
309.051666 1.0 
309.052917 1.0 
309.054169 1.0 
309.219269 8.0 
309.313873 1.0 
309.315125 1.0 
309.316406 1.0 
309.342896 1.0 
309.345428 2.0 
309.347931 1.0 
309.574005 1.0 
309.576538 2.0 
309.579041 1.0 
309.697906 18.0 
309.699158 18.0 
310.022034 2.0 
310.023315 2.0 
310.024567 2.0 
310.034729 5.0 
310.058807 151.0 
310.071472 15.0 
310.344299 15.0 
310.458679 21.0 
310.470093 10.0 
310.576904 1.0 
310.578186 1.0 
310.579468 1.0 
310.676178 5.0 
310.971741 1.0 
310.973022 1.0 
310.974304 1.0 
311.043182 50.0 
311.290894 1.0 
311.292175 1.0 
311.293457 1.0 
311.294708 1.0 
311.371399 18.0 
311.405945 38.0 
311.733673 4.0 
311.734955 4.0 
311.736237 4.0 
311.743927 10.0 
311.906769 4.0 
311.908051 4.0 
312.051788 31.0 
312.091614 2.0 
312.092896 2.0 
312.094177 2.0 
312.257385 3.0 
312.258667 3.0 
312.299835 2.0 
312.447815 2.0 
312.450378 3.0 
312.749359 1.0 
312.750641 1.0 
312.869354 6.0 
312.870636 6.0 
313.094116 1.0 
313.095428 1.0 
313.09671 1.0 
313.098022 1.0 
313.112244 25.0 
313.117401 1.0 
313.556305 1.0 
313.557617 1.0 
313.558899 1.0 
313.560211 1.0 
313.600403 1.0 
313.602997 2.0 
313.604279 2.0 
313.823639 16.0 
313.895081 1.0 
313.896362 1.0 
313.897675 1.0 
314.134338 1.0 
314.136932 2.0 
314.139557 1.0 
314.258026 2.0 
314.259308 2.0 
314.26062 2.0 
314.380493 1.0 
314.381775 1.0 
314.383087 1.0 
314.384399 1.0 
314.385681 1.0 
314.650513 1.0 
314.651825 1.0 
314.71579 4.0 
314.897461 2.0 
314.898773 2.0 
314.900085 2.0 
314.923615 1.0 
314.926239 2.0 
314.928864 1.0 
315.144806 18.0 
315.397766 1.0 
315.399078 1.0 
315.743164 25.0 
315.836548 2.0 
315.83786 2.0 
315.887848 5.0 
315.943115 1.0 
316.053741 6.0 
316.055054 6.0 
316.056366 6.0 
316.157837 3.0 
316.159149 3.0 
316.1987 1.0 
316.200012 1.0 
316.285736 1.0 
316.288391 2.0 
316.289703 2.0 
316.438843 17.0 
316.491669 1.0 
316.493011 1.0 
316.602692 1.0 
316.604004 1.0 
316.605316 1.0 
316.606628 1.0 
316.889771 2.0 
316.892426 1.0 
317.352631 1.0 
317.353943 1.0 
317.396454 5.0 
317.613159 4.0 
317.637085 5.0 
317.778198 3.0 
317.77951 3.0 
317.780853 3.0 
317.834137 1.0 
317.835449 1.0 
317.836792 1.0 
317.888763 1.0 
317.890106 1.0 
317.891418 1.0 
317.892761 1.0 
317.910095 23.0 
317.911407 23.0 
317.935394 1.0 
317.936737 1.0 
318.31311 8.0 
318.57254 1.0 
318.623383 2.0 
318.624725 2.0 
318.727844 2.0 
318.73053 3.0 
318.733215 2.0 
318.80423 2.0 
318.805573 2.0 
318.806915 2.0 
318.816284 1.0 
318.817627 1.0 
318.920868 1.0 
318.922211 1.0 
318.945038 3.0 
318.946381 3.0 
318.947723 3.0 
319.036285 16.0 
319.04834 3.0 
319.189362 1.0 
319.190704 1.0 
319.192047 1.0 
319.252533 6.0 
319.34259 1.0 
319.345276 2.0 
319.347992 1.0 
319.467712 1.0 
319.469055 1.0 
319.470398 1.0 
319.82074 6.0 
319.822083 6.0 
320.043457 61.0 
320.055603 2.0 
320.056946 2.0 
320.090729 2.0 
320.093445 1.0 
320.110992 32.0 
320.185333 3.0 
320.188049 4.0 
320.561615 1.0 
320.562988 1.0 
320.580597 4.0 
320.58194 4.0 
320.845093 12.0 
320.846436 12.0 
320.917053 12.0 
321.0271 18.0 
321.063812 6.0 
321.180756 37.0 
321.216125 1.0 
321.217499 1.0 
321.218842 1.0 
321.30188 1.0 
321.303223 1.0 
321.304596 1.0 
321.305939 1.0 
321.379486 4.0 
321.380859 4.0 
321.839142 1.0 
321.840515 1.0 
321.841888 1.0 
321.843262 1.0 
321.844604 1.0 
321.932068 32.0 
321.977173 1.0 
321.978546 1.0 
322.03598 16.0 
322.071533 3.0 
322.149536 1.0 
322.393311 19.0 
322.463226 10.0 
322.567474 1.0 
322.568848 1.0 
322.570221 1.0 
322.571594 1.0 
322.572968 1.0 
322.78717 15.0 
323.000275 1.0 
323.001648 1.0 
323.003021 1.0 
323.004395 1.0 
323.042938 160.0 
323.053955 2.0 
323.055328 2.0 
323.056702 2.0 
323.080109 5.0 
323.161346 1.0 
323.16272 1.0 
323.164093 1.0 
323.165466 1.0 
323.198517 27.0 
323.19989 27.0 
323.374939 1.0 
323.376312 1.0 
323.377686 1.0 
323.612305 2.0 
323.613678 2.0 
323.696564 1.0 
323.697937 1.0 
323.699341 1.0 
323.700714 1.0 
323.720062 1.0 
323.970398 1.0 
323.971771 1.0 
323.973145 1.0 
324.05069 106.0 
324.486084 1.0 
324.487488 1.0 
324.488861 1.0 
324.490265 1.0 
324.54303 1.0 
324.544403 1.0 
324.545807 1.0 
324.572205 1.0 
324.573578 1.0 
324.73761 1.0 
324.738983 1.0 
324.910126 1.0 
324.91153 1.0 
324.988129 1.0 
324.989502 1.0 
324.990906 1.0 
325.059174 126.0 
325.105164 1.0 
325.106537 1.0 
325.36322 3.0 
325.364594 3.0 
325.853943 3.0 
325.855347 3.0 
325.85675 3.0 
325.947784 25.0 
325.992645 3.0 
325.994049 3.0 
326.003845 1.0 
326.005249 1.0 
326.078156 5.0 
326.079559 5.0 
326.391144 3.0 
326.45578 3.0 
326.457184 3.0 
326.661072 1.0 
326.662506 1.0 
326.66391 1.0 
326.710358 6.0 
326.711761 6.0 
326.825806 4.0 
326.887787 1.0 
326.889221 1.0 
326.890625 1.0 
326.892029 1.0 
326.930084 1.0 
326.931488 1.0 
326.932892 1.0 
326.938538 3.0 
326.939941 3.0 
326.994934 1.0 
327.325226 2.0 
327.32663 2.0 
327.328033 2.0 
327.460907 1.0 
327.462311 1.0 
327.544373 1.0 
327.545776 1.0 
327.5755 3.0 
327.578308 2.0 
327.768066 7.0 
327.979279 46.0 
328.124054 1.0 
328.125458 1.0 
328.126892 1.0 
328.327209 17.0 
328.416779 1.0 
328.418213 1.0 
328.419617 1.0 
328.421051 1.0 
328.854034 1.0 
328.855438 1.0 
328.856873 1.0 
328.891113 2.0 
328.893951 3.0 
328.948181 1.0 
328.949615 1.0 
328.951019 1.0 
328.952454 1.0 
328.953888 1.0 
329.04953 1.0 
329.050964 1.0 
329.052368 1.0 
329.053802 1.0 
329.055237 1.0 
329.125214 1.0 
329.126648 1.0 
329.128082 1.0 
329.129486 1.0 
329.175232 1.0 
329.182373 47.0 
329.228088 16.0 
329.653168 42.0 
329.94577 31.0 
329.970184 1.0 
329.971619 1.0 
329.973053 1.0 
329.974487 1.0 
330.049164 2.0 
330.050629 2.0 
330.063538 1.0 
330.064972 1.0 
330.066406 1.0 
330.372711 1.0 
330.374146 1.0 
330.37558 1.0 
330.408691 37.0 
330.410126 37.0 
330.414459 36.0 
330.614685 18.0 
331.114197 25.0 
331.196625 1.0 
331.198059 1.0 
331.199524 1.0 
331.200958 1.0 
331.339905 17.0 
331.38913 30.0 
331.516632 1.0 
331.519531 2.0 
331.520966 2.0 
332.253052 4.0 
332.254517 4.0 
332.255981 4.0 
332.269073 13.0 
332.28653 1.0 
332.30838 2.0 
332.309845 2.0 
332.31131 2.0 
332.394318 1.0 
332.395782 1.0 
332.397247 1.0 
332.910919 1.0 
332.912384 1.0 
333.05127 7.0 
333.060059 1.0 
333.062988 2.0 
333.071747 1.0 
333.073212 1.0 
333.074677 1.0 
333.099548 1.0 
333.101013 1.0 
333.102478 1.0 
333.103943 1.0 
333.105408 1.0 
333.125885 1.0 
333.128815 2.0 
333.13028 2.0 
333.222504 42.0 
333.388062 1.0 
333.389526 1.0 
333.390991 1.0 
333.392456 1.0 
333.631561 1.0 
333.633026 1.0 
333.634491 1.0 
333.856293 5.0 
333.857758 5.0 
333.866577 2.0 
333.868042 2.0 
333.869507 2.0 
333.997437 2.0 
333.998932 2.0 
334.000397 2.0 
334.028351 2.0 
334.029816 2.0 
334.032745 3.0 
334.034241 3.0 
334.035706 3.0 
334.05777 4.0 
334.059235 4.0 
334.901672 1.0 
334.903137 1.0 
334.94754 1.0 
335.040771 3.0 
335.042236 3.0 
335.043732 3.0 
335.052612 4.0 
335.054077 4.0 
335.077789 1.0 
335.079254 1.0 
335.08075 1.0 
335.510681 1.0 
335.512177 1.0 
335.58493 4.0 
335.586395 4.0 
335.685944 1.0 
335.687408 1.0 
335.688904 1.0 
336.038483 65.0 
336.050415 1.0 
336.05188 1.0 
336.053375 1.0 
336.054871 1.0 
336.056366 1.0 
336.057861 1.0 
336.059326 1.0 
336.060822 1.0 
336.181519 14.0 
336.182983 14.0 
336.19046 4.0 
336.19342 3.0 
336.194916 3.0 
336.420135 4.0 
336.421631 4.0 
336.423126 4.0 
336.62326 11.0 
336.874481 6.0 
336.875977 6.0 
336.877472 6.0 
337.046661 39.0 
337.057159 16.0 
337.058655 16.0 
337.0961 33.0 
337.360046 32.0 
337.399078 5.0 
337.400574 5.0 
337.495178 7.0 
337.621399 1.0 
337.622925 1.0 
338.017212 13.0 
338.054901 339.0 
338.066956 17.0 
338.11972 4.0 
338.121216 4.0 
338.170959 1.0 
338.172485 1.0 
338.173981 1.0 
338.175507 1.0 
338.40036 42.0 
338.596802 1.0 
338.598297 1.0 
338.599823 1.0 
338.761658 2.0 
338.763184 2.0 
338.764679 2.0 
338.990326 1.0 
338.993378 2.0 
338.994873 2.0 
339.061584 44.0 
339.085846 23.0 
339.135895 1.0 
339.13739 1.0 
339.580872 1.0 
339.582367 1.0 
339.583893 1.0 
339.585419 1.0 
339.586945 1.0 
339.780182 6.0 
339.781708 6.0 
339.838043 2.0 
339.839569 2.0 
339.944702 17.0 
340.046844 255.0 
340.069702 38.0 
340.14444 9.0 
340.882996 1.0 
340.884521 1.0 
341.053162 36.0 
341.094574 4.0 
341.09613 4.0 
341.155975 2.0 
341.157501 2.0 
341.159027 2.0 
341.175934 1.0 
341.17746 1.0 
341.178986 1.0 
341.206635 37.0 
341.20816 37.0 
341.583191 22.0 
341.609344 1.0 
341.61087 1.0 
341.612427 1.0 
341.892731 2.0 
341.894287 2.0 
341.895813 2.0 
342.085541 47.0 
342.147278 1.0 
342.148804 1.0 
342.15036 1.0 
342.151917 1.0 
342.707031 20.0 
342.8992 4.0 
342.900757 4.0 
343.124176 1.0 
343.125732 1.0 
343.127289 1.0 
343.469177 2.0 
343.470734 2.0 
343.559448 1.0 
343.562561 2.0 
343.598358 6.0 
343.599915 6.0 
343.601471 6.0 
343.761902 32.0 
343.785309 9.0 
344.098846 14.0 
344.228516 23.0 
344.42395 2.0 
344.425507 2.0 
344.427063 2.0 
344.428619 2.0 
344.516266 1.0 
344.517822 1.0 
344.70575 10.0 
344.707336 10.0 
344.730835 1.0 
344.732391 1.0 
344.733978 1.0 
345.061829 1.0 
345.063385 1.0 
345.064972 1.0 
345.066528 1.0 
345.068115 1.0 
345.069672 1.0 
345.179626 27.0 
345.659515 5.0 
345.661102 5.0 
346.09494 41.0 
346.221344 1.0 
346.222931 1.0 
346.423798 38.0 
346.548889 28.0 
346.623322 1.0 
346.624908 1.0 
347.080261 4.0 
347.081848 4.0 
347.083435 4.0 
347.088196 1.0 
347.37439 3.0 
347.476257 45.0 
347.525635 2.0 
347.527222 2.0 
347.528809 2.0 
347.638733 7.0 
347.740784 9.0 
347.750336 3.0 
347.751923 3.0 
347.98172 1.0 
347.983337 1.0 
347.984924 1.0 
347.986511 1.0 
348.036041 10.0 
348.037628 10.0 
348.435822 1.0 
348.437439 1.0 
348.439026 1.0 
348.440643 1.0 
348.855804 4.0 
348.915192 1.0 
349.13208 2.0 
349.133667 2.0 
349.135284 2.0 
349.136902 2.0 
349.156189 1.0 
349.157776 1.0 
349.159393 1.0 
349.960266 1.0 
349.961884 1.0 
349.96347 1.0 
349.965088 1.0 
349.966705 1.0 
350.053955 21.0 
350.055573 21.0 
350.427643 1.0 
350.4487 34.0 
350.472992 1.0 
350.474609 1.0 
350.476227 1.0 
350.508636 9.0 
350.884888 3.0 
350.886536 3.0 
350.888153 3.0 
351.039215 51.0 
351.25058 1.0 
351.252228 1.0 
351.253845 1.0 
351.255463 1.0 
351.384064 1.0 
351.385681 1.0 
351.626831 1.0 
351.628479 1.0 
351.687164 4.0 
351.927094 1.0 
351.930359 2.0 
351.933624 1.0 
352.044739 39.0 
352.070892 55.0 
352.082336 135.0 
352.097046 1.0 
352.098694 1.0 
352.100311 1.0 
352.101959 1.0 
352.283508 34.0 
352.722656 2.0 
352.724304 2.0 
352.752197 2.0 
352.753845 2.0 
352.755493 2.0 
352.947571 2.0 
352.949219 2.0 
352.950867 2.0 
353.046173 1.0 
353.049469 2.0 
353.052765 1.0 
353.065918 15.0 
353.067535 15.0 
353.077423 18.0 
353.079071 18.0 
353.08728 13.0 
353.088928 13.0 
353.706543 35.0 
354.086395 19.0 
354.097961 180.0 
354.210449 1.0 
354.213745 2.0 
354.217072 1.0 
354.303131 1.0 
354.369354 7.0 
354.410767 1.0 
354.412415 1.0 
354.729065 7.0 
354.752319 1.0 
354.753967 1.0 
355.052948 1.0 
355.056274 2.0 
355.057953 2.0 
355.077881 2.0 
355.079559 2.0 
355.081207 2.0 
355.082886 2.0 
355.106171 14.0 
356.019775 1.0 
356.054901 60.0 
356.649384 3.0 
356.651062 3.0 
356.65274 3.0 
356.709778 1.0 
356.711456 1.0 
356.713135 1.0 
356.79538 1.0 
356.797058 1.0 
356.798737 1.0 
357.072571 129.0 
357.282867 5.0 
357.567596 2.0 
357.570984 3.0 
357.69577 4.0 
357.697479 4.0 
357.80719 1.0 
357.808868 1.0 
357.810547 1.0 
358.080902 6.0 
358.278839 2.0 
358.280518 2.0 
358.282227 2.0 
358.283905 2.0 
358.843414 36.0 
359.18335 2.0 
359.185059 2.0 
359.186768 2.0 
359.190155 1.0 
359.392761 30.0 
359.508606 14.0 
359.629669 13.0 
359.655243 1.0 
359.656952 1.0 
359.658661 1.0 
359.66037 1.0 
359.662079 1.0 
359.75592 7.0 
359.945465 1.0 
359.947174 1.0 
359.948883 1.0 
359.950592 1.0 
360.15918 1.0 
360.160889 1.0 
360.162598 1.0 
360.164307 1.0 
360.166016 1.0 
360.308044 1.0 
360.309753 1.0 
360.311462 1.0 
360.313171 1.0 
360.326874 2.0 
360.328583 2.0 
360.330292 2.0 
360.332031 2.0 
360.446777 1.0 
360.448486 1.0 
360.450195 1.0 
360.451904 1.0 
360.470764 1.0 
360.472473 1.0 
360.729706 17.0 
360.731415 17.0 
360.940887 1.0 
360.942596 1.0 
360.959778 1.0 
360.961487 1.0 
360.963226 1.0 
361.047424 13.0 
361.049164 13.0 
361.059479 2.0 
361.061188 2.0 
361.088684 1.0 
361.092133 2.0 
361.093842 2.0 
361.09729 1.0 
361.098999 1.0 
361.531128 2.0 
361.532837 2.0 
361.703583 1.0 
361.705292 1.0 
361.707031 1.0 
361.70874 1.0 
362.054138 21.0 
362.090454 1.0 
362.092194 1.0 
362.093903 1.0 
362.372498 3.0 
362.374237 3.0 
362.407135 23.0 
362.417511 7.0 
362.41925 7.0 
362.625488 4.0 
362.627228 4.0 
363.010864 4.0 
363.292603 27.0 
363.294342 27.0 
363.369202 4.0 
363.370941 4.0 
363.372681 4.0 
363.37442 4.0 
363.398804 2.0 
363.695099 24.0 
363.852173 5.0 
363.894073 9.0 
363.977905 17.0 
363.979645 17.0 
363.981415 17.0 
364.068787 28.0 
364.070526 28.0 
364.301392 3.0 
364.303162 3.0 
364.304901 3.0 
365.009827 1.0 
365.011597 1.0 
365.013367 1.0 
365.078369 1.0 
365.080139 1.0 
365.081879 1.0 
365.083649 1.0 
365.590546 1.0 
365.592316 1.0 
365.594086 1.0 
365.595856 1.0 
365.597626 1.0 
365.601135 1.0 
365.602905 1.0 
365.638153 9.0 
366.049408 15.0 
366.059998 5.0 
366.061768 5.0 
366.867584 2.0 
366.869354 2.0 
366.871124 2.0 
366.872894 2.0 
367.034485 22.0 
367.036285 22.0 
367.057587 65.0 
367.068237 1.0 
367.070038 1.0 
367.071808 1.0 
367.125122 42.0 
367.342102 43.0 
367.612762 28.0 
367.614563 28.0 
367.769653 1.0 
367.771454 1.0 
368.064209 311.0 
368.098145 159.0 
368.789154 2.0 
368.790955 2.0 
368.792755 2.0 
368.794525 2.0 
368.889618 2.0 
368.891418 2.0 
368.893219 2.0 
368.89502 2.0 
368.973999 4.0 
368.975769 4.0 
369.024261 2.0 
369.026062 2.0 
369.027863 2.0 
369.072754 96.0 
369.099701 9.0 
369.13385 33.0 
369.639465 2.0 
369.641266 2.0 
369.644867 1.0 
370.092285 3356.0 
370.119354 2.0 
370.758148 42.0 
370.790802 32.0 
370.792603 32.0 
370.85788 1.0 
370.859711 1.0 
371.019379 4.0 
371.077484 10.0 
371.095642 419.0 
371.486511 2.0 
371.488312 2.0 
371.490143 2.0 
371.511993 1.0 
371.513794 1.0 
371.515625 1.0 
371.615753 8.0 
371.763336 2.0 
371.765137 2.0 
371.766968 2.0 
371.77063 1.0 
372.988495 1.0 
373.186737 2.0 
374.195892 1.0 
374.197754 1.0 
374.724731 37.0 
375.050934 1.0 
375.052795 1.0 
375.054657 1.0 
375.056488 1.0 
375.05835 1.0 
375.063904 1.0 
375.088043 4.0 
375.089905 4.0 
375.993774 25.0 
375.995636 25.0 
376.245605 40.0 
376.423035 10.0 
376.480988 24.0 
376.494049 2.0 
376.495941 2.0 
376.507141 8.0 
376.784027 1.0 
376.785889 1.0 
376.787781 1.0 
377.123199 1.0 
377.125061 1.0 
377.224487 16.0 
377.226379 16.0 
377.637787 3.0 
377.639648 3.0 
377.641541 3.0 
377.801453 1.0 
377.803345 1.0 
377.805237 1.0 
378.048218 7.0 
378.085907 18.0 
378.270721 8.0 
378.29715 36.0 
378.629608 1.0 
378.633392 2.0 
378.637146 4.0 
378.644714 1.0 
378.669312 1.0 
378.671204 1.0 
378.673096 1.0 
378.773346 3.0 
378.991028 19.0 
378.99292 19.0 
379.045959 24.0 
379.057343 112.0 
379.080078 182.0 
379.457581 1.0 
379.459473 1.0 
379.942383 7.0 
379.944275 7.0 
380.06427 191.0 
380.077576 84.0 
380.157623 1.0 
380.161438 2.0 
380.16333 2.0 
380.165253 2.0 
380.325409 29.0 
380.420807 3.0 
380.422699 3.0 
380.426514 2.0 
380.47998 2.0 
380.481873 2.0 
380.483795 2.0 
380.772278 5.0 
380.7742 5.0 
380.825836 38.0 
380.978882 4.0 
380.980804 4.0 
381.061218 206.0 
381.072693 71.0 
381.099518 7.0 
381.10144 7.0 
381.135925 6.0 
381.137817 6.0 
381.13974 6.0 
381.210632 12.0 
381.377441 17.0 
381.448425 1.0 
381.450348 1.0 
381.45224 1.0 
382.08075 59.0 
382.094208 123.0 
382.200134 2.0 
382.202057 2.0 
382.744141 8.0 
382.796326 18.0 
382.908417 1.0 
382.91037 1.0 
382.912292 1.0 
382.914215 1.0 
382.916168 1.0 
383.049622 4.0 
383.444763 61.0 
383.458313 5.0 
383.460266 5.0 
383.468018 1.0 
383.553375 6.0 
383.829041 1.0 
383.830994 1.0 
383.918427 34.0 
383.92038 34.0 
384.027313 1.0 
384.029266 1.0 
384.031219 1.0 
384.033142 1.0 
384.042877 1.0 
384.04483 1.0 
384.046753 1.0 
384.048706 1.0 
384.050659 1.0 
384.233582 2.0 
384.235535 2.0 
384.237457 2.0 
384.327057 1.0 
384.32901 1.0 
384.330963 1.0 
384.412781 1.0 
384.414734 1.0 
384.416687 1.0 
384.496582 1.0 
384.498535 1.0 
384.629211 4.0 
384.631165 4.0 
384.633118 4.0 
384.662384 9.0 
384.892761 1.0 
384.896667 2.0 
384.898621 2.0 
385.315216 1.0 
385.317169 1.0 
385.319122 1.0 
385.321075 1.0 
385.47583 42.0 
385.53656 4.0 
385.538544 4.0 
385.948639 33.0 
385.950592 33.0 
386.078339 1.0 
386.080292 1.0 
386.082245 1.0 
386.084229 1.0 
386.397034 1.0 
386.40097 2.0 
386.542786 1.0 
386.639343 2.0 
386.641327 2.0 
386.643311 2.0 
387.006378 6.0 
387.039948 18.0 
387.085388 3.0 
387.087372 3.0 
387.118988 1.0 
387.120972 1.0 
387.122955 1.0 
387.174347 1.0 
387.1763 1.0 
387.29892 21.0 
387.389923 28.0 
387.433472 1.0 
387.435455 1.0 
387.437439 1.0 
387.645386 17.0 
387.752441 32.0 
388.03418 1.0 
388.036163 1.0 
388.038147 1.0 
388.111633 15.0 
388.543152 2.0 
388.545166 2.0 
388.549133 1.0 
388.628784 1.0 
388.630768 1.0 
388.642731 1.0 
388.644714 1.0 
388.646729 1.0 
388.770264 5.0 
388.772247 5.0 
388.955688 1.0 
388.957703 1.0 
389.027527 14.0 
389.035522 1.0 
389.037506 1.0 
389.03952 1.0 
389.06546 2.0 
389.067444 2.0 
389.069458 2.0 
389.097412 1.0 
389.099396 1.0 
389.10141 1.0 
389.331146 1.0 
389.33313 1.0 
389.335144 1.0 
389.337128 1.0 
389.487122 1.0 
389.489105 1.0 
389.491119 1.0 
389.493103 1.0 
390.050079 2.0 
390.052063 2.0 
390.054077 2.0 
390.068115 10.0 
390.182526 7.0 
390.697174 1.0 
390.699188 1.0 
390.701202 1.0 
390.809937 14.0 
391.388855 26.0 
392.062683 3.0 
392.064728 3.0 
392.066742 3.0 
392.076874 38.0 
392.458374 1.0 
392.462433 2.0 
392.482727 1.0 
392.484772 1.0 
392.486816 1.0 
392.924042 26.0 
392.938293 1.0 
393.164429 2.0 
393.166473 2.0 
393.168518 2.0 
394.067505 49.0 
394.092102 31.0 
394.896576 8.0 
395.032349 3.0 
395.050873 35.0 
395.087921 1.0 
395.089996 1.0 
395.092041 1.0 
395.458801 1.0 
395.650696 2.0 
395.65274 2.0 
395.654816 2.0 
395.842773 8.0 
396.059845 21.0 
396.072266 10.0 
396.084686 293.0 
396.092957 586.0 
396.26474 2.0 
396.266815 2.0 
396.26889 2.0 
396.302032 24.0 
396.314453 3.0 
396.316528 3.0 
396.355865 2.0 
396.357941 2.0 
396.360016 2.0 
396.637817 2.0 
396.639893 2.0 
396.644043 1.0 
396.716675 1.0 
396.720825 2.0 
396.7229 2.0 
396.795563 2.0 
396.797638 2.0 
396.799713 2.0 
397.067749 786.0 
397.090607 106.0 
397.098938 4.0 
397.103088 4.0 
397.105164 4.0 
397.107269 4.0 
397.109344 4.0 
397.169647 3.0 
397.171722 3.0 
397.173828 3.0 
397.175903 3.0 
397.282013 5.0 
397.440277 3.0 
397.442352 3.0 
397.450684 29.0 
397.475677 1.0 
397.477753 1.0 
397.623657 3.0 
397.625732 3.0 
397.627838 3.0 
397.642426 3.0 
397.644501 3.0 
397.796783 9.0 
398.013916 1.0 
398.016022 1.0 
398.018097 1.0 
398.055725 2.0 
398.0578 2.0 
398.087067 9231.0 
398.10379 7.0 
398.135132 25.0 
398.922638 1.0 
398.928955 10.0 
398.931061 10.0 
399.090607 1241.0 
399.120026 61.0 
399.380676 1.0 
399.382782 1.0 
399.814453 7.0 
400.099243 10.0 
400.344269 3.0 
400.346375 3.0 
400.502838 1.0 
400.504974 1.0 
400.555725 1.0 
400.559967 2.0 
400.562073 2.0 
400.913635 5.0 
401.159668 8.0 
401.21698 31.0 
401.58667 33.0 
401.603699 1.0 
401.605835 1.0 
401.607941 1.0 
401.68454 3.0 
401.790955 14.0 
401.793091 14.0 
401.837799 4.0 
401.839905 4.0 
401.971985 1.0 
401.974121 1.0 
401.976257 1.0 
402.070038 4.0 
402.072174 4.0 
402.07428 4.0 
402.215057 33.0 
402.306793 5.0 
402.61438 42.0 
402.873199 1.0 
402.875336 1.0 
402.924591 1.0 
402.926727 1.0 
402.928864 1.0 
402.963135 2.0 
402.965271 2.0 
402.967407 2.0 
402.995239 3.0 
402.997375 3.0 
402.999542 3.0 
403.001678 3.0 
403.003815 3.0 
403.196655 2.0 
403.198822 2.0 
403.200958 2.0 
403.529236 5.0 
403.531372 5.0 
403.533539 5.0 
403.535675 5.0 
403.765594 1.0 
403.767731 1.0 
403.769867 1.0 
403.772034 1.0 
404.066803 43.0 
404.234802 1.0 
404.236969 1.0 
404.327484 2.0 
404.329651 2.0 
404.331787 2.0 
404.765594 4.0 
404.767761 4.0 
404.769928 4.0 
404.893097 1.0 
404.895264 1.0 
405.096436 90.0 
405.273956 3.0 
405.583923 3.0 
405.58609 3.0 
405.588257 3.0 
405.746704 6.0 
405.748871 6.0 
405.855286 1.0 
405.857452 1.0 
405.859619 1.0 
405.922638 1.0 
405.924805 1.0 
405.926971 1.0 
405.929138 1.0 
406.01825 26.0 
406.068268 5.0 
406.079132 5.0 
406.274933 41.0 
406.392517 1.0 
406.394684 1.0 
406.861328 1.0 
406.863495 1.0 
406.865692 1.0 
407.051331 7.0 
407.532593 1.0 
407.53479 1.0 
407.536957 1.0 
407.539154 1.0 
407.672821 8.0 
408.058899 123.0 
408.096252 46.0 
408.21048 1.0 
408.212677 1.0 
408.214874 1.0 
408.217072 1.0 
408.520569 2.0 
408.522766 2.0 
408.524963 2.0 
408.857574 5.0 
408.859772 5.0 
409.089172 7.0 
409.09137 7.0 
409.435944 2.0 
409.438171 2.0 
409.440369 2.0 
409.442566 2.0 
409.513336 1.0 
409.515533 1.0 
409.608459 1.0 
409.610657 1.0 
409.612885 1.0 
409.681488 1.0 
409.683685 1.0 
409.685913 1.0 
410.086914 436.0 
410.675446 2.0 
410.677673 2.0 
410.679901 2.0 
410.869049 2.0 
410.871277 2.0 
410.873505 2.0 
410.946991 1.0 
410.949219 1.0 
411.071716 12.0 
411.091797 79.0 
411.11853 17.0 
411.120758 17.0 
411.40625 1.0 
411.410736 2.0 
411.415192 1.0 
412.00531 1.0 
412.007538 1.0 
412.074707 1.0 
412.076965 1.0 
412.079193 1.0 
412.081421 1.0 
412.097107 20.0 
412.144135 19.0 
412.184479 8.0 
412.236023 1.0 
412.238251 1.0 
412.839722 30.0 
413.107361 41.0 
413.330292 13.0 
413.409149 46.0 
413.45874 1.0 
413.460999 1.0 
413.463257 1.0 
413.603058 2.0 
413.605316 2.0 
413.607574 2.0 
413.609833 2.0 
413.636902 1.0 
413.688812 7.0 
413.691071 7.0 
413.702362 2.0 
413.70462 2.0 
413.706879 2.0 
413.709137 2.0 
414.09317 1155.0 
414.507416 40.0 
414.591248 1.0 
414.593536 1.0 
414.700104 1.0 
414.702362 1.0 
414.70462 1.0 
414.713715 20.0 
414.774933 10.0 
414.867981 13.0 
414.87027 13.0 
414.990601 2.0 
414.992859 2.0 
415.076904 7.0 
415.079163 7.0 
415.101898 1261.0 
415.113251 247.0 
415.736847 19.0 
416.104126 142.0 
416.11554 15.0 
416.117828 15.0 
416.282288 1.0 
416.284576 1.0 
416.382874 1.0 
416.385162 1.0 
416.387451 1.0 
416.790222 1.0 
416.792542 1.0 
416.79483 1.0 
416.941498 16.0 
417.513092 8.0 
417.92038 1.0 
417.922668 1.0 
417.924988 1.0 
418.014832 15.0 
418.081665 7.0 
418.14621 14.0 
418.277679 1.0 
418.279999 1.0 
418.282288 1.0 
418.473877 2.0 
418.476196 2.0 
418.480804 1.0 
418.795135 1.0 
418.797455 1.0 
418.799774 1.0 
418.885345 2.0 
418.887665 2.0 
418.889984 2.0 
418.93396 2.0 
418.936279 2.0 
418.938599 2.0 
419.054352 2.0 
419.056671 2.0 
419.05896 2.0 
419.086761 6.0 
419.873413 1.0 
419.875732 1.0 
420.073425 3.0 
420.075775 3.0 
420.094391 41.0 
420.618683 2.0 
420.621002 2.0 
420.623352 2.0 
420.814758 3.0 
420.821747 4.0 
420.824097 4.0 
420.975952 2.0 
420.978271 2.0 
420.980621 2.0 
421.350189 2.0 
421.352539 2.0 
421.354889 2.0 
421.357239 2.0 
421.614929 2.0 
421.619629 3.0 
421.624298 2.0 
422.058441 5.0 
422.060791 5.0 
422.063141 5.0 
422.208832 1.0 
422.211182 1.0 
422.213531 1.0 
422.828003 2.0 
422.832703 3.0 
423.000183 1.0 
423.002533 1.0 
423.004883 1.0 
423.007263 1.0 
423.045013 5.0 
423.047363 5.0 
423.063904 1.0 
423.066254 1.0 
423.068604 1.0 
423.070984 1.0 
423.207916 7.0 
423.210297 7.0 
423.259888 1.0 
423.264618 2.0 
423.266968 2.0 
423.373322 1.0 
423.375671 1.0 
423.680817 40.0 
423.73764 6.0 
423.740021 6.0 
423.927155 4.0 
423.929535 4.0 
423.972198 14.0 
424.055176 37.0 
424.076508 1.0 
424.078888 1.0 
424.081268 1.0 
424.083649 1.0 
424.109711 2.0 
424.112091 2.0 
424.651215 5.0 
424.653595 5.0 
424.655975 5.0 
425.063019 182.0 
425.086853 41.0 
425.122589 4.0 
425.125 4.0 
425.406403 3.0 
425.408783 3.0 
425.609344 1.0 
425.614136 2.0 
425.616516 2.0 
425.63324 5.0 
425.702545 7.0 
426.082855 100.0 
426.113983 3.0 
426.118774 2.0 
427.059509 1.0 
427.064301 2.0 
427.069122 1.0 
427.114838 523.0 
427.545868 18.0 
427.548279 18.0 
428.11795 61.0 
428.299316 1.0 
428.301727 1.0 
428.422729 1.0 
428.546204 8.0 
428.601898 29.0 
429.086945 44.0 
429.641235 9.0 
430.109131 1.0 
430.111572 1.0 
430.114014 1.0 
430.116455 1.0 
430.118896 1.0 
430.287292 1.0 
430.289734 1.0 
430.773712 19.0 
430.844696 1.0 
430.847137 1.0 
430.849609 1.0 
431.01123 1.0 
431.013672 1.0 
431.464905 1.0 
431.467377 1.0 
431.469818 1.0 
431.47229 1.0 
431.474731 1.0 
431.875275 2.0 
431.877747 2.0 
431.880219 2.0 
431.904816 3.0 
431.907257 3.0 
432.086914 3.0 
432.089386 3.0 
432.989899 6.0 
432.992371 6.0 
433.266998 1.0 
433.26947 1.0 
433.291748 1.0 
433.29422 1.0 
433.309082 7.0 
433.311554 7.0 
433.314026 7.0 
433.727936 1.0 
433.730408 1.0 
433.73288 1.0 
433.936432 3.0 
433.938904 3.0 
433.941376 3.0 
433.943878 3.0 
434.354004 2.0 
434.356476 2.0 
434.358978 2.0 
434.513275 12.0 
434.824738 27.0 
435.101654 1.0 
435.104156 1.0 
435.106659 1.0 
435.109161 1.0 
435.116638 3.0 
435.119141 3.0 
435.199066 4.0 
435.201538 4.0 
435.204041 4.0 
435.276489 1.0 
435.278992 1.0 
435.281494 1.0 
435.388947 1.0 
435.391449 1.0 
435.393951 1.0 
435.428955 1.0 
435.431458 1.0 
435.43396 1.0 
435.486481 28.0 
435.526489 1.0 
435.528992 1.0 
435.586517 44.0 
435.869446 4.0 
435.871948 4.0 
436.095062 2.0 
436.097565 2.0 
436.100067 2.0 
436.780792 3.0 
436.783325 3.0 
436.906616 6.0 
437.01236 2.0 
437.014893 2.0 
437.017426 2.0 
437.098022 280.0 
437.135803 159.0 
437.375336 3.0 
437.377869 3.0 
437.380371 3.0 
437.756592 10.0 
437.759125 10.0 
437.819794 1.0 
437.822327 1.0 
437.824829 1.0 
437.827362 1.0 
437.829895 1.0 
437.855164 2.0 
437.857697 2.0 
437.860229 2.0 
437.893097 28.0 
438.082825 83.0 
438.103088 50.0 
438.123322 1.0 
438.125854 1.0 
438.13092 2.0 
438.135986 1.0 
438.138519 1.0 
438.141052 1.0 
438.265137 9.0 
438.726624 40.0 
439.084808 4.0 
439.087341 4.0 
439.112793 57.0 
439.115326 57.0 
439.7341 1.0 
439.736633 1.0 
439.739197 1.0 
439.74173 1.0 
439.762146 1.0 
439.764709 1.0 
439.767242 1.0 
439.795288 2.0 
439.797852 2.0 
439.800415 2.0 
440.073517 15.0 
440.09903 3.0 
440.101593 3.0 
440.346954 1.0 
440.349487 1.0 
440.352051 1.0 
440.354614 1.0 
440.477386 4.0 
440.47995 4.0 
440.482513 4.0 
440.531128 5.0 
440.533691 5.0 
440.536255 5.0 
440.741089 1.0 
440.743652 1.0 
440.746216 1.0 
441.082062 98.0 
442.283447 2.0 
442.286041 2.0 
442.288635 2.0 
442.291199 2.0 
442.407318 1.0 
442.417633 35.0 
444.140808 3.0 
444.143433 3.0 
444.146027 3.0 
444.450592 4.0 
444.453186 4.0 
444.669525 2.0 
444.672119 2.0 
444.674744 2.0 
444.964355 1.0 
444.96698 1.0 
444.969604 1.0 
444.972198 1.0 
444.974823 1.0 
445.578796 1.0 
445.581421 1.0 
445.667847 7.0 
445.956146 1.0 
445.958771 1.0 
446.100433 29.0 
446.373535 1.0 
446.37616 1.0 
446.378784 1.0 
446.686432 31.0 
446.799591 2.0 
446.802246 2.0 
446.804871 2.0 
446.807495 2.0 
446.857513 3.0 
446.860168 3.0 
446.978699 1.0 
446.981323 1.0 
447.039307 30.0 
447.157928 7.0 
447.160553 7.0 
447.701752 1.0 
447.704407 1.0 
447.707062 1.0 
447.945068 41.0 
448.305237 4.0 
448.307861 4.0 
448.310516 4.0 
448.41922 29.0 
448.825287 5.0 
449.096436 4.0 
449.099091 4.0 
449.123016 13.0 
449.125671 13.0 
449.389191 4.0 
450.130768 16.0 
450.59082 2.0 
450.593506 2.0 
450.596161 2.0 
450.652405 2.0 
450.65509 2.0 
450.695251 24.0 
450.968658 1.0 
451.124268 10.0 
451.137665 2.0 
451.14035 2.0 
451.183319 1.0 
451.400848 1.0 
451.403534 1.0 
451.406219 1.0 
451.554077 3.0 
451.556763 3.0 
451.664337 4.0 
451.667023 4.0 
451.669739 4.0 
451.963165 9.0 
452.70517 31.0 
452.899841 44.0 
453.097382 2.0 
453.100098 2.0 
453.113617 216.0 
453.259888 1.0 
453.262604 1.0 
453.265289 1.0 
453.37912 5.0 
453.381836 5.0 
453.419769 7.0 
453.691071 1.0 
453.693787 1.0 
453.75351 34.0 
453.927338 3.0 
453.930054 3.0 
454.055084 52.0 
454.0578 52.0 
454.114899 30.0 
454.722168 1.0 
454.724884 1.0 
454.7276 1.0 
454.730347 1.0 
454.798523 1.0 
454.801239 1.0 
454.803986 1.0 
454.806702 1.0 
455.096039 58.0 
455.10968 3684.0 
455.147949 14.0 
455.741516 1.0 
455.744263 1.0 
455.747009 1.0 
455.749756 1.0 
455.752472 1.0 
456.100616 35.0 
456.114319 646.0 
456.292725 1.0 
456.295471 1.0 
456.298218 1.0 
456.62793 1.0 
456.633453 2.0 
456.6362 2.0 
456.94162 1.0 
457.035248 1.0 
457.038025 1.0 
457.040771 1.0 
457.043518 1.0 
457.233673 2.0 
457.239197 3.0 
457.269501 6.0 
457.277802 22.0 
457.280548 22.0 
457.479187 1.0 
457.481934 1.0 
457.711121 5.0 
457.713898 5.0 
457.716644 5.0 
457.813354 3.0 
457.816132 3.0 
457.818909 3.0 
457.915649 1.0 
458.136993 12.0 
458.23941 18.0 
458.35022 6.0 
458.466583 1.0 
458.46936 1.0 
459.263489 1.0 
459.266296 1.0 
459.269073 1.0 
459.787018 2.0 
459.789795 2.0 
459.792603 2.0 
459.79538 2.0 
460.588531 56.0 
461.084229 26.0 
461.117859 1.0 
461.120667 1.0 
461.145905 1.0 
461.148712 1.0 
461.15152 1.0 
461.51358 4.0 
461.516388 4.0 
461.617523 2.0 
461.651245 4.0 
461.654053 4.0 
461.797455 3.0 
461.800262 3.0 
461.80307 3.0 
462.250671 1.0 
462.253479 1.0 
462.256287 1.0 
462.521332 2.0 
462.524139 2.0 
462.526978 2.0 
462.651154 2.0 
462.653961 2.0 
462.656799 2.0 
462.659607 2.0 
462.662445 2.0 
462.831848 2.0 
462.834686 2.0 
463.02121 1.0 
463.026855 2.0 
463.032501 1.0 
463.190887 27.0 
463.193726 27.0 
463.298431 2.0 
463.30127 2.0 
463.304108 2.0 
463.423004 2.0 
463.425842 2.0 
463.42868 2.0 
463.575989 1.0 
463.578827 1.0 
463.581665 1.0 
463.675201 6.0 
463.67804 6.0 
464.001495 1.0 
464.004333 1.0 
464.007172 1.0 
464.109406 17.0 
464.112244 17.0 
464.217377 1.0 
464.220215 1.0 
464.223053 1.0 
464.311157 1.0 
464.314026 1.0 
464.316864 1.0 
464.319702 1.0 
464.393616 1.0 
464.396484 1.0 
464.399323 1.0 
464.618408 3.0 
465.0401 2.0 
465.042969 2.0 
465.045807 2.0 
465.131378 347.0 
465.425446 1.0 
465.428284 1.0 
465.431152 1.0 
465.434021 1.0 
465.648376 4.0 
466.126373 17.0 
466.134979 25.0 
466.504883 2.0 
466.507751 2.0 
466.51062 2.0 
467.108337 589.0 
467.378967 6.0 
467.782623 3.0 
467.785492 3.0 
468.091583 18.0 
468.111816 99.0 
469.317017 1.0 
469.319946 1.0 
469.322845 1.0 
469.418701 6.0 
469.421631 6.0 
469.462311 2.0 
469.46521 2.0 
469.471039 1.0 
469.95108 5.0 
470.006439 44.0 
470.05304 3.0 
470.055969 3.0 
470.058868 3.0 
470.122986 1.0 
470.125916 1.0 
470.140472 2.0 
470.143402 2.0 
470.414642 4.0 
470.417542 4.0 
470.762146 6.0 
470.765076 6.0 
471.095551 1.0 
471.09848 1.0 
471.247803 3.0 
471.250732 3.0 
471.253662 3.0 
471.81955 1.0 
471.822479 1.0 
471.825439 1.0 
471.828369 1.0 
471.884155 1.0 
471.887085 1.0 
471.890015 1.0 
472.13681 259.0 
472.219147 14.0 
472.377991 2.0 
472.38092 2.0 
472.383881 2.0 
472.961365 2.0 
472.964294 2.0 
472.967255 2.0 
473.141357 24.0 
473.765076 5.0 
473.770996 4.0 
474.093872 16.0 
474.325165 42.0 
474.434967 14.0 
474.437958 14.0 
475.10379 12.0 
475.10675 12.0 
475.276489 10.0 
475.27948 10.0 
476.109039 10.0 
476.450073 1.0 
476.677704 18.0 
476.725647 1.0 
476.728638 1.0 
476.731628 1.0 
476.734619 1.0 
476.73764 1.0 
476.785583 5.0 
476.788574 5.0 
477.094574 97.0 
477.118591 33.0 
477.33783 4.0 
477.34082 4.0 
477.993744 26.0 
478.135406 8.0 
478.394836 1.0 
478.397827 1.0 
478.763306 5.0 
478.766327 5.0 
479.138428 12.0 
479.289825 3.0 
479.292877 3.0 
479.295898 3.0 
480.218628 9.0 
480.568604 3.0 
480.571655 3.0 
480.574707 3.0 
480.81543 2.0 
480.821533 3.0 
481.172394 7.0 
481.456512 1.0 
481.459564 1.0 
481.462616 1.0 
481.667511 4.0 
481.670563 4.0 
481.789917 22.0 
481.845032 1.0 
481.848083 1.0 
481.918518 26.0 
482.028809 16.0 
482.145264 17.0 
482.501129 2.0 
482.507263 3.0 
482.513428 2.0 
483.103638 2.0 
483.106689 2.0 
483.294525 1.0 
483.297607 1.0 
483.30069 1.0 
483.534912 1.0 
483.537994 1.0 
484.075073 3.0 
484.078156 3.0 
484.136871 540.0 
484.319305 35.0 
484.867462 2.0 
484.870544 2.0 
484.873657 2.0 
484.87674 2.0 
484.882935 1.0 
484.886047 1.0 
485.000793 1.0 
485.003906 1.0 
485.006989 1.0 
485.010101 1.0 
485.140411 127.0 
485.709076 6.0 
485.712189 6.0 
485.715302 6.0 
485.864685 28.0 
486.478729 2.0 
486.481842 2.0 
486.778534 3.0 
486.781647 3.0 
486.844147 7.0 
486.84729 7.0 
486.850403 7.0 
486.859772 3.0 
487.300934 10.0 
487.304047 10.0 
487.30719 10.0 
487.501404 1.0 
487.504547 1.0 
487.50769 1.0 
487.592316 11.0 
487.683258 1.0 
487.686401 1.0 
487.689545 1.0 
487.692657 1.0 
487.749146 31.0 
487.752258 31.0 
487.805603 3.0 
488.490662 1.0 
488.493805 1.0 
488.496948 1.0 
488.774017 1.0 
488.777161 1.0 
489.695679 2.0 
489.698853 2.0 
489.702026 2.0 
489.708344 1.0 
490.205353 18.0 
490.221191 3.0 
490.224365 3.0 
490.227539 3.0 
490.31311 1.0 
490.316284 1.0 
490.319458 1.0 
490.322632 1.0 
490.40509 10.0 
490.408264 10.0 
490.443146 1.0 
490.44632 1.0 
490.449493 1.0 
490.582733 3.0 
490.585907 3.0 
490.773254 1.0 
490.776428 1.0 
490.779602 1.0 
491.122894 60.0 
491.402954 1.0 
491.406128 1.0 
491.409332 1.0 
491.412506 1.0 
491.453918 1.0 
491.457092 1.0 
491.460297 1.0 
491.46347 1.0 
491.664215 14.0 
492.104523 85.0 
492.126892 1.0 
492.130066 1.0 
492.13327 1.0 
492.452881 49.0 
492.776093 17.0 
492.779297 17.0 
493.10614 5.0 
493.125366 158.0 
493.256897 1.0 
493.260101 1.0 
493.263306 1.0 
493.571533 12.0 
493.574738 12.0 
493.606873 3.0 
493.89621 1.0 
494.12149 35.0 
494.163361 3.0 
494.21167 36.0 
494.250305 4.0 
494.25354 4.0 
494.769501 7.0 
494.772736 7.0 
495.105469 54.0 
495.147491 1.0 
495.639435 2.0 
495.64267 2.0 
495.872772 6.0 
495.879272 5.0 
496.135559 41.0 
496.528656 1.0 
496.531921 1.0 
496.535156 1.0 
496.61319 14.0 
496.994019 14.0 
497.01355 6.0 
497.130859 2.0 
497.134125 2.0 
497.13739 2.0 
497.156921 45.0 
497.639801 3.0 
497.643066 3.0 
497.646332 3.0 
497.888123 1.0 
497.891388 1.0 
497.894653 1.0 
498.264343 28.0 
498.267609 28.0 
498.575562 3.0 
498.578827 3.0 
498.588684 1.0 
498.591949 1.0 
498.654236 7.0 
498.657532 7.0 
498.677216 5.0 
499.084167 2.0 
499.087463 2.0 
499.679443 3.0 
499.794708 5.0 
499.798004 5.0 
500.150726 2.0 
500.986694 1.0 
500.990021 1.0 
500.993317 1.0 
501.125763 3.0 
501.129059 3.0 
501.132385 3.0 
501.135681 3.0 
501.430634 15.0 
501.483673 1.0 
501.487 1.0 
501.490326 1.0 
501.881958 1.0 
502.038116 7.0 
502.420654 1.0 
502.427307 2.0 
502.430634 2.0 
502.937164 1.0 
502.940491 1.0 
502.943817 1.0 
502.947174 1.0 
502.9505 1.0 
503.110657 98.0 
503.150726 7.0 
503.55835 4.0 
504.08725 1.0 
504.090607 1.0 
504.093933 1.0 
504.104004 2.0 
504.107361 2.0 
504.110718 2.0 
504.291748 2.0 
504.295074 2.0 
504.298431 2.0 
504.409149 7.0 
504.81546 1.0 
504.818817 1.0 
504.822174 1.0 
504.825531 1.0 
505.131561 3.0 
505.134918 3.0 
505.464874 53.0 
505.646881 1.0 
505.650269 1.0 
505.653625 1.0 
506.061951 1.0 
506.065338 1.0 
506.068695 1.0 
506.119385 34.0 
506.592743 3.0 
506.59613 3.0 
507.002563 1.0 
507.005951 1.0 
507.810638 11.0 
508.355316 1.0 
508.358734 1.0 
508.362122 1.0 
508.846527 11.0 
509.130096 46.0 
509.253174 7.0 
509.612549 18.0 
509.687897 1.0 
510.119904 13.0 
510.137054 169.0 
510.394592 1.0 
510.39801 1.0 
510.401459 1.0 
510.404907 1.0 
510.408325 1.0 
510.776184 18.0 
510.893188 1.0 
510.896637 1.0 
511.134247 50.0 
511.148041 97.0 
511.737885 1.0 
511.741333 1.0 
511.744781 1.0 
511.782776 1.0 
511.786255 1.0 
511.789703 1.0 
511.851868 7.0 
511.952087 1.0 
511.955536 1.0 
511.959015 1.0 
511.962463 1.0 
512.131897 3137.0 
512.14917 20.0 
512.156067 23.0 
512.43988 1.0 
512.443359 1.0 
512.446838 1.0 
512.450256 1.0 
512.57843 1.0 
512.581909 1.0 
512.727478 3.0 
512.730957 3.0 
512.734436 3.0 
513.084839 1.0 
513.088257 1.0 
513.091736 1.0 
513.133423 507.0 
513.23761 1.0 
513.241089 1.0 
513.244568 1.0 
513.449585 24.0 
513.505249 33.0 
513.933289 23.0 
513.936768 23.0 
514.016907 18.0 
514.882446 1.0 
514.885925 1.0 
514.889465 1.0 
514.906921 3.0 
514.9104 3.0 
514.91394 3.0 
515.092285 30.0 
515.5896 25.0 
516.509705 5.0 
516.622314 4.0 
516.625854 4.0 
517.030945 21.0 
517.521423 9.0 
517.524902 9.0 
517.864197 13.0 
517.867737 13.0 
518.108337 1.0 
518.111877 1.0 
518.21814 1.0 
518.22168 1.0 
518.22522 1.0 
518.22876 1.0 
518.664734 6.0 
518.898987 47.0 
518.923828 32.0 
518.945129 1.0 
518.948669 1.0 
518.952271 1.0 
519.065918 1.0 
519.069458 1.0 
519.072998 1.0 
519.076599 1.0 
519.080139 1.0 
519.129883 2.0 
519.133423 2.0 
519.136963 2.0 
520.219666 10.0 
520.759094 28.0 
520.812744 2.0 
520.816345 2.0 
520.819946 2.0 
520.827087 1.0 
520.930847 1.0 
520.934387 1.0 
521.202942 1.0 
521.206543 1.0 
521.353455 2.0 
521.357056 2.0 
521.360596 2.0 
521.443054 1.0 
521.446655 1.0 
522.017395 9.0 
522.020996 9.0 
522.118042 12.0 
522.136047 64.0 
522.29425 1.0 
522.297852 1.0 
522.341064 2.0 
522.344666 2.0 
522.632629 2.0 
522.63623 2.0 
522.639832 2.0 
522.704712 46.0 
523.122986 1.0 
523.148254 142.0 
523.191528 9.0 
523.216797 6.0 
523.220459 6.0 
523.303467 6.0 
523.64679 1.0 
523.650391 1.0 
523.653992 1.0 
524.131775 1820.0 
524.759277 19.0 
524.817383 2.0 
524.820984 2.0 
525.133545 351.0 
525.151733 147.0 
525.442871 15.0 
525.446472 15.0 
525.490173 1.0 
525.493835 1.0 
525.497498 1.0 
525.501099 1.0 
525.690552 12.0 
525.945801 2.0 
525.949402 2.0 
526.153809 18.0 
526.172058 1.0 
526.175659 1.0 
526.179321 1.0 
526.669067 19.0 
526.683655 1.0 
527.687927 1.0 
527.691589 1.0 
528.125244 17.0 
528.143616 3.0 
529.027954 1.0 
529.031616 1.0 
529.035278 1.0 
529.039001 1.0 
529.042664 1.0 
529.157104 106.0 
529.253174 1.0 
529.312256 1.0 
529.315979 1.0 
529.474854 3.0 
529.478577 3.0 
530.152283 7.0 
530.156006 7.0 
530.467529 28.0 
530.89093 1.0 
530.894592 1.0 
530.928101 8.0 
531.58313 1.0 
531.586853 1.0 
531.590576 1.0 
531.683777 28.0 
531.6875 28.0 
531.747131 2.0 
531.750854 2.0 
531.754578 2.0 
531.758301 2.0 
531.956055 1.0 
531.963501 2.0 
531.970947 1.0 
532.1203 11.0 
532.1427 1.0 
532.146423 1.0 
532.150146 1.0 
532.15387 1.0 
532.849426 17.0 
533.085388 5.0 
533.089172 5.0 
533.134094 12.0 
533.745789 39.0 
533.91864 1.0 
533.922424 1.0 
533.926147 1.0 
533.929932 1.0 
533.933716 1.0 
533.982544 32.0 
534.114197 424.0 
534.163147 56.0 
534.705505 4.0 
535.120544 101.0 
535.147034 17.0 
535.165894 4.0 
535.169678 4.0 
535.256531 1.0 
535.260315 1.0 
535.264099 1.0 
535.831421 3.0 
536.104187 3.0 
536.107971 3.0 
536.722717 34.0 
536.779663 6.0 
536.783508 6.0 
536.98877 4.0 
536.996338 15.0 
537.000183 15.0 
537.007751 14.0 
537.121887 1.0 
537.125671 1.0 
537.129456 1.0 
537.133301 1.0 
537.475952 1.0 
537.483521 2.0 
538.044128 9.0 
538.047974 9.0 
538.732178 1.0 
538.736023 1.0 
538.739868 1.0 
539.161194 39.0 
539.180359 2.0 
539.184204 2.0 
539.188049 2.0 
539.283936 3.0 
539.345276 3.0 
539.349121 3.0 
539.69458 3.0 
539.698425 3.0 
539.702271 3.0 
540.125122 7.0 
540.390747 3.0 
540.394592 3.0 
541.127258 20.0 
541.158142 1344.0 
541.830933 1.0 
541.834839 1.0 
542.063354 1.0 
542.0672 1.0 
542.071106 1.0 
542.074951 1.0 
542.160217 269.0 
543.029907 1.0 
543.033813 1.0 
543.037659 1.0 
543.041565 1.0 
543.045471 1.0 
543.411255 6.0 
543.46582 29.0 
543.469666 29.0 
543.520325 3.0 
543.524231 3.0 
543.528137 3.0 
543.652832 1.0 
543.656738 1.0 
545.443787 16.0 
545.447754 16.0 
545.899292 1.0 
545.903198 1.0 
545.907166 1.0 
545.911072 1.0 
545.970032 2.0 
545.977905 3.0 
546.190247 1.0 
546.194214 1.0 
546.19812 1.0 
546.962402 1.0 
546.96637 1.0 
546.970337 1.0 
547.092651 1.0 
547.1203 1.0 
547.124207 1.0 
547.128174 1.0 
547.317749 2.0 
547.321655 2.0 
547.32959 1.0 
547.535095 2.0 
547.539062 2.0 
547.542969 2.0 
547.633911 1.0 
547.713074 1.0 
547.71698 1.0 
547.720947 1.0 
548.025757 1.0 
548.029724 1.0 
548.033691 1.0 
548.037659 1.0 
548.041565 1.0 
548.17627 2.0 
549.025635 4.0 
549.101196 18.0 
549.144897 32.0 
549.307983 1.0 
549.312012 1.0 
549.315979 1.0 
549.319946 1.0 
549.873596 1.0 
549.877625 1.0 
549.881592 1.0 
549.885559 1.0 
549.889587 1.0 
550.033142 1.0 
550.03717 1.0 
550.041138 1.0 
550.045105 1.0 
550.049133 1.0 
550.15686 43.0 
550.552307 4.0 
550.65625 32.0 
550.660278 32.0 
550.780212 19.0 
550.892273 1.0 
550.896301 1.0 
550.900269 1.0 
550.904297 1.0 
551.140503 776.0 
551.537354 4.0 
551.541382 4.0 
551.754089 1.0 
551.758057 1.0 
551.77417 19.0 
552.127686 163.0 
552.147766 147.0 
552.252319 2.0 
552.256348 2.0 
552.260376 2.0 
552.578308 1.0 
552.582336 1.0 
552.586365 1.0 
553.158752 389.0 
553.356567 9.0 
553.360596 9.0 
553.627197 1.0 
553.631287 1.0 
553.76062 3.0 
553.764648 3.0 
553.768738 3.0 
554.027649 2.0 
554.031677 2.0 
554.161255 51.0 
554.189636 27.0 
554.785645 1.0 
554.789673 1.0 
554.793762 1.0 
554.797791 1.0 
554.915527 2.0 
555.134888 7.0 
555.155212 7.0 
555.82666 14.0 
555.83075 14.0 
556.222107 1.0 
556.226196 1.0 
556.230286 1.0 
556.238464 3.0 
556.242554 3.0 
556.246582 3.0 
556.671265 1.0 
556.675354 1.0 
556.679443 1.0 
556.724426 19.0 
557.707092 28.0 
557.7276 20.0 
558.092896 38.0 
558.117554 1.0 
558.125793 2.0 
558.129883 2.0 
558.133972 2.0 
558.30249 19.0 
558.335388 16.0 
558.487488 1.0 
558.491638 1.0 
558.495728 1.0 
558.553345 2.0 
558.557434 2.0 
558.561584 2.0 
559.645691 3.0 
559.649841 3.0 
559.653992 3.0 
560.895874 2.0 
560.900024 2.0 
560.904175 2.0 
560.908325 2.0 
560.912476 2.0 
561.693542 1.0 
561.697693 1.0 
561.785095 9.0 
562.034912 1.0 
562.039124 1.0 
562.043274 1.0 
562.047424 1.0 
562.134949 24.0 
562.397583 3.0 
562.401733 3.0 
562.405945 3.0 
562.410095 3.0 
562.739807 3.0 
562.743958 3.0 
562.748169 3.0 
562.815002 3.0 
562.819153 3.0 
562.873474 5.0 
563.136841 1.0 
563.140991 1.0 
564.16748 18.0 
565.020813 33.0 
565.864075 4.0 
566.028809 3.0 
566.03302 3.0 
566.037231 3.0 
566.041504 3.0 
566.045715 3.0 
566.151367 3.0 
566.176697 103.0 
566.485474 1.0 
566.489685 1.0 
566.493958 1.0 
567.133667 50.0 
567.159119 894.0 
567.256714 16.0 
567.260986 16.0 
568.132202 2.0 
568.149231 43.0 
568.170532 1045.0 
568.494263 1.0 
568.498535 1.0 
568.720215 2.0 
568.72876 3.0 
568.976257 39.0 
569.108643 22.0 
569.117188 38.0 
569.151367 17152.0 
569.202637 8.0 
569.835632 1.0 
569.839966 1.0 
569.899902 6.0 
569.904175 6.0 
570.054138 39.0 
570.156982 3699.0 
570.620361 1.0 
570.624634 1.0 
571.041443 2.0 
571.045776 2.0 
571.050049 2.0 
571.15332 15.0 
571.170532 1.0 
571.174805 1.0 
571.179138 1.0 
571.183411 1.0 
571.187683 1.0 
571.192017 1.0 
571.196289 1.0 
571.721741 1.0 
571.726013 1.0 
571.730347 1.0 
571.734619 1.0 
571.738953 1.0 
572.040894 10.0 
572.170349 27.0 
572.347412 34.0 
572.451111 1.0 
572.455444 1.0 
572.459778 1.0 
572.46405 1.0 
572.468384 1.0 
572.598083 1.0 
572.602417 1.0 
572.60675 1.0 
572.611023 1.0 
572.753784 1.0 
572.758118 1.0 
572.762451 1.0 
572.822998 3.0 
572.827332 3.0 
573.108704 4.0 
573.113037 4.0 
573.43811 2.0 
573.442444 2.0 
573.446777 2.0 
573.984985 16.0 
574.171875 14.0 
574.25885 21.0 
574.628723 1.0 
574.633118 1.0 
574.672302 2.0 
574.676636 2.0 
574.68103 2.0 
574.724548 1.0 
574.728943 1.0 
574.89447 16.0 
575.10376 1.0 
575.108154 1.0 
575.112488 1.0 
575.173584 1.0 
575.177917 1.0 
575.182312 1.0 
575.719421 5.0 
576.174377 3.0 
576.323242 5.0 
577.143494 3.0 
577.983704 3.0 
578.115906 1.0 
578.1203 1.0 
578.124695 1.0 
578.429016 45.0 
578.433411 45.0 
578.654114 32.0 
578.777771 2.0 
578.782166 2.0 
578.786621 2.0 
578.791016 2.0 
579.135803 167.0 
579.157898 20.0 
579.388 1.0 
579.396851 2.0 
579.414612 12.0 
579.777832 4.0 
579.782288 4.0 
579.786743 4.0 
579.9375 1.0 
579.94635 2.0 
579.950806 2.0 
579.9552 2.0 
580.145996 67.0 
580.177063 63.0 
580.576843 35.0 
580.692444 1.0 
580.696899 1.0 
580.701355 1.0 
580.705811 1.0 
580.710266 1.0 
581.195374 4.0 
581.199829 4.0 
581.204285 4.0 
581.20874 4.0 
581.213196 4.0 
581.337952 1.0 
581.342407 1.0 
581.346863 1.0 
581.351318 1.0 
581.601013 1.0 
581.605469 1.0 
581.609924 1.0 
581.61438 1.0 
581.618835 1.0 
582.02063 1.0 
582.025085 1.0 
582.029541 1.0 
582.034058 1.0 
582.038513 1.0 
582.042969 1.0 
582.172546 777.0 
582.239624 20.0 
583.049866 2.0 
583.054382 2.0 
583.153015 49.0 
583.157532 49.0 
583.175415 170.0 
583.687195 1.0 
583.69165 1.0 
584.163818 65.0 
584.181824 183.0 
584.681763 1.0 
584.686279 1.0 
584.690796 1.0 
584.695312 1.0 
584.699829 1.0 
584.704285 1.0 
584.708801 1.0 
584.713318 1.0 
584.717834 1.0 
585.164551 13.0 
585.187134 15.0 
585.268433 1.0 
585.272949 1.0 
585.277466 1.0 
585.281982 1.0 
585.286499 1.0 
585.598328 26.0 
585.74762 2.0 
586.037354 30.0 
586.177795 3348.0 
587.180908 626.0 
587.394653 4.0 
587.44928 4.0 
587.453796 4.0 
587.467468 6.0 
587.471985 6.0 
587.722412 1.0 
587.72699 1.0 
587.731567 1.0 
587.736084 1.0 
587.781677 50.0 
587.859131 4.0 
588.173767 13.0 
589.15625 7.0 
589.160828 7.0 
589.179138 4.0 
589.183716 4.0 
589.202026 1.0 
589.206604 1.0 
589.591431 1.0 
589.596008 1.0 
589.600586 1.0 
589.83905 8.0 
590.100708 16.0 
590.220093 25.0 
590.261475 1.0 
590.27063 2.0 
590.275208 2.0 
590.459106 4.0 
590.463684 4.0 
590.468262 4.0 
590.54187 1.0 
590.546448 1.0 
590.551025 1.0 
590.739685 8.0 
590.744263 8.0 
590.863953 2.0 
590.86853 2.0 
590.877747 1.0 
591.200256 17.0 
592.155884 55.0 
592.590881 10.0 
592.975464 1.0 
592.980103 1.0 
592.984741 1.0 
592.98938 1.0 
593.286316 1.0 
593.290955 1.0 
593.295593 1.0 
593.300232 1.0 
594.146301 47.0 
595.130188 36.0 
595.153503 19.0 
595.326416 1.0 
595.331055 1.0 
595.522766 48.0 
595.822205 1.0 
595.826904 1.0 
595.831604 1.0 
595.836304 1.0 
595.972107 10.0 
596.164185 54.0 
596.19696 1.0 
596.20166 1.0 
596.215759 1.0 
596.220398 1.0 
596.225098 1.0 
597.009033 30.0 
597.145386 321.0 
597.49823 1.0 
597.50293 1.0 
597.507629 1.0 
597.926941 2.0 
597.931702 2.0 
598.148621 46.0 
598.153381 46.0 
598.427124 1.0 
598.436584 2.0 
598.446045 1.0 
598.611389 2.0 
598.616089 2.0 
598.843018 1.0 
598.847717 1.0 
598.852478 1.0 
598.90448 7.0 
599.036987 3.0 
599.08905 2.0 
599.09375 2.0 
599.098511 2.0 
599.117432 8.0 
599.136353 50.0 
599.197937 110.0 
599.458435 2.0 
599.463196 2.0 
599.467896 2.0 
599.52002 5.0 
600.174866 5.0 
600.179626 5.0 
600.203369 13.0 
600.893005 3.0 
600.897766 3.0 
601.202637 22.0 
601.293213 8.0 
601.297974 8.0 
601.379089 1.0 
601.38385 1.0 
601.388611 1.0 
601.393372 1.0 
601.565125 1.0 
601.569885 1.0 
601.574646 1.0 
601.698792 7.0 
601.703552 7.0 
601.708313 7.0 
602.018799 2.0 
602.023621 2.0 
602.028381 2.0 
602.186157 6.0 
602.257874 7.0 
602.262695 7.0 
602.296143 6.0 
602.300964 6.0 
602.861206 8.0 
603.115295 1.0 
603.120117 1.0 
603.124878 1.0 
603.1297 1.0 
603.235229 20.0 
603.283264 27.0 
603.710693 11.0 
604.167664 2.0 
604.172485 2.0 
604.182068 1.0 
604.673523 16.0 
604.794067 1.0 
604.798889 1.0 
604.803711 1.0 
605.059509 6.0 
605.064331 6.0 
605.300964 1.0 
605.305786 1.0 
605.310608 1.0 
605.315491 1.0 
606.535583 2.0 
606.545288 1.0 
607.166931 107.0 
607.191223 6.0 
607.32251 1.0 
607.327393 1.0 
607.332214 1.0 
607.765442 13.0 
607.770325 13.0 
607.823914 11.0 
608.077393 4.0 
608.082214 4.0 
608.174927 11.0 
608.19928 75.0 
608.648438 7.0 
608.682617 3.0 
608.927002 1.0 
608.931885 1.0 
608.936768 1.0 
608.94165 1.0 
609.181396 41.0 
609.401672 38.0 
609.592712 16.0 
609.597656 16.0 
609.602539 16.0 
610.166626 50.0 
610.200989 2.0 
610.205872 2.0 
610.908875 2.0 
610.918701 1.0 
610.95813 11.0 
611.012268 3.0 
611.017151 3.0 
611.199402 102.0 
611.72699 20.0 
611.934326 28.0 
612.028137 50.0 
612.156616 32.0 
612.20105 12.0 
612.205994 12.0 
612.270264 1.0 
612.275208 1.0 
612.280151 1.0 
612.285095 1.0 
613.156433 3.0 
613.161438 3.0 
613.538452 4.0 
613.543396 4.0 
613.627808 8.0 
613.632812 8.0 
614.1745 18.0 
615.10614 1.0 
615.111145 1.0 
615.116089 1.0 
615.785461 1.0 
615.790466 1.0 
615.795471 1.0 
615.840454 29.0 
615.845459 29.0 
615.995544 1.0 
616.000549 1.0 
616.621643 1.0 
616.626709 1.0 
616.631714 1.0 
617.018066 6.0 
617.023071 6.0 
617.254089 15.0 
617.259094 15.0 
617.294312 7.0 
617.299316 7.0 
617.384766 19.0 
617.445068 2.0 
617.450134 2.0 
617.455139 2.0 
617.46521 1.0 
617.505432 108.0 
617.56073 3.0 
617.621094 2.0 
617.626099 2.0 
617.64624 8.0 
618.184998 130.0 
618.376587 3.0 
618.381592 3.0 
618.386658 3.0 
618.54303 5.0 
618.548096 5.0 
619.184448 41.0 
619.214783 16.0 
619.219849 16.0 
619.391785 1.0 
619.401917 2.0 
619.412048 1.0 
620.161804 55.0 
620.197266 10.0 
620.202332 10.0 
620.212524 9.0 
620.21759 9.0 
620.222656 9.0 
620.964172 38.0 
621.167603 11.0 
621.325378 3.0 
621.330505 3.0 
621.493469 2.0 
621.518921 8.0 
621.523987 8.0 
622.176758 1.0 
622.181885 1.0 
622.186951 1.0 
622.24823 10.0 
622.452515 1.0 
622.462769 2.0 
622.524048 1.0 
622.529175 1.0 
622.534302 1.0 
622.554749 1.0 
622.559875 1.0 
622.564941 1.0 
622.626282 4.0 
622.631409 4.0 
622.636536 4.0 
622.667175 1.0 
622.672302 1.0 
622.677429 1.0 
622.697876 4.0 
622.871765 4.0 
622.876892 4.0 
622.974121 2.0 
622.984375 3.0 
622.994629 2.0 
623.189148 10.0 
623.373596 2.0 
623.378723 2.0 
623.414551 1.0 
623.419678 1.0 
623.424805 1.0 
623.942932 4.0 
623.948059 4.0 
623.973755 1.0 
623.978882 1.0 
623.984009 1.0 
624.199707 21.0 
624.379578 3.0 
624.384766 3.0 
624.477295 1.0 
624.482422 1.0 
625.19812 28.0 
625.306396 4.0 
625.316711 3.0 
626.179016 28.0 
627.194092 609.0 
627.463989 1.0 
627.469177 1.0 
627.635376 1.0 
627.640564 1.0 
627.645752 1.0 
627.65094 1.0 
628.108459 1.0 
628.113647 1.0 
628.118835 1.0 
628.124084 1.0 
628.155273 35.0 
628.186523 60.0 
628.202087 74.0 
628.274963 27.0 
628.280151 27.0 
628.394714 54.0 
628.785522 45.0 
629.051514 1.0 
629.056763 1.0 
629.166382 4.0 
629.187256 6.0 
629.192444 6.0 
629.255127 50.0 
629.307312 45.0 
629.479736 3.0 
629.484985 3.0 
629.69928 17.0 
630.421692 39.0 
630.542297 1.0 
630.547546 1.0 
630.552734 1.0 
630.557983 1.0 
630.563232 1.0 
630.804565 18.0 
630.809814 18.0 
631.172058 13.0 
631.187805 15.0 
631.256165 1.0 
631.261414 1.0 
631.266663 1.0 
631.40332 5.0 
631.419067 9.0 
631.424316 9.0 
631.555786 1.0 
631.561096 1.0 
631.866272 1.0 
632.224548 1.0 
632.229797 1.0 
632.235046 1.0 
632.493469 4.0 
632.498718 4.0 
632.504028 4.0 
632.514587 3.0 
633.206482 17.0 
633.349243 69.0 
633.41272 5.0 
633.492126 4.0 
633.497437 4.0 
633.958191 3.0 
633.963501 3.0 
633.96875 3.0 
634.196777 15.0 
634.940186 1.0 
634.945496 1.0 
634.950806 1.0 
634.956116 1.0 
635.211426 109.0 
635.381775 30.0 
635.674744 3.0 
635.706665 1.0 
635.717346 2.0 
635.728027 4.0 
635.733337 4.0 
635.738647 4.0 
636.127991 3.0 
636.133301 3.0 
636.138672 3.0 
636.197388 645.0 
636.346863 3.0 
636.352173 3.0 
636.624634 1.0 
636.630005 1.0 
637.138123 1.0 
637.143494 1.0 
637.148865 1.0 
637.197021 204.0 
637.325562 27.0 
638.173035 831.0 
638.210632 7.0 
639.195068 248.0 
639.335205 3.0 
639.351379 3.0 
639.71814 1.0 
640.198792 64.0 
640.355591 1.0 
640.361023 1.0 
640.366394 1.0 
640.371826 1.0 
640.377258 1.0 
640.496216 3.0 
640.501648 3.0 
640.566589 1.0 
640.577393 2.0 
640.588196 1.0 
640.777649 21.0 
640.783081 21.0 
641.178589 27.0 
641.444336 2.0 
641.449768 2.0 
641.4552 2.0 
641.797241 4.0 
641.916748 31.0 
641.92218 31.0 
642.275574 2.0 
642.281067 2.0 
642.286499 2.0 
643.147156 6.0 
643.152649 6.0 
643.523804 5.0 
643.529236 5.0 
644.010193 44.0 
644.015686 44.0 
644.327576 1.0 
644.333069 1.0 
644.338501 1.0 
644.343994 1.0 
644.349487 1.0 
645.193726 69.0 
645.58374 38.0 
646.177856 251.0 
646.227417 5.0 
646.232971 5.0 
646.238464 5.0 
646.249451 2.0 
646.260498 1.0 
646.64624 37.0 
646.855835 8.0 
647.060059 9.0 
647.18158 44.0 
647.524231 18.0 
648.19397 233.0 
648.315857 2.0 
648.326965 3.0 
648.33252 3.0 
648.487732 1.0 
648.493286 1.0 
648.49884 1.0 
648.504395 1.0 
648.509949 1.0 
648.681885 4.0 
649.198364 109.0 
649.437439 5.0 
649.442993 5.0 
649.609924 28.0 
649.671143 1.0 
649.676697 1.0 
649.682251 1.0 
649.687805 1.0 
650.005249 15.0 
650.17804 4.0 
650.328613 6.0 
650.334167 6.0 
650.607544 1.0 
650.613159 1.0 
651.059998 11.0 
651.065613 11.0 
651.071228 11.0 
651.216553 133.0 
651.737122 6.0 
651.742676 6.0 
652.191101 295.0 
652.219177 16.0 
652.224792 16.0 
652.269653 51.0 
652.353821 10.0 
652.393127 2.0 
652.398743 2.0 
652.409973 1.0 
652.78064 40.0 
653.123596 13.0 
653.191101 48.0 
653.219238 261.0 
653.754211 2.0 
653.765503 3.0 
653.771179 3.0 
653.776794 3.0 
653.78241 3.0 
653.912109 73.0 
654.222351 64.0 
654.679871 4.0 
654.685547 4.0 
654.691162 4.0 
655.234253 1.0 
655.239929 1.0 
655.245605 1.0 
656.220886 16.0 
656.470825 24.0 
656.698242 1.0 
656.703918 1.0 
656.709595 1.0 
657.495422 5.0 
658.797791 31.0 
659.284607 1.0 
659.290344 1.0 
659.296082 1.0 
660.185791 1.0 
660.191528 1.0 
660.197266 1.0 
661.227722 255.0 
661.469971 34.0 
662.192017 122.0 
662.226746 51.0 
663.205505 518.0 
663.304138 2.0 
663.309937 2.0 
663.983704 7.0 
664.187256 1715.0 
664.443298 2.0 
664.449097 2.0 
664.454956 2.0 
664.460754 2.0 
664.728699 1.0 
664.734497 1.0 
664.740356 1.0 
664.816101 27.0 
664.82196 27.0 
664.839417 26.0 
665.189331 374.0 
665.335266 33.0 
665.615601 19.0 
665.638977 20.0 
665.849365 3.0 
665.861084 2.0 
665.878601 1.0 
665.88446 1.0 
666.206177 115.0 
666.92688 1.0 
666.932739 1.0 
666.938599 1.0 
666.997253 1.0 
667.003174 1.0 
667.009033 1.0 
667.014893 1.0 
667.097046 3.0 
667.102905 3.0 
667.108765 3.0 
667.208557 16.0 
667.619751 1.0 
667.62561 1.0 
667.790222 10.0 
668.219849 116.0 
668.372925 1.0 
668.384705 2.0 
668.390625 2.0 
669.222351 28.0 
669.914062 6.0 
670.559753 14.0 
670.565674 14.0 
670.737732 1.0 
670.743652 1.0 
670.749573 1.0 
670.755493 1.0 
671.046387 3.0 
671.171082 1.0 
671.177002 1.0 
671.182983 1.0 
671.848999 61.0 
672.140808 1.0 
672.146729 1.0 
672.15271 1.0 
672.21228 13.0 
672.408997 1.0 
672.414978 1.0 
672.420898 1.0 
672.599854 3.0 
672.605774 3.0 
672.611755 3.0 
673.077454 1.0 
673.735229 4.0 
673.741211 4.0 
673.992737 1.0 
673.998718 1.0 
675.854919 37.0 
676.300964 14.0 
676.403564 40.0 
676.62085 2.0 
676.626831 2.0 
676.632874 2.0 
676.989319 2.0 
676.995361 2.0 
677.001404 2.0 
677.007446 2.0 
677.019531 1.0 
677.225098 46.0 
678.163879 16.0 
678.206299 302.0 
678.558289 38.0 
679.202515 51.0 
679.239075 741.0 
679.701782 2.0 
679.707825 2.0 
679.713928 2.0 
679.720032 2.0 
680.238342 179.0 
680.751282 4.0 
681.216064 724.0 
681.546692 5.0 
681.552795 5.0 
681.84082 21.0 
682.22113 170.0 
682.307068 1.0 
682.313232 1.0 
682.319397 1.0 
682.3255 1.0 
682.4422 3.0 
683.284607 5.0 
683.290771 5.0 
683.296936 5.0 
683.42627 2.0 
683.432434 2.0 
683.438599 2.0 
683.907043 25.0 
684.215576 658.0 
684.87677 1.0 
684.882996 1.0 
684.88916 1.0 
685.180054 1.0 
685.217163 214.0 
685.607483 24.0 
686.147217 1.0 
686.153381 1.0 
686.159607 1.0 
686.165833 1.0 
688.189636 10.0 
688.289612 29.0 
688.420837 2.0 
688.427063 2.0 
688.43335 2.0 
689.384644 1.0 
689.390869 1.0 
689.397156 1.0 
689.535095 1.0 
689.541321 1.0 
689.547607 1.0 
689.553894 1.0 
690.024475 1.0 
690.030762 1.0 
690.037048 1.0 
690.785095 1.0 
690.791382 1.0 
690.797668 1.0 
691.370789 2.0 
691.377075 2.0 
691.383423 2.0 
691.389709 2.0 
691.395996 2.0 
692.659119 1.0 
692.671753 2.0 
692.678101 2.0 
692.684387 2.0 
693.235352 114.0 
693.57135 2.0 
693.584045 3.0 
693.780762 20.0 
693.787109 20.0 
694.219055 142.0 
694.893372 2.0 
694.899719 2.0 
695.046204 6.0 
695.231018 2087.0 
696.213989 2905.0 
697.218994 877.0 
697.251038 71.0 
697.55249 2.0 
697.55896 2.0 
697.565369 2.0 
697.571777 2.0 
698.368408 1.0 
698.374817 1.0 
698.381226 1.0 
698.542053 13.0 
699.005676 3.0 
699.012146 3.0 
699.018616 3.0 
699.224854 160.0 
699.321594 4.0 
699.328003 4.0 
699.334473 4.0 
699.405396 6.0 
699.637756 1.0 
699.644165 1.0 
699.650635 1.0 
699.760376 1.0 
699.766846 1.0 
699.773315 1.0 
699.779785 1.0 
699.786255 1.0 
699.792664 1.0 
699.799133 1.0 
699.805603 1.0 
699.812073 1.0 
699.818542 1.0 
699.824951 1.0 
699.8573 1.0 
699.863708 1.0 
699.870178 1.0 
700.232117 39.0 
700.678528 2.0 
700.684998 2.0 
700.697937 1.0 
701.099609 1.0 
701.106079 1.0 
701.11261 1.0 
701.430359 14.0 
701.436829 14.0 
701.4823 29.0 
701.664001 3.0 
701.670532 3.0 
702.75647 1.0 
702.763 1.0 
702.789001 15.0 
702.795532 15.0 
703.114868 1.0 
703.127869 2.0 
703.14093 1.0 
703.219177 5.0 
703.284424 34.0 
703.708618 11.0 
704.205261 8.0 
705.06958 57.0 
705.213806 337.0 
705.863708 1.0 
705.8703 1.0 
705.876831 1.0 
706.198975 591.0 
706.78479 1.0 
706.791382 1.0 
706.797974 1.0 
706.870422 1.0 
707.200012 162.0 
708.17749 32.0 
708.276733 5.0 
708.389221 1.0 
708.409058 4.0 
708.6474 6.0 
708.885864 55.0 
709.98761 7.0 
709.994263 7.0 
710.087341 33.0 
711.086182 2.0 
711.246216 577.0 
711.346313 6.0 
711.352966 6.0 
711.466431 1.0 
711.473145 1.0 
711.479797 1.0 
711.519836 9.0 
711.52655 9.0 
712.214844 54.0 
712.248291 134.0 
712.415588 3.0 
712.422302 3.0 
713.199524 42.0 
713.239807 9772.0 
713.810486 10.0 
713.8172 10.0 
714.247498 2517.0 
717.375977 4.0 
717.382751 4.0 
717.817322 1.0 
717.824158 1.0 
717.830933 1.0 
717.837708 1.0 
718.12323 1.0 
718.130066 1.0 
718.136841 1.0 
719.233459 1.0 
719.247131 2.0 
719.253967 2.0 
719.267578 1.0 
719.888977 1.0 
719.895813 1.0 
719.902649 1.0 
719.909485 1.0 
720.477173 1.0 
720.484009 1.0 
720.490845 1.0 
721.230957 520.0 
722.233887 155.0 
722.860352 2.0 
722.867249 2.0 
722.874146 2.0 
722.881042 2.0 
723.191284 82.0 
723.225769 7576.0 
723.267151 7.0 
723.867798 12.0 
724.227295 1784.0 
725.210815 44.0 
725.474487 9.0 
725.613342 4.0 
725.620239 4.0 
725.634155 3.0 
726.162231 28.0 
726.544922 2.0 
726.55188 2.0 
726.558838 2.0 
726.565796 2.0 
726.955872 3.0 
727.130127 1.0 
727.137085 1.0 
727.144043 1.0 
727.604553 3.0 
727.611511 3.0 
727.61853 3.0 
728.82135 2.0 
728.828369 2.0 
728.835388 2.0 
728.842346 2.0 
729.431274 1.0 
729.438293 1.0 
729.445312 1.0 
730.126587 1.0 
730.133606 1.0 
730.140625 1.0 
730.147705 1.0 
731.627075 50.0 
732.559998 17.0 
732.609558 2.0 
732.616638 2.0 
732.623718 2.0 
732.630798 2.0 
733.537903 5.0 
733.544983 5.0 
734.233948 2.0 
734.241089 2.0 
734.248169 2.0 
734.25531 2.0 
734.26239 2.0 
734.931335 2.0 
734.938477 2.0 
734.945557 2.0 
735.515869 2.0 
735.52301 2.0 
735.530151 2.0 
735.537292 2.0 
736.787903 8.0 
736.795105 8.0 
737.332397 46.0 
737.361084 1.0 
737.375427 2.0 
737.389771 1.0 
740.016296 3.0 
740.02356 3.0 
740.623413 1.0 
740.630676 1.0 
740.637878 1.0 
741.333008 33.0 
742.414429 19.0 
742.734375 14.0 
742.741638 14.0 
743.579224 3.0 
743.586548 3.0 
743.739685 7.0 
743.746948 7.0 
743.783447 1.0 
743.79071 1.0 
743.798035 1.0 
743.805359 1.0 
744.141113 22.0 
744.148376 22.0 
744.462524 12.0 
744.586792 3.0 
744.594116 3.0 
744.60144 3.0 
744.711121 30.0 
745.325989 1.0 
745.340637 2.0 
745.347961 2.0 
746.184082 3.0 
746.191406 3.0 
746.242798 5.0 
746.272156 1.0 
746.279541 1.0 
746.286865 1.0 
746.294189 1.0 
746.345642 1.0 
746.352966 1.0 
746.360291 1.0 
746.367676 1.0 
747.655457 13.0 
748.393372 38.0 
748.992065 1.0 
749.295532 5.0 
749.302917 5.0 
749.354797 1.0 
749.362183 1.0 
749.369568 1.0 
749.636292 2.0 
749.643677 2.0 
749.651062 2.0 
751.441406 7.0 
751.456299 6.0 
752.679504 1.0 
752.687012 1.0 
752.716858 38.0 
753.382446 2.0 
753.389954 2.0 
753.3974 2.0 
754.897461 9.0 
755.220703 31.0 
755.318542 3.0 
755.32605 3.0 
755.341064 2.0 
755.371216 10.0 
756.426086 13.0 
756.83374 1.0 
756.848877 2.0 
756.871521 2.0 
756.879089 2.0 
756.886658 2.0 
756.901733 1.0 
757.574768 1.0 
757.582336 1.0 
757.589905 1.0 
757.620178 1.0 
757.627747 1.0 
757.635315 1.0 
757.642883 1.0 
757.741272 2.0 
757.74884 2.0 
757.756409 2.0 
758.332336 1.0 
758.339905 1.0 
758.643372 1.0 
758.651001 1.0 
758.658569 1.0 
758.757263 1.0 
758.764832 1.0 
758.772461 1.0 
758.780029 1.0 
758.977478 37.0 
759.433533 27.0 
759.441162 27.0 
759.509644 19.0 
759.517212 19.0 
759.86731 3.0 
759.874939 3.0 
759.882568 3.0 
759.890198 3.0 
759.905396 1.0 
759.913025 1.0 
760.644775 19.0 
760.652405 19.0 
760.660034 19.0 
761.821594 4.0 
761.829285 4.0 
761.852234 2.0 
763.040466 7.0 
763.048157 7.0 
763.117249 7.0 
763.217102 6.0 
763.224792 6.0 
764.255554 1.0 
764.263245 1.0 
764.355652 1.0 
764.363403 1.0 
764.371094 1.0 
764.378784 1.0 
764.386475 1.0 
764.602295 5.0 
764.609985 5.0 
765.458984 49.0 
765.528564 3.0 
765.783691 1.0 
765.791382 1.0 
765.799133 1.0 
765.806885 1.0 
765.814636 1.0 
765.899719 4.0 
766.736084 3.0 
766.743835 3.0 
766.751587 3.0 
766.87561 1.0 
766.883362 1.0 
766.891174 1.0 
766.898926 1.0 
766.906677 1.0 
768.663513 3.0 
768.671326 3.0 
768.679138 3.0 
769.084534 13.0 
770.874939 27.0 
773.177856 3.0 
773.18573 3.0 
773.682739 5.0 
773.690613 5.0 
774.520386 1.0 
774.528259 1.0 
774.900269 1.0 
774.908203 1.0 
774.916138 1.0 
775.645325 20.0 
776.598572 3.0 
776.606506 3.0 
776.614502 3.0 
776.717896 3.0 
776.72583 3.0 
777.044189 1.0 
777.052185 1.0 
777.068115 2.0 
777.084045 1.0 
778.048767 2.0 
778.056763 2.0 
778.064758 2.0 
778.456116 1.0 
778.464111 1.0 
778.472107 1.0 
779.504395 1.0 
779.512451 1.0 
779.520447 1.0 
779.528442 1.0 
780.065735 3.0 
780.989624 2.0 
780.997681 2.0 
781.786743 2.0 
781.7948 2.0 
781.802856 2.0 
781.810913 2.0 
782.085083 18.0 
782.197998 1.0 
782.206116 1.0 
782.214172 1.0 
782.302917 35.0 
783.256409 1.0 
783.264526 1.0 
783.272583 1.0 
783.904175 9.0 
784.074402 3.0 
784.959045 12.0 
785.259827 5.0 
785.552673 23.0 
785.739868 34.0 
787.33075 4.0 
788.640869 1.0 
788.649048 1.0 
788.657227 1.0 
789.166138 7.0 
789.708557 1.0 
789.716736 1.0 
789.724976 1.0 
790.144653 3.0 
790.152893 3.0 
790.465881 1.0 
790.474121 1.0 
790.482361 1.0 
790.820374 36.0 
791.23291 31.0 
791.521973 19.0 
791.951843 2.0 
791.960144 2.0 
791.968384 2.0 
791.976685 2.0 
791.984924 2.0 
792.100769 1.0 
792.109009 1.0 
792.11731 1.0 
792.125549 1.0 
792.33252 1.0 
792.340759 1.0 
792.34906 1.0 
792.357361 1.0 
792.365601 1.0 
793.318909 3.0 
793.327209 3.0 
793.33551 3.0 
793.43512 16.0 
793.717468 1.0 
793.73407 2.0 
793.750732 1.0 
794.116455 46.0 
794.848938 14.0 
796.91217 1.0 
796.928955 2.0 
796.945679 1.0 
797.490479 4.0 
797.523987 1.0 
797.53241 1.0 
798.557068 1.0 
798.56543 1.0 
798.573853 1.0 
798.582275 1.0 
798.590698 1.0 
799.466309 1.0 
799.474731 1.0 
799.483154 1.0 
799.491577 1.0 
799.871094 1.0 
800.808716 4.0 
800.817139 4.0 
801.011719 1.0 
801.020142 1.0 
801.028625 1.0 
802.138611 2.0 
802.741516 5.0 
802.75 5.0 
802.996521 1.0 
803.005066 1.0 
803.490051 37.0 
803.600708 33.0 
804.069397 1.0 
804.077881 1.0 
804.086426 1.0 
804.103455 2.0 
804.120544 1.0 
804.137573 2.0 
804.146118 2.0 
804.154663 2.0 
804.248474 1.0 
804.257019 1.0 
804.274048 2.0 
804.282593 2.0 
804.291138 2.0 
804.384949 1.0 
804.393494 1.0 
804.402039 1.0 
804.478821 1.0 
804.487366 1.0 
804.495911 1.0 
804.991211 1.0 
805.008301 2.0 
805.025391 3.0 
805.033936 3.0 
805.051086 2.0 
805.247681 1.0 
805.256226 1.0 
805.264771 1.0 
805.401611 5.0 
805.624084 5.0 
806.172241 1.0 
806.180786 1.0 
806.300842 2.0 
806.317993 1.0 
806.686829 6.0 
807.545898 1.0 
807.554504 1.0 
807.563049 1.0 
808.432617 5.0 
808.639526 37.0 
809.096802 5.0 
809.105469 5.0 
809.131348 4.0 
809.139954 4.0 
809.148621 4.0 
809.157227 4.0 
809.165894 4.0 
809.788025 1.0 
809.796692 1.0 
809.805359 1.0 
809.813965 1.0 
810.160034 22.0 
810.229309 4.0 
810.237976 4.0 
810.246643 4.0 
810.497742 1.0 
810.506409 1.0 
810.515076 1.0 
810.991821 2.0 
811.000549 2.0 
811.017883 1.0 
811.260803 38.0 
812.042664 6.0 
812.878357 7.0 
812.887085 7.0 
812.913208 1.0 
813.026489 1.0 
813.043945 2.0 
813.052673 2.0 
813.279358 2.0 
813.296814 3.0 
813.768127 2.0 
813.776855 2.0 
813.785583 2.0 
814.178772 1.0 
814.1875 1.0 
814.196289 1.0 
814.607361 1.0 
814.616089 1.0 
814.624878 1.0 
814.633606 1.0 
814.992554 19.0 
815.816772 1.0 
815.825562 1.0 
815.83429 1.0 
816.291016 8.0 
816.800964 1.0 
816.809753 1.0 
816.818542 1.0 
816.827332 1.0 
816.836182 1.0 
816.844971 1.0 
816.85376 1.0 
817.012146 2.0 
817.020996 2.0 
817.029785 2.0 
817.038574 2.0 
817.065002 1.0 
817.073792 1.0 
817.293945 1.0 
817.302734 1.0 
817.311584 1.0 
817.320374 1.0 
817.329163 1.0 
818.016907 9.0 
818.290527 1.0 
818.299377 1.0 
818.308228 1.0 
818.317017 1.0 
818.325867 1.0 
819.829895 1.0 
819.838745 1.0 
821.214905 21.0 
821.829041 1.0 
821.837952 1.0 
821.846863 1.0 
824.411133 1.0 
824.420105 1.0 
824.429077 1.0 
825.452148 2.0 
825.461121 2.0 
825.470154 2.0 
825.479126 2.0 
825.488098 2.0 
825.49707 2.0 
825.506104 2.0 
825.775757 3.0 
825.784729 3.0 
826.279663 1.0 
826.288635 1.0 
826.297668 1.0 
826.306641 1.0 
826.802185 1.0 
828.563843 1.0 
828.572876 1.0 
828.581909 1.0 
828.591003 1.0 
828.926086 1.0 
828.935181 1.0 
828.944214 1.0 
828.953308 1.0 
829.9422 27.0 
831.653442 1.0 
832.758545 28.0 
833.353394 1.0 
833.362549 1.0 
833.371704 1.0 
833.380859 1.0 
834.279419 13.0 
834.922424 1.0 
834.93158 1.0 
834.940796 1.0 
835.161499 3.0 
835.170654 3.0 
835.179871 3.0 
835.189087 3.0 
835.520386 1.0 
835.529541 1.0 
835.538757 1.0 
836.303589 16.0 
838.022644 22.0 
838.374695 1.0 
838.383972 1.0 
838.39325 1.0 
840.158142 40.0 
840.446838 26.0 
840.744995 17.0 
840.978088 5.0 
841.39801 5.0 
841.407349 5.0 
842.604065 3.0 
842.613403 3.0 
842.725769 1.0 
842.735168 1.0 
842.828857 1.0 
842.838196 1.0 
842.847534 1.0 
844.245728 1.0 
844.255127 1.0 
844.264526 1.0 
844.273926 1.0 
844.283325 1.0 
845.57312 1.0 
847.093872 3.0 
847.103333 3.0 
847.842102 38.0 
851.851868 1.0 
851.861389 1.0 
852.819458 6.0 
853.846924 2.0 
853.856567 2.0 
853.86615 2.0 
855.957642 1.0 
855.967346 1.0 
855.97699 1.0 
855.986633 1.0 
857.913818 3.0 
857.923523 3.0 
859.528015 1.0 
859.537781 1.0 
859.547546 1.0 
859.557251 1.0 
859.567017 1.0 
860.288635 2.0 
860.298401 2.0 
860.317932 1.0 
860.327698 1.0 
861.422302 43.0 
863.609985 1.0 
863.6297 2.0 
863.639526 2.0 
863.97406 2.0 
863.993774 1.0 
866.075867 1.0 
866.085754 1.0 
866.095642 1.0 
866.10553 1.0 
866.986877 3.0 
866.996765 3.0 
867.006653 3.0 
867.760742 2.0 
867.820312 32.0 
868.038879 38.0 
868.516052 28.0 
869.402283 1.0 
869.412231 1.0 
869.422241 1.0 
870.350281 10.0 
870.460144 1.0 
870.470154 1.0 
870.480164 1.0 
871.170166 1.0 
871.350342 7.0 
871.48053 14.0 
871.520569 1.0 
871.53064 1.0 
871.540649 1.0 
871.580688 6.0 
871.590698 6.0 
871.670898 57.0 
872.834717 2.0 
872.844788 2.0 
872.854797 2.0 
874.596436 3.0 
874.606506 3.0 
874.616577 3.0 
874.808289 71.0 
874.919312 1.0 
874.949646 4.0 
874.959717 4.0 
875.010193 9.0 
875.363708 5.0 
875.37384 5.0 
875.555786 125.0 
877.409668 2.0 
877.419861 2.0 
877.876953 26.0 
878.354858 1.0 
878.365051 1.0 
878.375183 1.0 
878.385376 1.0 
878.507507 1.0 
878.5177 1.0 
878.527832 1.0 
878.538025 1.0 
880.598877 35.0 
882.186768 10.0 
882.197021 10.0 
882.289429 38.0 
882.525574 1.0 
882.535889 1.0 
882.546143 1.0 
882.556396 1.0 
882.566711 1.0 
882.628296 3.0 
882.638611 3.0 
882.967468 46.0 
883.399475 37.0 
886.280151 12.0 
886.290466 12.0 
888.658569 1.0 
889.044067 45.0 
889.836975 18.0 
890.098083 2.0 
890.108521 2.0 
890.118958 2.0 
890.505737 7.0 
891.699463 7.0 
895.109802 8.0 
895.120361 8.0 
895.13092 8.0 
895.1521 8.0 
895.173218 4.0 
895.183777 4.0 
895.268311 1.0 
895.27887 1.0 
895.28949 1.0 
895.458618 3.0 
895.479736 2.0 
896.008789 5.0 
896.337158 19.0 
897.419128 6.0 
897.429749 6.0 
898.823242 51.0 
898.833862 51.0 
899.142944 2.0 
899.153625 2.0 
899.516235 4.0 
900.060791 1.0 
900.071472 1.0 
900.082153 1.0 
900.23175 2.0 
900.242432 2.0 
900.253113 2.0 
901.644653 15.0 
901.955688 1.0 
901.977112 2.0 
901.987854 2.0 
902.417236 4.0 
902.793213 1.0 
903.653931 3.0 
904.278931 4.0 
904.289673 4.0 
904.732056 1.0 
904.753662 2.0 
904.764404 2.0 
904.786011 1.0 
904.904785 3.0 
904.915588 3.0 
905.693787 17.0 
905.70459 17.0 
906.213318 1.0 
906.224121 1.0 
906.234924 1.0 
907.19989 2.0 
907.210693 2.0 
907.221558 2.0 
907.373535 2.0 
907.384399 2.0 
907.395264 2.0 
907.406128 2.0 
907.536438 2.0 
907.547302 2.0 
907.558167 2.0 
907.666809 2.0 
907.677673 2.0 
907.688538 2.0 
908.373535 9.0 
908.710999 2.0 
908.721863 2.0 
908.732788 2.0 
908.754517 1.0 
908.776306 2.0 
908.798096 3.0 
911.638794 1.0 
911.649719 1.0 
911.660706 1.0 
911.671631 1.0 
912.110291 21.0 
912.461487 4.0 
912.472473 4.0 
912.483459 4.0 
912.516418 1.0 
912.780029 2.0 
912.791016 2.0 
912.802002 2.0 
914.629578 13.0 
914.640625 13.0 
914.77301 19.0 
915.347229 52.0 
915.468811 7.0 
915.479858 7.0 
916.519958 34.0 
917.029785 2.0 
917.040894 2.0 
917.051941 2.0 
917.61792 29.0 
919.877563 10.0 
919.888733 10.0 
920.234802 1.0 
920.245972 1.0 
920.257141 1.0 
920.268311 1.0 
920.27948 1.0 
920.983643 1.0 
920.994812 1.0 
921.005981 1.0 
921.017151 1.0 
921.028381 1.0 
921.274536 26.0 
922.743103 3.0 
922.754333 3.0 
922.765564 3.0 
922.810486 1.0 
922.821716 1.0 
922.832947 1.0 
922.844177 1.0 
922.91156 2.0 
922.934021 3.0 
922.945251 3.0 
923.125061 1.0 
923.136292 1.0 
923.147522 1.0 
923.158752 1.0 
923.844788 3.0 
925.332886 2.0 
925.344177 2.0 
925.355469 2.0 
925.36676 2.0 
925.378052 2.0 
925.389343 2.0 
925.468384 1.0 
925.479675 1.0 
925.524902 4.0 
926.508667 1.0 
926.52002 1.0 
926.531311 1.0 
926.542664 1.0 
926.553955 1.0 
927.721558 22.0 
928.107605 26.0 
928.198486 35.0 
928.687256 34.0 
930.96759 1.0 
930.979004 1.0 
930.990417 1.0 
931.139038 43.0 
931.665283 3.0 
931.676758 3.0 
931.71106 1.0 
931.722534 1.0 
932.742493 4.0 
932.753967 4.0 
932.765442 4.0 
933.868225 1.0 
933.8797 1.0 
933.891235 1.0 
934.489685 2.0 
934.501221 2.0 
934.512695 2.0 
934.524231 2.0 
936.243408 2.0 
936.254944 2.0 
936.266541 2.0 
936.5672 1.0 
936.578735 1.0 
936.590332 1.0 
937.122742 4.0 
937.134338 4.0 
937.250122 3.0 
937.273315 2.0 
939.293396 1.0 
939.305054 1.0 
939.316711 1.0 
939.328308 1.0 
939.339966 1.0 
940.609985 7.0 
940.621643 7.0 
940.633301 7.0 
941.719727 46.0 
942.410217 11.0 
943.488953 15.0 
945.47699 1.0 
945.488831 1.0 
945.50061 1.0 
945.51239 1.0 
945.59491 2.0 
945.606689 2.0 
945.618469 2.0 
946.031372 1.0 
946.054993 2.0 
946.078613 1.0 
946.161255 8.0 
946.173035 8.0 
947.236755 1.0 
947.260437 2.0 
947.284119 1.0 
947.520813 36.0 
947.532654 36.0 
947.674744 34.0 
948.5401 3.0 
948.552002 3.0 
948.563843 3.0 
948.872437 3.0 
948.884338 3.0 
948.896179 3.0 
949.311951 1.0 
949.323853 1.0 
949.335754 1.0 
949.704285 13.0 
951.074097 4.0 
951.467896 3.0 
951.479858 3.0 
951.682861 4.0 
951.694763 4.0 
951.706726 4.0 
952.316284 21.0 
952.579468 2.0 
952.591431 2.0 
952.603394 2.0 
952.914673 10.0 
953.010437 20.0 
955.026855 5.0 
955.36377 10.0 
955.375793 10.0 
955.712952 1.0 
955.724976 1.0 
955.737 1.0 
956.641296 5.0 
956.653381 5.0 
957.813416 9.0 
957.8255 9.0 
958.346008 3.0 
958.576172 34.0 
958.624634 10.0 
958.733704 35.0 
958.74585 35.0 
958.830688 18.0 
958.939819 241.0 
959.012573 8.0 
959.024719 8.0 
959.146057 30.0 
959.158142 30.0 
959.473694 9.0 
959.704407 2.0 
959.716553 2.0 
959.728699 2.0 
959.789429 8.0 
960.555359 6.0 
960.567566 6.0 
961.273804 5.0 
961.286011 5.0 
961.773682 29.0 
962.383972 3.0 
962.396179 3.0 
962.408386 3.0 
963.680359 16.0 
964.207275 2.0 
964.219543 2.0 
965.041687 7.0 
965.127686 16.0 
965.939087 47.0 
966.037537 12.0 
966.369934 1.0 
966.382202 1.0 
966.394531 1.0 
967.0354 1.0 
967.047729 1.0 
967.072388 2.0 
967.084717 2.0 
968.146545 1.0 
968.158936 1.0 
968.171265 1.0 
968.270203 9.0 
968.34436 5.0 
968.35675 5.0 
970.413818 1.0 
970.42627 1.0 
970.43866 1.0 
970.538025 7.0 
971.0849 37.0 
971.931274 2.0 
971.943726 2.0 
971.956177 2.0 
971.968628 2.0 
971.99353 1.0 
972.006042 1.0 
972.192932 1.0 
973.528442 1.0 
973.540955 1.0 
973.553406 1.0 
973.953552 1.0 
973.966064 1.0 
973.978577 1.0 
973.991089 1.0 
974.003601 1.0 
974.241333 32.0 
976.436707 6.0 
978.452576 1.0 
978.46521 1.0 
978.907288 3.0 
978.919922 3.0 
978.932556 3.0 
979.084229 1.0 
979.096863 1.0 
979.109497 1.0 
979.122131 1.0 
979.134827 1.0 
982.483887 1.0 
982.496643 1.0 
982.509338 1.0 
982.955078 3.0 
982.967834 3.0 
982.980591 3.0 
983.197266 7.0 
983.210022 7.0 
984.882874 1.0 
984.89563 1.0 
984.908447 1.0 
985.061951 2.0 
985.074768 2.0 
985.087585 2.0 
985.343567 46.0 
985.766235 1.0 
985.779053 1.0 
985.79187 1.0 
986.099548 1.0 
986.112366 1.0 
986.125183 1.0 
986.484375 24.0 
988.052551 1.0 
988.078308 2.0 
989.367432 25.0 
989.690247 5.0 
989.703186 5.0 
990.608215 42.0 
992.631104 5.0 
992.644043 5.0 
993.619568 43.0 
993.840942 34.0 
994.283997 1.0 
994.297058 1.0 
994.375305 3.0 
994.388306 3.0 
994.401367 3.0 
994.74054 2.0 
994.75354 2.0 
994.766602 2.0 
994.779663 2.0 
995.001587 21.0 
995.746277 12.0 
996.164917 8.0 
996.623108 46.0 
996.675537 50.0 
996.911377 19.0 
996.976929 1.0 
996.98999 1.0 
997.003113 1.0 
997.055542 6.0 
997.304688 29.0 
997.97406 18.0 
998.999573 1.0 
999.262878 2.0 
999.276062 2.0 
999.289185 2.0 
999.315552 1.0 
1000.343811 2.0 
1000.356995 2.0 
1000.370178 2.0 
1000.607788 1.0 
1000.620972 1.0 
1000.634216 1.0 
1002.313904 44.0 
1002.963501 1.0 
1002.976807 1.0 
1002.990051 1.0 
1003.003296 1.0 
1003.096191 2.0 
1004.291809 3.0 
1004.305115 3.0 
1004.31842 3.0 
1004.478088 1.0 
1004.491394 1.0 
1004.5047 1.0 
1004.518005 1.0 
1004.531311 1.0 
1005.663696 18.0 
1006.290894 1.0 
1006.30426 1.0 
1006.317627 1.0 
1006.371033 4.0 
1007.146301 2.0 
1007.159668 2.0 
1007.173035 2.0 
1007.186401 2.0 
1007.213135 2.0 
1007.226562 2.0 
1007.520935 2.0 
1007.922729 14.0 
1008.029907 3.0 
1008.083496 3.0 
1008.096924 3.0 
1008.123718 2.0 
1008.713745 53.0 
1009.103027 4.0 
1009.116455 4.0 
1009.129883 4.0 
1009.170166 1.0 
1009.39856 1.0 
1009.411987 1.0 
1009.425415 1.0 
1011.566406 4.0 
1012.836487 21.0 
1013.025879 1.0 
1013.039429 1.0 
1013.052979 1.0 
1013.066528 1.0 
1015.41333 34.0 
1016.993042 6.0 
1017.006653 6.0 
1017.252258 3.0 
1017.265869 3.0 
1017.675476 2.0 
1017.689087 2.0 
1017.702759 2.0 
1018.440857 3.0 
1018.454529 3.0 
1018.468201 3.0 
1020.167236 5.0 
1020.180969 5.0 
1020.551636 1.0 
1020.565369 1.0 
1020.579102 1.0 
1020.592834 1.0 
1020.606567 1.0 
1020.620361 1.0 
1021.76178 1.0 
1021.775513 1.0 
1021.789307 1.0 
1021.80304 1.0 
1023.319885 1.0 
1023.333679 1.0 
1024.27356 6.0 
1024.287476 6.0 
1025.145996 1.0 
1025.15979 1.0 
1025.173706 1.0 
1025.742188 3.0 
1027.716309 59.0 
1028.24585 3.0 
1028.44104 1.0 
1028.454956 1.0 
1028.468994 1.0 
1028.48291 1.0 
1028.720093 2.0 
1028.734009 2.0 
1028.761963 1.0 
1028.873657 1.0 
1028.887573 1.0 
1028.901611 1.0 
1029.446289 40.0 
1029.614014 34.0 
1029.628052 34.0 
1031.266357 6.0 
1031.280396 6.0 
1031.448608 45.0 
1031.560913 2.0 
1031.574951 2.0 
1031.588989 2.0 
1031.743408 2.0 
1031.771484 1.0 
1032.952026 12.0 
1032.966064 12.0 
1034.135376 1.0 
1034.149414 1.0 
1034.163574 1.0 
1035.180054 25.0 
1036.255127 3.0 
1036.269287 3.0 
1036.722656 19.0 
1037.403442 1.0 
1037.417603 1.0 
1037.431763 1.0 
1037.446045 1.0 
1038.468872 1.0 
1038.483154 1.0 
1038.497314 1.0 
1038.611206 1.0 
1038.625366 1.0 
1038.639648 1.0 
1038.653809 1.0 
1038.668091 1.0 
1038.682251 1.0 
1038.952637 3.0 
1038.966919 3.0 
1038.981201 3.0 
1040.649414 39.0 
1041.349609 4.0 
1041.363892 4.0 
1041.549805 27.0 
1042.165405 3.0 
1042.179688 3.0 
1042.19397 3.0 
1042.796021 4.0 
1042.810303 4.0 
1043.671387 3.0 
1043.685791 3.0 
1043.700195 3.0 
1044.706665 18.0 
1044.721069 18.0 
1044.807495 5.0 
1044.821899 5.0 
1044.980225 1.0 
1044.994629 1.0 
1045.009033 1.0 
1045.513306 7.0 
1045.52771 7.0 
1046.378906 6.0 
1046.393311 6.0 
1046.407837 6.0 
1047.361694 8.0 
1047.376221 8.0 
1048.071045 5.0 
1048.085449 5.0 
1048.099976 5.0 
1048.157959 13.0 
1048.317383 2.0 
1048.36084 4.0 
1048.375244 4.0 
1049.754028 38.0 
1050.481201 45.0 
1051.57373 24.0 
1052.434814 10.0 
1052.449341 10.0 
1052.507812 1.0 
1052.522461 1.0 
1053.268066 2.0 
1053.282593 2.0 
1053.31189 1.0 
1054.043945 2.0 
1054.058594 2.0 
1058.561157 7.0 
1058.575928 7.0 
1059.626221 3.0 
1060.307739 1.0 
1060.32251 1.0 
1060.337402 1.0 
1060.352173 1.0 
1060.367065 1.0 
1060.381836 1.0 
1061.183105 26.0 
1062.149292 19.0 
1062.164185 19.0 
1062.312988 1.0 
1062.327881 1.0 
1062.342773 1.0 
1062.62561 1.0 
1062.640503 1.0 
1063.13208 1.0 
1063.161987 2.0 
1063.17688 2.0 
1065.118164 1.0 
1065.133179 1.0 
1065.148071 1.0 
1065.612061 2.0 
1065.64209 3.0 
1065.671997 2.0 
1066.166504 24.0 
1066.391357 7.0 
1068.886597 4.0 
1068.916748 3.0 
1068.977051 3.0 
1068.992065 3.0 
1070.803467 10.0 
1071.075684 1.0 
1071.09082 1.0 
1071.105957 1.0 
1071.121094 1.0 
1073.532227 41.0 
1073.547363 41.0 
1075.725098 39.0 
1075.801514 15.0 
1075.816772 15.0 
1076.427612 11.0 
1076.442871 11.0 
1080.907959 6.0 
1080.92334 6.0 
1081.416626 1.0 
1081.432007 1.0 
1081.44751 1.0 
1082.095581 6.0 
1082.111084 6.0 
1082.667236 7.0 
1084.649414 1.0 
1084.664917 1.0 
1084.680542 1.0 
1084.696045 1.0 
1085.161621 3.0 
1085.192749 2.0 
1086.125366 52.0 
1089.71521 1.0 
1089.74646 2.0 
1089.777832 1.0 
1090.420288 1.0 
1090.498657 16.0 
1090.702637 1.0 
1090.718262 1.0 
1090.734009 1.0 
1090.749634 1.0 
1091.079224 2.0 
1091.110718 3.0 
1091.14209 2.0 
1093.328857 4.0 
1093.94397 4.0 
1093.959717 4.0 
1093.991333 3.0 
1094.164917 12.0 
1094.180786 12.0 
1095.160522 1.0 
1095.17627 1.0 
1095.192139 1.0 
1095.318604 8.0 
1095.334473 8.0 
1097.569824 2.0 
1097.633423 7.0 
1099.479492 2.0 
1099.495483 2.0 
1099.511475 2.0 
1099.527344 2.0 
1100.852173 1.0 
1100.868164 1.0 
1100.884155 1.0 
1101.411865 12.0 
1102.773315 1.0 
1102.789307 1.0 
1102.96582 1.0 
1103.062012 47.0 
1103.929199 1.0 
1103.99353 43.0 
1106.232178 2.0 
1106.248291 2.0 
1106.442017 6.0 
1106.45813 6.0 
1106.910278 1.0 
1106.926514 1.0 
1106.942627 1.0 
1106.958862 1.0 
1107.298218 48.0 
1107.395264 24.0 
1107.476196 15.0 
1107.573242 2.0 
1107.589355 2.0 
1107.605591 2.0 
1107.621704 2.0 
1108.2854 8.0 
1108.398804 2.0 
1108.431274 3.0 
1109.193237 5.0 
1109.209473 5.0 
1109.875122 4.0 
1110.248901 2.0 
1110.265137 2.0 
1112.007202 2.0 
1112.02356 2.0 
1112.056152 3.0 
1112.088745 2.0 
1113.640259 6.0 
1114.180298 28.0 
1115.376587 2.0 
1115.393066 2.0 
1115.409424 2.0 
1115.507935 2.0 
1115.540649 3.0 
1117.06897 1.0 
1117.085449 1.0 
1118.88208 3.0 
1118.89856 3.0 
1118.915039 3.0 
1118.94812 1.0 
1119.939575 1.0 
1119.956177 1.0 
1119.972656 1.0 
1120.088501 1.0 
1120.105103 1.0 
1120.121582 1.0 
1120.138184 1.0 
1120.154663 1.0 
1121.861572 1.0 
1122.376343 1.0 
1122.392944 1.0 
1122.874878 33.0 
1125.391235 2.0 
1125.407959 2.0 
1125.424683 2.0 
1125.45813 1.0 
1126.042969 76.0 
1126.695557 2.0 
1126.71228 2.0 
1126.729004 2.0 
1126.745728 2.0 
1126.762451 2.0 
1126.779175 2.0 
1126.896484 1.0 
1126.913208 1.0 
1126.929932 1.0 
1126.946655 1.0 
1127.549927 1.0 
1127.56665 1.0 
1127.583496 1.0 
1127.86853 9.0 
1127.885376 9.0 
1129.986206 1.0 
1130.003052 1.0 
1130.019897 1.0 
1130.356812 1.0 
1130.373657 1.0 
1130.390503 1.0 
1130.609619 31.0 
1132.094971 26.0 
1132.754517 1.0 
1132.771362 1.0 
1132.78833 1.0 
1135.026489 4.0 
1135.060425 3.0 
1135.96167 4.0 
1135.978638 4.0 
1137.188232 2.0 
1137.2052 2.0 
1137.921997 1.0 
1137.939087 1.0 
1137.956055 1.0 
1137.973145 1.0 
1138.759277 8.0 
1138.879028 1.0 
1138.896118 1.0 
1139.15271 3.0 
1139.1698 3.0 
1139.700562 1.0 
1139.717773 1.0 
1139.734863 1.0 
1139.751953 1.0 
1139.991943 1.0 
1140.009033 1.0 
1140.026123 1.0 
1140.231812 3.0 
1140.249023 3.0 
1140.643555 7.0 
1140.660645 7.0 
1140.952393 4.0 
1141.416138 2.0 
1141.43335 2.0 
1143.42981 46.0 
1144.29248 32.0 
1144.378906 1.0 
1144.396118 1.0 
1144.413452 1.0 
1144.430664 1.0 
1144.603394 1.0 
1144.620728 1.0 
1144.637939 1.0 
1144.655273 1.0 
1144.672607 1.0 
1144.914551 1.0 
1144.931763 1.0 
1144.949097 1.0 
1144.966309 1.0 
1145.173828 6.0 
1145.191162 6.0 
1145.208496 6.0 
1145.225708 6.0 
1145.243042 6.0 
1145.658325 6.0 
1146.195068 3.0 
1146.212402 3.0 
1146.229736 3.0 
1146.24707 3.0 
1147.582764 1.0 
1147.60022 1.0 
1147.617554 1.0 
1147.721802 45.0 
1150.036743 1.0 
1150.054199 1.0 
1150.071655 1.0 
1150.089111 1.0 
1150.246094 6.0 
1150.97937 1.0 
1150.996826 1.0 
1151.014282 1.0 
1151.031738 1.0 
1151.766113 5.0 
1151.783569 5.0 
1151.801025 5.0 
1152.098511 7.0 
1152.116089 7.0 
1153.342651 32.0 
1153.746216 1.0 
1153.763794 1.0 
1153.781372 1.0 
1154.642212 1.0 
1154.65979 1.0 
1154.993896 2.0 
1155.011475 2.0 
1155.169922 1.0 
1155.1875 1.0 
1155.205078 1.0 
1155.398682 37.0 
1155.592407 15.0 
1158.806396 14.0 
1159.072021 3.0 
1159.089722 3.0 
1159.107422 3.0 
1159.337891 6.0 
1159.355591 6.0 
1159.763428 1.0 
1159.798828 2.0 
1159.81665 2.0 
1159.834351 2.0 
1159.852051 2.0 
1161.344238 1.0 
1161.361938 1.0 
1161.379761 1.0 
1161.575439 7.0 
1161.593262 7.0 
1162.875732 1.0 
1162.893677 1.0 
1162.911499 1.0 
1162.929321 1.0 
1164.053955 2.0 
1164.071777 2.0 
1164.089722 2.0 
1164.304199 7.0 
1164.322021 7.0 
1164.804932 2.0 
1164.822876 2.0 
1164.840698 2.0 
1164.912354 3.0 
1164.930176 3.0 
1165.180786 21.0 
1165.341919 3.0 
1165.359863 3.0 
1165.503174 9.0 
1165.71814 11.0 
1165.951172 29.0 
1166.327759 3.0 
1166.8302 4.0 
1166.937988 121.0 
1167.566895 29.0 
1168.196411 13.0 
1169.006836 2.0 
1169.02478 2.0 
1169.042847 2.0 
1169.078857 1.0 
1169.800293 1.0 
1169.836426 2.0 
1169.872437 1.0 
1170.414185 10.0 
1170.432251 10.0 
1170.48645 6.0 
1170.504517 6.0 
1171.028687 5.0 
1171.933594 17.0 
1171.95166 17.0 
1172.731079 8.0 
1173.348022 28.0 
1173.529541 12.0 
1173.547729 12.0 
1174.074707 23.0 
1176.789429 39.0 
1177.922852 39.0 
1179.957275 2.0 
1179.975708 2.0 
1180.012451 1.0 
1180.729004 1.0 
1180.747314 1.0 
1180.765747 1.0 
1180.912842 3.0 
1180.931274 3.0 
1180.949585 3.0 
1182.054199 22.0 
1182.515015 3.0 
1182.533447 3.0 
1182.55188 3.0 
1185.157837 5.0 
1185.194946 4.0 
1186.084717 12.0 
1186.455811 33.0 
1186.678711 27.0 
1186.697266 27.0 
1187.198853 4.0 
1187.217407 4.0 
1187.236084 4.0 
1188.631714 1.0 
1188.687622 3.0 
1188.706299 3.0 
1189.414795 1.0 
1189.452148 2.0 
1189.48938 1.0 
1190.516602 1.0 
1190.535278 1.0 
1190.553955 1.0 
1191.713989 1.0 
1191.732666 1.0 
1191.751465 1.0 
1192.126099 3.0 
1192.163574 4.0 
1192.20105 3.0 
1192.407349 1.0 
1192.444824 2.0 
1192.4823 1.0 
1192.688599 26.0 
1192.970093 64.0 
1194.05957 5.0 
1194.078369 5.0 
1194.097168 5.0 
1194.473389 36.0 
1195.88623 1.0 
1195.905029 1.0 
1195.92395 1.0 
1195.942749 1.0 
1197.548218 64.0 
1197.812988 52.0 
1198.68396 1.0 
1198.702881 1.0 
1198.721924 1.0 
1198.740845 1.0 
1199.100952 5.0 
1201.285522 3.0 
1201.342529 5.0 
1201.361572 5.0 
1201.875732 30.0 
1202.523682 2.0 
1202.542847 2.0 
1202.56189 2.0 
1202.580933 2.0 
1202.867065 1.0 
1203.057983 11.0 
1203.077026 11.0 
1203.267944 15.0 
1203.286987 15.0 
1203.439819 1.0 
1203.458862 1.0 
1203.478027 1.0 
1204.529419 30.0 
1206.503296 1.0 
1206.522583 1.0 
1206.599365 34.0 
1207.771606 1.0 
1207.790894 1.0 
1207.810059 1.0 
1208.869141 3.0 
1208.888306 3.0 
1209.254639 1.0 
1209.273926 1.0 
1209.293213 1.0 
1209.3125 1.0 
1209.331787 1.0 
1210.605957 2.0 
1210.625366 2.0 
1210.644653 2.0 
1211.476318 3.0 
1211.495728 3.0 
1211.515015 3.0 
1211.631226 32.0 
1212.386719 34.0 
1213.240234 1.0 
1213.259644 1.0 
1213.279053 1.0 
1213.919922 10.0 
1213.939331 10.0 
1214.619995 20.0 
1215.262329 3.0 
1215.281738 3.0 
1215.30127 3.0 
1216.217407 1.0 
1216.236816 1.0 
1216.256348 1.0 
1216.451538 1.0 
1216.490479 2.0 
1216.763794 42.0 
1218.758545 2.0 
1218.778076 2.0 
1218.817261 1.0 
1220.641846 1.0 
1220.661499 1.0 
1220.681152 1.0 
1221.625122 7.0 
1222.925293 1.0 
1222.945068 1.0 
1222.964844 1.0 
1222.984497 1.0 
1223.004272 1.0 
1223.280396 1.0 
1223.300171 1.0 
1223.319946 1.0 
1223.3396 1.0 
1223.438354 8.0 
1223.635742 4.0 
1223.655518 4.0 
1223.714722 1.0 
1223.734497 1.0 
1223.754272 1.0 
1224.129639 12.0 
1225.059082 1.0 
1225.078857 1.0 
1225.098633 1.0 
1225.118408 1.0 
1225.138184 1.0 
1225.177856 1.0 
1225.197632 1.0 
1225.217407 1.0 
1225.633301 2.0 
1225.653076 2.0 
1225.692749 1.0 
1226.227905 2.0 
1226.247681 2.0 
1226.267456 2.0 
1226.287354 2.0 
1227.577759 35.0 
1229.249268 9.0 
1229.608032 1.0 
1229.62793 1.0 
1229.647949 1.0 
1231.265137 43.0 
1231.685181 3.0 
1231.7052 3.0 
1231.725098 3.0 
1231.905273 5.0 
1231.925293 5.0 
1232.48584 1.0 
1232.505981 1.0 
1232.526001 1.0 
1232.546021 1.0 
1233.3479 5.0 
1233.528442 60.0 
1233.809448 1.0 
1233.829468 1.0 
1233.849609 1.0 
1234.010132 1.0 
1234.030273 1.0 
1234.050293 1.0 
1235.196167 7.0 
1235.216187 7.0 
1235.477905 11.0 
1236.021606 44.0 
1236.424683 1.0 
1236.444824 1.0 
1236.464966 1.0 
1242.482056 1.0 
1242.522705 2.0 
1242.543091 2.0 
1242.604248 1.0 
1242.644897 2.0 
1242.685669 1.0 
1243.296875 1.0 
1243.317261 1.0 
1243.337646 1.0 
1243.358032 1.0 
1243.378418 1.0 
1243.398804 1.0 
1243.500732 3.0 
1243.521118 3.0 
1243.541504 3.0 
1243.56189 3.0 
1244.010742 4.0 
1244.051636 3.0 
1244.072021 3.0 
1244.112793 3.0 
1244.133179 3.0 
1244.255737 99.0 
1244.357788 7.0 
1244.480347 12.0 
1244.500732 12.0 
1244.664185 4.0 
1245.604614 2.0 
1245.625122 2.0 
1245.645508 2.0 
1246.341675 15.0 
1248.4552 1.0 
1248.475708 1.0 
1248.496216 1.0 
1248.516846 1.0 
1249.58667 3.0 
1249.6073 3.0 
1250.947144 1.0 
1250.967773 1.0 
1250.988403 1.0 
1251.112305 2.0 
1251.132935 2.0 
1251.174194 1.0 
1252.0625 1.0 
1252.083252 1.0 
1252.103882 1.0 
1253.76001 3.0 
1253.780762 3.0 
1255.503662 1.0 
1255.524536 1.0 
1255.545288 1.0 
1256.585571 34.0 
1257.002197 1.0 
1257.022949 1.0 
1257.043823 1.0 
1257.064697 1.0 
1257.669312 5.0 
1257.690186 5.0 
1258.420654 27.0 
1258.734009 3.0 
1258.942993 1.0 
1258.963867 1.0 
1258.984741 1.0 
1259.34021 17.0 
1260.386841 45.0 
1260.512451 1.0 
1260.533447 1.0 
1261.519043 8.0 
1262.043945 3.0 
1262.064941 3.0 
1262.085938 3.0 
1263.263306 7.0 
1263.284424 7.0 
1263.30542 7.0 
1264.04248 2.0 
1264.063599 2.0 
1264.084595 2.0 
1264.105713 2.0 
1264.126831 2.0 
1264.54834 2.0 
1264.569458 2.0 
1264.590576 2.0 
1264.611694 2.0 
1266.533691 1.0 
1266.554932 1.0 
1266.57605 1.0 
1266.597168 1.0 
1266.618286 1.0 
1267.952637 31.0 
1268.44043 4.0 
1268.46167 4.0 
1268.63147 5.0 
1271.375244 1.0 
1271.396606 1.0 
1271.417847 1.0 
1272.612793 1.0 
1272.655518 2.0 
1272.698242 1.0 
1274.002441 29.0 
1275.073608 1.0 
1275.095093 1.0 
1275.116455 1.0 
1275.137939 1.0 
1276.511719 6.0 
1277.651611 3.0 
1278.146973 2.0 
1278.190063 3.0 
1278.233154 2.0 
1279.073975 1.0 
1279.095581 1.0 
1279.246582 1.0 
1279.268188 1.0 
1279.289795 1.0 
1280.067139 4.0 
1280.088745 4.0 
1281.126831 1.0 
1281.14856 1.0 
1281.170166 1.0 
1284.185913 6.0 
1284.207764 6.0 
1284.272949 7.0 
1284.294678 7.0 
1284.338257 3.0 
1284.425171 18.0 
1285.208862 14.0 
1285.710083 48.0 
1286.560791 1.0 
1286.757324 1.0 
1286.779175 1.0 
1286.801025 1.0 
1286.822876 1.0 
1286.844604 1.0 
1286.910156 1.0 
1286.932007 1.0 
1286.953857 1.0 
1287.41272 1.0 
1287.43457 1.0 
1287.456421 1.0 
1291.975098 8.0 
1298.123535 4.0 
1298.145752 4.0 
1298.279175 3.0 
1298.301392 3.0 
1299.191162 1.0 
1299.99292 1.0 
1300.037476 2.0 
1300.059814 2.0 
1300.082031 2.0 
1302.29248 3.0 
1302.314819 3.0 
1303.322144 25.0 
1304.689941 1.0 
1304.712402 1.0 
1304.734863 1.0 
1304.757324 1.0 
1304.779785 1.0 
1305.520996 13.0 
1309.01416 8.0 
1309.036743 8.0 
1309.194946 4.0 
1309.217529 4.0 
1309.805542 1.0 
1309.828125 1.0 
1309.85083 1.0 
1311.935669 36.0 
1312.185425 11.0 
1313.276123 1.0 
1313.29895 1.0 
1313.321655 1.0 
1314.140991 8.0 
1314.163818 8.0 
1314.551025 26.0 
1314.687866 56.0 
1314.847412 3.0 
1314.870239 3.0 
1314.892944 3.0 
1316.376709 49.0 
1316.513794 5.0 
1316.536621 5.0 
1316.55957 5.0 
1320.341919 50.0 
1320.80188 3.0 
1320.824829 3.0 
1320.8479 3.0 
1322.068359 38.0 
1323.360352 3.0 
1323.383545 3.0 
1324.493042 52.0 
1326.18396 93.0 
1326.32312 41.0 
1326.46228 1.0 
1326.485596 1.0 
1326.508789 1.0 
1326.531982 1.0 
1327.414307 2.0 
1327.437622 2.0 
1327.460815 2.0 
1328.088501 2.0 
1328.111816 2.0 
1328.13501 2.0 
1328.297974 1.0 
1328.321167 1.0 
1328.344482 1.0 
1328.740112 3.0 
1328.763428 3.0 
1328.786743 3.0 
1328.879883 9.0 
1328.903198 9.0 
1329.159424 39.0 
1331.282837 32.0 
1331.306152 32.0 
1331.58667 1.0 
1331.610107 1.0 
1331.633545 1.0 
1332.40564 3.0 
1332.429077 3.0 
1332.47583 2.0 
1332.522705 1.0 
1332.616333 47.0 
1334.375122 27.0 
1334.492554 1.0 
1337.19873 7.0 
1337.22229 7.0 
1337.43457 1.0 
1337.45813 1.0 
1337.481812 1.0 
1338.000977 46.0 
1339.395264 6.0 
1339.442627 7.0 
1339.466309 7.0 
1339.631958 3.0 
1339.65564 3.0 
1340.911133 3.0 
1340.934814 3.0 
1340.958496 3.0 
1340.9823 3.0 
1342.525391 2.0 
1342.549194 2.0 
1342.572998 2.0 
1342.786865 23.0 
1342.953369 5.0 
1343.048584 31.0 
1345.383667 1.0 
1345.407593 1.0 
1345.431396 1.0 
1345.455322 1.0 
1345.479126 1.0 
1345.503052 1.0 
1345.789551 5.0 
1345.885132 1.0 
1345.909058 1.0 
1345.932983 1.0 
1346.10022 1.0 
1346.124023 1.0 
1346.147949 1.0 
1346.602173 2.0 
1346.626099 2.0 
1347.439575 2.0 
1347.463623 2.0 
1347.487549 2.0 
1347.511475 2.0 
1348.613892 55.0 
1350.318848 1.0 
1350.342896 1.0 
1350.366943 1.0 
1350.583496 23.0 
1350.607544 23.0 
1350.824097 1.0 
1351.233276 1.0 
1351.257324 1.0 
1351.281372 1.0 
1352.293457 1.0 
1352.317627 1.0 
1352.341675 1.0 
1352.365845 1.0 
1352.896606 49.0 
1354.080444 2.0 
1354.104614 2.0 
1354.128784 2.0 
1354.564209 8.0 
1354.975586 1.0 
1354.999878 1.0 
1355.09668 4.0 
1355.12085 4.0 
1355.532715 56.0 
1356.114502 1.0 
1356.138794 1.0 
1356.162964 1.0 
1356.187256 1.0 
1356.357056 1.0 
1356.381348 1.0 
1356.40564 1.0 
1356.42981 1.0 
1356.575439 8.0 
1357.231079 9.0 
1357.619751 2.0 
1357.644165 2.0 
1357.668457 2.0 
1357.692749 2.0 
1357.789917 1.0 
1358.471069 7.0 
1358.9823 11.0 
1359.29895 1.0 
1359.323364 1.0 
1359.347778 1.0 
1359.542725 7.0 
1359.567017 7.0 
1360.298706 4.0 
1360.32312 4.0 
1363.944336 4.0 
1363.968872 4.0 
1366.672974 31.0 
1367.215088 1.0 
1367.239746 1.0 
1367.264404 1.0 
1368.004395 16.0 
1368.374634 9.0 
1370.130005 8.0 
1371.021851 2.0 
1371.046631 2.0 
1371.071411 2.0 
1371.096191 2.0 
1371.344116 53.0 
1371.765869 4.0 
1372.510742 3.0 
1372.535522 3.0 
1372.933228 1.0 
1372.958008 1.0 
1374.052734 1.0 
1374.077515 1.0 
1374.102417 1.0 
1374.127319 1.0 
1375.697876 5.0 
1376.721924 1.0 
1376.746948 1.0 
1376.771973 1.0 
1376.971924 17.0 
1377.647339 19.0 
1378.29834 9.0 
1380.154785 3.0 
1380.17981 3.0 
1380.204956 3.0 
1380.230103 3.0 
1380.330566 5.0 
1380.406006 11.0 
1380.456177 10.0 
1381.034424 5.0 
1382.948608 5.0 
1383.200928 12.0 
1383.226074 12.0 
1383.604736 22.0 
1383.882446 13.0 
1383.907715 13.0 
1384.438354 20.0 
1384.893433 3.0 
1384.918701 3.0 
1386.311279 1.0 
1386.336548 1.0 
1386.361938 1.0 
1386.869019 21.0 
1387.09729 11.0 
1387.300293 3.0 
1387.376465 13.0 
1387.630371 1.0 
1387.655762 1.0 
1387.681152 1.0 
1388.316284 4.0 
1388.341675 4.0 
1390.22522 25.0 
1390.429199 5.0 
1390.454712 5.0 
1390.786133 3.0 
1390.811646 3.0 
1390.837158 3.0 
1391.322021 6.0 
1391.781738 1.0 
1393.572144 2.0 
1393.597778 2.0 
1393.623291 2.0 
1393.72583 4.0 
1393.751465 4.0 
1394.417725 7.0 
1394.443359 7.0 
1395.444214 1.0 
1395.469849 1.0 
1395.495605 1.0 
1395.52124 1.0 
1395.546875 1.0 
1396.266357 32.0 
1396.39502 4.0 
1396.420654 4.0 
1397.450073 10.0 
1398.119995 2.0 
1398.145752 2.0 
1398.197266 1.0 
1399.203491 4.0 
1399.255127 5.0 
1399.616699 3.0 
1399.642456 3.0 
1399.668335 3.0 
1399.694092 3.0 
END IONS

