BEGIN IONS
TITLE=Scan Number: 889
PEPMASS=670.164
CHARGE=1+
COMPOUNDNAME=Enterobactin
LIBRARYQUALITY=1
SMILES=C1C(C(=O)OCC(C(=O)OCC(C(=O)O1)NC(=O)C2=C(C(=CC=C2)O)O)NC(=O)C3=C(C(=CC=C3)O)O)NC(=O)C4=C(C(=CC=C4)O)O
INCHIKEY=SERBHKJMVBATSJ-BZSNNMDCSA-N
INCHI=InChI=1S/C30H27N3O15/c34-19-7-1-4-13(22(19)37)25(40)31-16-10-46-29(44)18(33-27(42)15-6-3-9-21(36)24(15)39)12-48-30(45)17(11-47-28(16)43)32-26(41)14-5-2-8-20(35)23(14)38/h1-9,16-18,34-39H,10-12H2,(H,31,40)(H,32,41)(H,33,42)/t16-,17-,18-/m0/s1
MSLEVEL=2
SOURCE_INSTRUMENT=LC-ESI-qTof
FILENAME=f.jgauglitz/Siderophore_samples/standards/qtof/mzXML/12min_SEED_protocol/7_12min_GB7_01_43560.mzXML;
SEQ=*..*
NOTES=
IONMODE=Positive
ORGANISM=GNPS-LIBRARY
NAME=Enterobactin M+H
SPECTRUMID=CCMSLIB00005435752
ACTIVATION=CID
INSTRUMENT=ion trap
SCANS=889
45.845894 74.0 
88.036659 133.0 
89.374649 86.0 
90.19014 89.0 
106.046127 275.0 
109.028442 170.0 
111.052002 266.0 
123.042976 1467.0 
132.044937 129.0 
136.038727 492.0 
137.022095 17230.0 
138.025497 1322.0 
139.030823 189.0 
149.939285 74.0 
150.053711 4171.0 
151.058594 255.0 
154.048477 778.0 
157.060135 2242.0 
158.063644 110.0 
162.053848 3238.0 
163.058563 246.0 
164.060562 121.0 
178.049271 14412.0 
179.052719 1988.0 
180.056641 225.0 
193.08197 82.0 
194.042831 133.0 
196.059448 5345.0 
197.061646 510.0 
198.066452 72.0 
201.105804 78.0 
205.989929 80.0 
206.044022 15483.0 
207.047836 1353.0 
208.050949 227.0 
222.036865 96.0 
223.007538 94.0 
223.098404 72.0 
223.408829 122.0 
223.519379 76.0 
223.672089 96.0 
223.737549 79.0 
223.773773 118.0 
223.856567 111.0 
223.945831 271.0 
224.054733 392973.0 
224.122238 97.0 
224.145798 96.0 
224.226532 85.0 
224.25354 138.0 
224.297729 86.0 
224.420502 84.0 
224.492203 73.0 
224.568604 82.0 
224.659622 82.0 
225.05777 47437.0 
226.059586 6075.0 
226.496521 92.0 
226.574127 117.0 
226.621582 88.0 
226.667206 130.0 
226.693069 113.0 
226.778564 91.0 
227.060654 480.0 
242.065079 1910.0 
243.06987 224.0 
245.074692 97.0 
247.070175 532.0 
248.054977 481.0 
265.081757 1146.0 
266.083527 233.0 
283.094452 362.0 
293.076294 5053.0 
294.078918 676.0 
311.086945 10372.0 
311.15567 83.0 
312.089325 1394.0 
313.089294 315.0 
314.101562 83.0 
329.098358 618.0 
334.097839 108.0 
335.088379 140.0 
337.068756 135.0 
353.100769 95.0 
362.097321 450.0 
363.10083 79.0 
380.109436 1659.0 
381.101135 291.0 
382.106506 74.0 
383.082825 142.0 
398.120056 782.0 
399.120117 198.0 
400.132233 202.0 
401.098053 806.0 
402.101868 244.0 
419.109894 196.0 
429.092346 2474.0 
430.096832 570.0 
431.102173 177.0 
445.08136 86.0 
446.985565 78.0 
447.102722 30323.0 
448.105469 7250.0 
449.107758 1574.0 
450.109467 281.0 
465.112457 131.0 
470.118683 100.0 
498.118134 270.0 
506.144318 106.0 
516.12616 2290.0 
517.131165 446.0 
518.123657 97.0 
534.135681 4541.0 
535.137573 1016.0 
536.140198 183.0 
670.004578 72.0 
670.151184 6892.0 
671.08197 125.0 
671.155396 1889.0 
672.157959 567.0 
END IONS

