BEGIN IONS
TITLE=Scan Number: 2815
PEPMASS=564.35999
CHARGE=1+
COMPOUNDNAME=BE-43547A
LIBRARYQUALITY=3
SMILES=O=C(CNC(C(O)(C)C1=O)=O)NC(/C=C/C(N(C)CC(OC(CCCCCCCCCCCCC)C1C)=O)=O)=C
INCHIKEY=JRGSONPJAHDIGK-VHEBQXMUSA-N
INCHI=InChI=1S/C30H49N3O7/c1-6-7-8-9-10-11-12-13-14-15-16-17-24-23(3)28(37)30(4,39)29(38)31-20-25(34)32-22(2)18-19-26(35)33(5)21-27(36)40-24/h18-19,23-24,39H,2,6-17,20-21H2,1,3-5H3,(H,31,38)(H,32,34)/b19-18+
MSLEVEL=2
SOURCE_INSTRUMENT=LC-ESI-qTof
FILENAME=f.thomast/BE-43547/BE43547A_40eV.mzML;
SEQ=*..*
NOTES=
IONMODE=Positive
ORGANISM=GNPS-LIBRARY
NAME=BE-43547A M+H
SPECTRUMID=CCMSLIB00000839188
ACTIVATION=CID
INSTRUMENT=ion trap
SCANS=2815
45.251701 96.0 
45.40221 92.0 
45.419388 96.0 
45.897724 160.0 
45.91367 132.0 
45.929619 120.0 
46.882069 164.0 
47.051418 64.0 
47.674904 116.0 
47.958305 148.0 
48.220772 84.0 
48.365219 124.0 
48.497589 172.0 
48.675285 152.0 
49.147068 108.0 
49.316311 80.0 
49.350754 56.0 
49.62664 132.0 
49.863144 164.0 
50.071079 92.0 
50.603931 180.0 
50.806419 88.0 
51.226612 104.0 
51.55838 100.0 
51.616119 136.0 
51.668262 140.0 
51.757114 84.0 
52.202465 68.0 
52.460644 84.0 
52.626949 116.0 
53.038876 140.0 
53.535599 144.0 
54.115402 80.0 
54.303097 96.0 
54.760708 52.0 
54.884098 172.0 
55.053677 108.0 
55.494503 136.0 
56.250866 76.0 
56.330292 184.0 
56.437794 132.0 
56.911697 52.0 
57.069649 360.0 
57.170876 68.0 
57.191612 200.0 
57.478214 64.0 
57.48415 108.0 
57.521324 108.0 
57.674614 124.0 
57.756546 144.0 
57.786362 120.0 
57.804245 152.0 
57.962414 60.0 
57.989277 104.0 
58.029598 116.0 
58.054993 140.0 
58.072353 184.0 
59.048336 128.0 
59.350098 124.0 
59.419624 68.0 
59.449848 124.0 
59.779915 144.0 
60.04464 212.0 
60.148926 88.0 
60.224987 112.0 
60.627419 112.0 
61.025051 172.0 
61.503944 140.0 
62.180935 112.0 
62.340305 148.0 
62.38522 120.0 
62.592937 128.0 
62.815002 80.0 
62.846088 88.0 
63.031227 68.0 
63.090389 108.0 
63.110634 136.0 
63.119976 184.0 
63.132458 92.0 
63.202595 84.0 
63.819881 144.0 
63.959381 144.0 
64.044106 100.0 
64.138306 88.0 
64.196404 204.0 
64.566742 108.0 
64.588234 140.0 
64.757004 56.0 
64.992325 128.0 
65.04451 92.0 
65.411926 188.0 
65.470619 188.0 
65.907715 72.0 
66.028755 124.0 
66.04628 120.0 
66.26799 128.0 
66.386192 56.0 
66.701302 136.0 
66.766983 112.0 
67.017288 276.0 
67.025185 304.0 
67.038048 148.0 
67.054176 3420.0 
67.179443 52.0 
67.208366 80.0 
67.354729 136.0 
67.361176 88.0 
67.520599 116.0 
67.535095 160.0 
67.815804 88.0 
68.012955 132.0 
68.022202 112.0 
68.049232 13584.0 
68.097092 68.0 
68.150505 64.0 
68.325432 168.0 
68.718292 56.0 
68.741043 72.0 
68.762184 68.0 
68.968849 72.0 
69.001404 180.0 
69.012817 112.0 
69.03318 1192.0 
69.052467 980.0 
69.069366 10588.0 
69.08123 280.0 
69.169296 128.0 
69.312897 96.0 
69.356972 136.0 
69.433754 124.0 
69.502426 52.0 
70.016701 76.0 
70.036385 108.0 
70.042946 128.0 
70.065155 1184.0 
70.071587 896.0 
70.286064 76.0 
70.516403 136.0 
70.555939 92.0 
70.580971 84.0 
70.611961 68.0 
70.648209 112.0 
70.765289 88.0 
71.048561 1016.0 
71.074074 276.0 
71.085213 6716.0 
71.428345 52.0 
71.617386 100.0 
71.697067 120.0 
71.898132 76.0 
72.043365 360.0 
72.048737 256.0 
72.08062 220.0 
72.088997 476.0 
72.18441 76.0 
72.192749 64.0 
72.231064 96.0 
72.588158 100.0 
72.850693 140.0 
73.012825 104.0 
73.064926 272.0 
73.073494 60.0 
73.091911 152.0 
73.39904 156.0 
73.652954 108.0 
74.032104 112.0 
74.059639 932.0 
74.070908 120.0 
74.126633 64.0 
74.639061 136.0 
74.764503 84.0 
74.905289 136.0 
75.013939 164.0 
75.055603 72.0 
75.103996 124.0 
75.589127 76.0 
75.60788 100.0 
76.038956 572.0 
76.300026 124.0 
76.518745 68.0 
76.691078 104.0 
76.888687 136.0 
76.993614 128.0 
77.036621 244.0 
77.084839 140.0 
77.296745 188.0 
77.338135 132.0 
77.762962 104.0 
77.771606 100.0 
77.797539 140.0 
77.922134 92.0 
78.032188 120.0 
78.346817 92.0 
78.445778 112.0 
78.506584 108.0 
78.61956 116.0 
78.701309 100.0 
79.017982 140.0 
79.053986 1228.0 
79.074028 120.0 
79.154289 52.0 
79.311378 80.0 
79.374245 120.0 
79.573532 156.0 
79.718788 160.0 
79.76432 120.0 
79.930794 112.0 
79.950104 56.0 
80.04879 7532.0 
80.230865 128.0 
80.382004 108.0 
80.607216 64.0 
80.661789 104.0 
81.0336 196.0 
81.051773 516.0 
81.069336 16168.0 
81.109749 140.0 
81.362503 120.0 
81.528877 60.0 
81.620972 64.0 
81.775146 164.0 
81.828377 96.0 
82.037827 100.0 
82.056107 116.0 
82.065292 3424.0 
82.311584 88.0 
82.430824 116.0 
82.518112 56.0 
82.616096 84.0 
82.835457 196.0 
82.855125 56.0 
82.910439 164.0 
82.958664 128.0 
83.012413 784.0 
83.048439 716.0 
83.067505 416.0 
83.084961 23260.0 
83.208923 72.0 
83.321655 72.0 
83.355675 56.0 
83.586754 200.0 
83.644157 92.0 
83.665657 208.0 
83.67643 140.0 
83.832565 156.0 
83.884651 104.0 
84.016693 192.0 
84.04351 1564.0 
84.080002 412.0 
84.088547 1484.0 
84.229851 104.0 
84.46035 184.0 
84.550514 84.0 
84.557709 136.0 
84.626266 80.0 
85.028275 396.0 
85.042572 200.0 
85.050713 112.0 
85.064117 1808.0 
85.091827 292.0 
85.100639 6028.0 
85.139359 88.0 
85.203445 184.0 
85.235298 60.0 
85.256996 152.0 
85.741135 136.0 
85.757492 80.0 
85.791985 128.0 
85.993729 92.0 
86.004646 76.0 
86.022865 444.0 
86.033722 168.0 
86.059814 1252.0 
86.066566 400.0 
86.10257 332.0 
86.109138 252.0 
86.173836 160.0 
86.295853 128.0 
86.669708 104.0 
86.777458 80.0 
86.949242 124.0 
87.043701 472.0 
87.066856 108.0 
87.07988 108.0 
87.124878 100.0 
87.155998 120.0 
87.634468 124.0 
87.823654 108.0 
87.873299 72.0 
88.01487 160.0 
88.038879 3688.0 
88.055351 160.0 
88.077446 120.0 
88.108734 124.0 
88.25605 120.0 
88.287308 96.0 
88.704285 148.0 
88.820679 172.0 
89.009323 88.0 
89.043312 220.0 
89.059181 1232.0 
89.418671 120.0 
89.518837 120.0 
89.533699 76.0 
89.652496 80.0 
89.676636 72.0 
89.704475 124.0 
89.879166 88.0 
89.897285 112.0 
89.98838 88.0 
90.003441 140.0 
90.029541 80.0 
90.038315 172.0 
90.054909 227944.0 
90.087509 72.0 
90.124413 132.0 
90.142738 64.0 
90.168846 128.0 
90.197357 84.0 
90.204811 72.0 
90.242775 128.0 
90.298889 80.0 
90.307281 64.0 
90.344276 128.0 
90.378105 68.0 
90.434036 76.0 
90.480675 64.0 
90.499336 52.0 
90.643021 84.0 
90.691582 60.0 
90.742004 76.0 
90.88591 56.0 
90.898987 64.0 
91.020554 64.0 
91.057625 8024.0 
91.074791 140.0 
91.087898 132.0 
91.11972 112.0 
91.160919 76.0 
91.254555 100.0 
91.31076 96.0 
91.346352 148.0 
91.426987 72.0 
91.453217 140.0 
91.526398 64.0 
91.535744 156.0 
91.565773 124.0 
91.645866 96.0 
91.655876 100.0 
91.670876 192.0 
91.678421 68.0 
91.699059 116.0 
91.723488 76.0 
91.838097 60.0 
91.845604 68.0 
92.014793 160.0 
92.058914 956.0 
92.116402 172.0 
92.131462 140.0 
92.316017 156.0 
92.429138 56.0 
92.500763 124.0 
92.840569 108.0 
92.969124 52.0 
93.057983 120.0 
93.069229 3464.0 
93.08062 672.0 
93.347633 140.0 
93.523926 120.0 
93.573265 56.0 
93.689011 68.0 
93.77253 92.0 
93.850403 112.0 
94.032875 80.0 
94.064857 616.0 
94.194572 100.0 
94.221207 148.0 
94.388802 108.0 
94.411659 128.0 
94.798851 140.0 
94.909637 92.0 
94.974594 132.0 
95.008995 136.0 
95.021736 144.0 
95.037682 92.0 
95.049576 648.0 
95.072472 252.0 
95.085495 21924.0 
95.114166 92.0 
95.121803 116.0 
95.129486 52.0 
95.198349 56.0 
95.217491 52.0 
95.27243 116.0 
95.296593 208.0 
95.385933 92.0 
95.477898 72.0 
95.536865 88.0 
95.605255 152.0 
95.629341 52.0 
95.656158 128.0 
95.675354 88.0 
95.723312 80.0 
95.734825 88.0 
95.809669 88.0 
95.821182 108.0 
95.834595 180.0 
95.851868 232.0 
95.874931 124.0 
95.93161 132.0 
95.943207 108.0 
95.953659 172.0 
95.963684 132.0 
95.974785 184.0 
95.98185 108.0 
95.995178 240.0 
96.006859 228.0 
96.019981 356.0 
96.032196 196.0 
96.044594 377948.0 
96.061302 344.0 
96.070404 204.0 
96.078629 256.0 
96.090523 1040.0 
96.106613 116.0 
96.130455 224.0 
96.145996 184.0 
96.167618 184.0 
96.178566 84.0 
96.190804 64.0 
96.229836 148.0 
96.254654 72.0 
96.260498 100.0 
96.31514 140.0 
96.324753 176.0 
96.342674 92.0 
96.360733 460.0 
96.378677 76.0 
96.392151 88.0 
96.403725 52.0 
96.420792 60.0 
96.471123 60.0 
96.511559 92.0 
96.55011 52.0 
96.590553 104.0 
96.619492 56.0 
96.690819 56.0 
96.729378 76.0 
96.754448 88.0 
96.810394 88.0 
96.818108 108.0 
96.881676 56.0 
96.896698 200.0 
96.944618 136.0 
97.029373 260.0 
97.047577 20164.0 
97.064812 1716.0 
97.082832 144.0 
97.101196 26360.0 
97.134773 272.0 
97.150284 80.0 
97.169594 132.0 
97.193512 84.0 
97.237274 92.0 
97.262405 116.0 
97.277878 120.0 
97.308853 60.0 
97.423004 84.0 
97.533707 140.0 
97.550789 96.0 
97.558533 116.0 
97.650726 72.0 
97.663162 92.0 
97.678665 84.0 
97.70459 80.0 
97.716377 88.0 
97.740685 108.0 
97.855118 80.0 
97.926888 136.0 
97.954056 140.0 
97.974808 164.0 
98.048592 1216.0 
98.059914 6936.0 
98.082626 344.0 
98.104164 2900.0 
98.171555 124.0 
98.239571 112.0 
98.32122 108.0 
98.712448 120.0 
98.739738 84.0 
98.792358 76.0 
99.043983 340.0 
99.061874 524.0 
99.080544 784.0 
99.109634 356.0 
99.117966 688.0 
99.131767 176.0 
99.174751 84.0 
99.213837 52.0 
99.266548 112.0 
99.694893 116.0 
99.720345 128.0 
99.971161 116.0 
100.016266 116.0 
100.039055 5728.0 
100.057442 144.0 
100.075378 388.0 
100.123611 100.0 
100.1595 64.0 
100.318497 164.0 
100.499298 100.0 
100.548462 68.0 
100.701897 72.0 
100.78653 72.0 
100.816063 76.0 
100.827888 52.0 
101.023582 680.0 
101.043221 652.0 
101.059631 5900.0 
101.095383 268.0 
101.119522 60.0 
101.199677 80.0 
101.415527 60.0 
102.027496 136.0 
102.04171 124.0 
102.054604 10040.0 
102.092018 136.0 
102.139603 60.0 
102.169334 64.0 
102.189163 52.0 
103.025398 132.0 
103.037338 140.0 
103.058403 592.0 
103.101044 144.0 
103.240509 56.0 
103.607445 84.0 
103.941071 60.0 
103.991013 164.0 
104.057556 136.0 
104.071449 252.0 
104.393379 84.0 
104.469521 96.0 
104.51162 88.0 
104.575798 64.0 
104.854706 104.0 
105.046455 264.0 
105.069862 1504.0 
105.103867 80.0 
105.154129 76.0 
105.256676 188.0 
105.290909 100.0 
105.307007 88.0 
105.431793 144.0 
105.631264 60.0 
105.86515 148.0 
106.028641 156.0 
106.052414 156.0 
106.062805 124.0 
106.072342 252.0 
106.414001 120.0 
106.639336 132.0 
106.665688 68.0 
106.698067 144.0 
106.706184 100.0 
106.975777 92.0 
106.985916 96.0 
107.030548 80.0 
107.060509 984.0 
107.085396 5640.0 
107.111664 272.0 
107.25177 152.0 
107.265991 148.0 
107.331009 96.0 
107.361504 60.0 
107.402122 100.0 
107.581047 80.0 
107.605446 112.0 
107.69294 100.0 
107.777473 96.0 
107.792686 80.0 
107.89859 64.0 
107.986198 60.0 
108.028984 92.0 
108.044395 12488.0 
108.06884 732.0 
108.084488 1080.0 
108.143158 76.0 
108.206375 92.0 
108.282204 52.0 
108.304306 120.0 
108.414551 84.0 
108.57428 108.0 
108.592239 136.0 
108.620842 168.0 
108.692421 76.0 
108.704704 52.0 
108.74353 84.0 
108.788544 52.0 
108.952217 84.0 
108.960388 128.0 
109.04734 496.0 
109.065224 3108.0 
109.079475 392.0 
109.101677 17028.0 
109.128296 152.0 
109.142639 124.0 
109.171341 92.0 
109.189781 96.0 
109.197929 292.0 
109.253319 72.0 
109.277046 76.0 
109.308685 56.0 
109.318886 160.0 
109.355827 80.0 
109.378395 68.0 
109.610275 56.0 
109.891693 120.0 
109.916382 68.0 
110.004822 52.0 
110.060684 1448.0 
110.082306 160.0 
110.104004 2128.0 
110.402107 96.0 
110.503082 112.0 
110.589691 84.0 
110.758865 68.0 
111.014893 152.0 
111.030037 100.0 
111.046814 584.0 
111.057343 312.0 
111.080368 8524.0 
111.116997 12700.0 
111.137657 252.0 
111.182343 76.0 
111.224113 80.0 
111.296097 76.0 
111.312668 52.0 
111.428551 64.0 
111.436813 96.0 
111.724739 92.0 
112.02343 76.0 
112.038803 500.0 
112.064911 152.0 
112.075104 1136.0 
112.083618 1492.0 
112.120415 1348.0 
112.131348 172.0 
112.59697 172.0 
113.042732 120.0 
113.059616 2608.0 
113.078163 160.0 
113.085625 164.0 
113.096199 428.0 
113.10923 612.0 
113.125046 132.0 
113.134857 440.0 
113.267204 120.0 
113.361977 68.0 
113.446465 96.0 
113.951492 160.0 
114.022728 52.0 
114.037346 124.0 
114.054955 27984.0 
114.091209 664.0 
114.103073 256.0 
114.113937 120.0 
114.129501 132.0 
114.246887 60.0 
114.288818 52.0 
114.374786 52.0 
114.532104 84.0 
114.645432 164.0 
114.941696 120.0 
115.004776 120.0 
115.057732 1452.0 
115.074837 736.0 
115.110443 460.0 
115.126801 80.0 
115.137291 152.0 
115.497398 116.0 
115.6745 108.0 
115.972076 92.0 
116.034782 320.0 
116.058121 180.0 
116.071022 104.0 
116.07653 164.0 
116.284821 112.0 
116.473091 160.0 
116.716606 120.0 
116.858612 84.0 
116.987946 112.0 
117.069664 128.0 
117.092651 256.0 
117.763397 120.0 
117.83152 80.0 
118.050232 536.0 
118.063934 188.0 
118.159576 64.0 
118.208603 72.0 
118.264038 84.0 
118.447495 120.0 
118.996643 68.0 
119.049019 116.0 
119.058678 92.0 
119.085358 1684.0 
119.177734 172.0 
119.491302 76.0 
119.868843 128.0 
119.90596 156.0 
120.04496 136.0 
120.063278 128.0 
120.088226 284.0 
120.66671 100.0 
120.836975 56.0 
121.064537 1044.0 
121.076271 1968.0 
121.101128 5364.0 
121.214493 68.0 
121.249031 88.0 
121.2836 64.0 
121.523438 60.0 
121.538521 168.0 
122.023651 564.0 
122.040627 84.0 
122.061378 576.0 
122.083351 860.0 
122.103958 612.0 
122.266052 52.0 
122.396156 96.0 
122.45256 120.0 
122.613228 60.0 
122.654449 128.0 
122.682709 84.0 
122.828262 120.0 
122.884773 124.0 
122.954376 64.0 
123.000038 72.0 
123.047134 292.0 
123.057274 340.0 
123.091682 24220.0 
123.11647 10432.0 
123.219772 124.0 
123.241531 132.0 
123.265511 68.0 
123.289452 88.0 
123.389656 52.0 
123.433205 84.0 
123.474609 76.0 
123.505096 108.0 
123.555244 76.0 
123.629372 64.0 
123.998108 112.0 
124.040016 668.0 
124.061371 128.0 
124.077911 808.0 
124.094635 2180.0 
124.121902 972.0 
124.363045 128.0 
124.417747 76.0 
124.441818 60.0 
124.600471 56.0 
124.936684 72.0 
124.951988 188.0 
124.976151 64.0 
125.040619 228.0 
125.058762 3808.0 
125.070862 17136.0 
125.095711 6088.0 
125.13311 5588.0 
125.167343 160.0 
125.273521 68.0 
125.366684 56.0 
125.474251 128.0 
125.546738 168.0 
125.810577 80.0 
125.960159 164.0 
126.04274 120.0 
126.056122 592.0 
126.074165 1916.0 
126.08519 252.0 
126.099213 1280.0 
126.134964 716.0 
126.400734 116.0 
126.54847 176.0 
126.561729 104.0 
126.740509 64.0 
126.760376 76.0 
126.822182 112.0 
127.038673 168.0 
127.048187 364.0 
127.057564 336.0 
127.075012 1332.0 
127.090851 124.0 
127.110619 248.0 
127.135979 84.0 
127.148895 536.0 
127.57196 56.0 
128.034424 1160.0 
128.051926 116.0 
128.069046 220.0 
128.117554 108.0 
128.835312 108.0 
128.857574 100.0 
128.92659 108.0 
128.966705 52.0 
129.035721 116.0 
129.045639 132.0 
129.054581 424.0 
129.065552 444.0 
129.074799 244.0 
129.092163 220.0 
129.125671 260.0 
129.184998 120.0 
129.52626 84.0 
129.943954 68.0 
130.011032 60.0 
130.049927 16604.0 
130.085663 392.0 
130.136246 100.0 
130.163071 164.0 
130.27948 64.0 
130.604233 68.0 
130.633331 120.0 
130.929352 112.0 
131.052658 1404.0 
131.086243 112.0 
131.196548 52.0 
131.222549 116.0 
131.24147 64.0 
131.275146 112.0 
131.664124 112.0 
131.769913 84.0 
132.064636 4024.0 
132.103256 132.0 
132.513809 88.0 
133.01091 64.0 
133.057831 116.0 
133.066208 316.0 
133.086014 552.0 
133.10022 2124.0 
133.117416 184.0 
133.366226 52.0 
134.021469 132.0 
134.060059 136.0 
134.075958 128.0 
134.09639 132.0 
134.106094 388.0 
134.289459 204.0 
134.878708 100.0 
135.053345 1160.0 
135.077774 924.0 
135.11702 8712.0 
135.286713 52.0 
135.314011 204.0 
135.514893 60.0 
135.571915 144.0 
135.603912 100.0 
135.663269 144.0 
135.690689 116.0 
135.723373 116.0 
135.960388 68.0 
136.038986 32088.0 
136.071304 180.0 
136.081711 140.0 
136.093033 92.0 
136.118729 984.0 
136.170807 124.0 
136.216629 52.0 
136.32193 52.0 
136.347092 80.0 
136.470764 80.0 
136.489075 116.0 
136.53035 64.0 
136.890305 96.0 
136.901764 112.0 
136.963715 128.0 
136.998154 92.0 
137.043137 2524.0 
137.058395 1556.0 
137.095734 2512.0 
137.132767 5944.0 
137.15657 120.0 
137.340363 88.0 
137.370255 72.0 
137.878632 148.0 
137.899338 184.0 
138.015396 240.0 
138.026016 208.0 
138.054153 880.0 
138.089828 476.0 
138.101593 364.0 
138.137222 652.0 
138.189682 92.0 
138.367233 116.0 
138.651138 52.0 
138.685776 52.0 
138.872849 124.0 
138.993073 88.0 
139.046768 120.0 
139.058624 324.0 
139.075439 1692.0 
139.085968 5300.0 
139.111633 1960.0 
139.148499 1676.0 
139.173431 128.0 
139.191971 72.0 
139.304718 136.0 
139.451218 76.0 
139.798782 72.0 
139.849777 100.0 
140.035675 804.0 
140.07077 4260.0 
140.09024 276.0 
140.11676 564.0 
140.130508 160.0 
140.151352 340.0 
140.274506 72.0 
140.406906 104.0 
140.704514 68.0 
141.014053 68.0 
141.039642 104.0 
141.07132 372.0 
141.090912 1700.0 
141.12439 532.0 
141.158966 152.0 
141.167374 440.0 
141.55249 68.0 
141.594452 116.0 
142.012466 92.0 
142.050613 240.0 
142.0858 1780.0 
142.105927 164.0 
142.14566 160.0 
142.164307 108.0 
143.051895 176.0 
143.081589 296.0 
143.090073 284.0 
143.110565 108.0 
143.139343 132.0 
143.150681 148.0 
143.354645 112.0 
143.436829 128.0 
143.721161 88.0 
144.27179 100.0 
144.549896 52.0 
144.795197 64.0 
144.847107 60.0 
145.065262 104.0 
145.100128 376.0 
145.397507 108.0 
145.525253 52.0 
145.610382 136.0 
146.041824 164.0 
146.110016 92.0 
146.177444 96.0 
146.382843 92.0 
146.560822 112.0 
146.995575 152.0 
147.054123 128.0 
147.076263 6152.0 
147.11702 2668.0 
147.135895 144.0 
147.158203 68.0 
147.1978 52.0 
147.991119 56.0 
148.036438 76.0 
148.060974 568.0 
148.082581 532.0 
148.11998 356.0 
148.217804 116.0 
148.332443 64.0 
148.645462 96.0 
148.686111 92.0 
148.922928 84.0 
149.019348 124.0 
149.03302 96.0 
149.049789 100.0 
149.068893 520.0 
149.095352 220.0 
149.131851 6800.0 
149.157501 164.0 
149.203079 52.0 
149.24379 64.0 
149.375549 108.0 
149.725708 64.0 
150.055801 208.0 
150.067993 136.0 
150.09256 264.0 
150.112244 112.0 
150.135742 928.0 
150.395889 112.0 
150.674988 100.0 
150.930237 112.0 
150.97847 60.0 
151.050018 3972.0 
151.07399 2084.0 
151.084671 752.0 
151.112122 1604.0 
151.147522 4416.0 
151.168839 124.0 
151.241165 136.0 
151.277374 76.0 
151.364243 56.0 
151.431808 52.0 
151.992142 92.0 
152.05426 224.0 
152.068481 912.0 
152.093674 148.0 
152.108246 548.0 
152.150314 888.0 
152.304138 140.0 
152.415512 88.0 
152.483276 160.0 
152.820053 136.0 
153.065628 13444.0 
153.090515 1172.0 
153.127869 1128.0 
153.163361 932.0 
153.22522 56.0 
153.485001 156.0 
153.577362 88.0 
153.880066 88.0 
154.04924 1040.0 
154.069427 624.0 
154.085953 988.0 
154.128677 236.0 
154.162888 124.0 
154.709457 112.0 
155.024246 148.0 
155.046112 404.0 
155.070969 316.0 
155.085037 104.0 
155.104965 440.0 
155.143646 608.0 
155.156494 276.0 
155.174347 324.0 
155.378525 72.0 
155.48851 136.0 
155.977982 72.0 
156.031921 112.0 
156.047836 216.0 
156.063858 752.0 
156.078583 140.0 
156.100906 412.0 
156.134735 116.0 
156.151901 100.0 
156.298981 76.0 
156.585938 84.0 
156.671814 112.0 
156.777374 116.0 
157.01564 108.0 
157.027893 200.0 
157.059174 368.0 
157.082016 236.0 
157.097366 4608.0 
157.122421 144.0 
157.15329 104.0 
157.288513 112.0 
157.416458 64.0 
157.731491 172.0 
157.788193 64.0 
157.844864 52.0 
157.935989 108.0 
157.999222 140.0 
158.044907 5532.0 
158.081894 6164.0 
158.097641 820.0 
159.044937 332.0 
159.084015 820.0 
159.11618 112.0 
159.309189 108.0 
159.844269 80.0 
159.871552 80.0 
160.038849 188.0 
160.084793 248.0 
160.096268 312.0 
160.118134 128.0 
160.161774 84.0 
160.191574 68.0 
160.238739 56.0 
160.308167 224.0 
160.405075 80.0 
161.041473 140.0 
161.068802 320.0 
161.090881 168.0 
161.103714 104.0 
161.132828 2200.0 
161.210739 156.0 
161.28299 96.0 
161.836304 120.0 
162.058411 124.0 
162.095886 192.0 
162.110825 152.0 
162.130417 136.0 
162.139389 392.0 
162.835724 108.0 
162.910797 108.0 
162.953354 116.0 
163.05368 440.0 
163.077148 220.0 
163.091003 296.0 
163.108414 504.0 
163.147232 5396.0 
163.268921 108.0 
163.815628 84.0 
164.049103 132.0 
164.072403 168.0 
164.084259 156.0 
164.109436 284.0 
164.15094 896.0 
164.483902 136.0 
164.680145 116.0 
164.74556 164.0 
165.047775 84.0 
165.069061 188.0 
165.088425 916.0 
165.106445 148.0 
165.126297 1548.0 
165.164276 2872.0 
165.231033 168.0 
165.367828 184.0 
165.933243 68.0 
165.993835 148.0 
166.056229 184.0 
166.069672 80.0 
166.084076 332.0 
166.117691 80.0 
166.13205 188.0 
166.165344 528.0 
166.213272 112.0 
166.276917 160.0 
166.312332 124.0 
166.337662 64.0 
166.367996 80.0 
166.390762 84.0 
166.413513 120.0 
166.53244 104.0 
166.54512 64.0 
166.626495 76.0 
166.67421 68.0 
166.831223 56.0 
166.848953 56.0 
166.881882 56.0 
166.960358 160.0 
166.990814 76.0 
167.013596 108.0 
167.036407 92.0 
167.04657 72.0 
167.060547 248.0 
167.081787 117724.0 
167.112534 148.0 
167.141846 668.0 
167.176712 656.0 
167.191101 136.0 
167.205368 64.0 
167.226578 64.0 
167.239182 200.0 
167.249374 80.0 
167.289963 68.0 
167.498016 60.0 
167.510712 56.0 
167.523376 88.0 
167.626053 76.0 
167.764618 56.0 
167.795059 96.0 
167.902588 88.0 
167.970367 128.0 
167.99324 116.0 
168.030228 124.0 
168.065674 1104.0 
168.084244 8792.0 
168.111801 248.0 
168.133087 80.0 
168.147324 168.0 
168.181564 152.0 
168.247559 56.0 
168.293335 64.0 
168.395126 52.0 
168.542725 72.0 
168.779556 92.0 
169.060059 120.0 
169.071808 204.0 
169.085037 796.0 
169.093872 848.0 
169.123596 344.0 
169.158066 536.0 
169.187408 108.0 
169.202698 144.0 
169.215515 52.0 
169.233368 60.0 
169.281967 120.0 
169.355804 96.0 
169.388992 72.0 
169.45282 64.0 
170.012299 88.0 
170.078232 2212.0 
170.117767 232.0 
170.193893 84.0 
170.204147 60.0 
170.329529 64.0 
170.739212 124.0 
171.077118 1668.0 
171.097168 112.0 
171.107452 132.0 
171.140015 208.0 
171.173813 240.0 
171.195633 100.0 
171.331665 68.0 
171.488205 220.0 
171.549866 172.0 
171.796585 60.0 
172.076782 204.0 
172.093109 200.0 
173.060257 1428.0 
173.098953 116.0 
173.134506 108.0 
173.34996 64.0 
173.644394 108.0 
174.057312 228.0 
175.052979 84.0 
175.068527 128.0 
175.094437 204.0 
175.107468 96.0 
175.118668 112.0 
175.147797 632.0 
176.037689 88.0 
176.054138 156.0 
176.11055 88.0 
176.149124 260.0 
176.194992 140.0 
177.064941 180.0 
177.088196 120.0 
177.117645 224.0 
177.13063 328.0 
177.142593 92.0 
177.165024 3652.0 
177.811371 88.0 
178.067703 124.0 
178.083389 156.0 
178.100906 180.0 
178.124603 216.0 
178.171524 456.0 
178.43428 68.0 
178.709412 96.0 
178.824768 96.0 
178.937531 128.0 
178.984802 64.0 
179.04454 3788.0 
179.080322 5188.0 
179.10556 572.0 
179.142975 648.0 
179.178497 1748.0 
179.336533 56.0 
179.501968 116.0 
179.725403 56.0 
179.785858 72.0 
179.80162 80.0 
179.919983 68.0 
180.048904 488.0 
180.061371 212.0 
180.068954 352.0 
180.084671 724.0 
180.097778 264.0 
180.11113 700.0 
180.142212 116.0 
180.164688 64.0 
180.182938 352.0 
180.301605 52.0 
180.812759 96.0 
180.847015 136.0 
180.886551 180.0 
180.933716 140.0 
180.94458 172.0 
181.061584 96.0 
181.095093 464.0 
181.119827 344.0 
181.159149 804.0 
181.191666 336.0 
181.480545 52.0 
182.075348 152.0 
182.095154 164.0 
182.113968 120.0 
182.11879 180.0 
182.165329 204.0 
182.189178 96.0 
182.393036 116.0 
182.42215 156.0 
182.456619 92.0 
182.98938 148.0 
183.076736 248.0 
183.100723 88.0 
183.131821 280.0 
183.14415 112.0 
183.172989 1640.0 
183.188797 260.0 
183.209671 76.0 
183.318512 76.0 
183.422073 72.0 
183.592056 128.0 
183.690399 92.0 
183.775482 64.0 
183.794098 56.0 
183.908356 184.0 
184.059509 100.0 
184.096497 284.0 
184.116806 124.0 
184.169113 80.0 
184.179672 320.0 
184.203735 64.0 
184.367722 80.0 
184.427368 64.0 
184.480576 144.0 
184.491272 80.0 
184.528564 80.0 
184.547165 156.0 
184.573486 212.0 
184.585617 68.0 
184.600494 76.0 
184.621796 92.0 
184.632462 84.0 
184.645798 64.0 
184.67244 80.0 
184.715103 52.0 
184.744247 68.0 
184.767624 192.0 
184.800369 88.0 
184.836441 140.0 
184.863724 124.0 
184.88829 180.0 
184.903793 196.0 
184.928329 116.0 
185.003021 88.0 
185.028488 172.0 
185.045364 124.0 
185.055618 284.0 
185.092285 203160.0 
185.134735 284.0 
185.152191 144.0 
185.159164 224.0 
185.169083 148.0 
185.188614 284.0 
185.205826 52.0 
185.221756 152.0 
185.238968 108.0 
185.263443 112.0 
185.2845 52.0 
185.293793 264.0 
185.310425 116.0 
185.323898 80.0 
185.355698 128.0 
185.374603 52.0 
185.395309 92.0 
185.416702 60.0 
185.454391 68.0 
185.486893 120.0 
185.533295 372.0 
185.600998 52.0 
185.619629 148.0 
185.635727 64.0 
185.654388 104.0 
185.71051 96.0 
185.770264 132.0 
185.788025 84.0 
185.806686 180.0 
185.817413 100.0 
185.836121 108.0 
185.886948 68.0 
185.906326 160.0 
185.932373 100.0 
185.98587 80.0 
186.036682 88.0 
186.075928 1588.0 
186.095062 18184.0 
186.149002 140.0 
186.165024 224.0 
186.19986 108.0 
186.290878 80.0 
186.30423 112.0 
186.328339 92.0 
186.373871 60.0 
186.384567 76.0 
186.40419 84.0 
186.440826 52.0 
186.480942 96.0 
186.545258 60.0 
186.72467 180.0 
186.76973 100.0 
186.8936 60.0 
187.047836 112.0 
187.077835 364.0 
187.095795 2228.0 
187.120682 240.0 
187.132278 60.0 
187.147308 72.0 
187.212723 104.0 
187.298599 92.0 
187.309326 108.0 
187.35498 64.0 
187.389877 68.0 
187.401855 120.0 
187.426651 136.0 
187.432556 80.0 
187.459625 136.0 
187.470413 76.0 
187.502655 52.0 
187.526794 76.0 
187.559036 72.0 
187.779297 96.0 
187.956711 72.0 
188.018509 116.0 
188.087219 96.0 
188.100357 360.0 
188.217606 56.0 
188.354797 84.0 
188.971649 56.0 
189.125549 208.0 
189.163071 1652.0 
189.424759 100.0 
189.659637 88.0 
190.06813 128.0 
190.083862 104.0 
190.101547 152.0 
190.120331 132.0 
190.164352 228.0 
190.26506 84.0 
191.082809 116.0 
191.105286 248.0 
191.128876 136.0 
191.180847 1056.0 
191.19783 104.0 
191.549362 76.0 
191.644318 164.0 
192.07077 132.0 
192.136017 120.0 
192.149628 92.0 
192.177948 160.0 
192.18689 332.0 
192.405197 136.0 
192.503174 84.0 
192.514053 80.0 
193.055344 144.0 
193.083099 128.0 
193.093964 192.0 
193.122421 392.0 
193.160599 880.0 
193.194855 1256.0 
194.062531 212.0 
194.080765 168.0 
194.121277 212.0 
194.133591 156.0 
194.164078 132.0 
194.177338 104.0 
194.197769 532.0 
194.401489 84.0 
194.636673 128.0 
194.896683 84.0 
195.076828 880.0 
195.098114 80.0 
195.126633 264.0 
195.142365 196.0 
195.173599 904.0 
195.211578 188.0 
195.524109 84.0 
196.067398 108.0 
196.079361 220.0 
196.104385 88.0 
196.129364 144.0 
196.180099 308.0 
196.201141 252.0 
196.21846 92.0 
196.630722 80.0 
196.856262 88.0 
197.057861 80.0 
197.092316 1772.0 
197.153442 260.0 
197.191696 356.0 
197.21817 84.0 
197.310516 80.0 
197.42897 88.0 
197.762543 60.0 
197.900436 64.0 
198.080978 176.0 
198.093918 228.0 
198.1129 80.0 
198.201431 136.0 
198.626648 52.0 
198.891968 164.0 
198.972198 124.0 
199.068527 280.0 
199.095276 184.0 
199.170013 136.0 
199.207397 112.0 
199.226746 148.0 
199.520294 92.0 
200.374359 68.0 
200.860458 52.0 
201.088257 128.0 
201.127319 80.0 
201.161362 356.0 
201.277481 132.0 
202.065628 76.0 
202.093491 88.0 
202.125183 120.0 
202.188278 92.0 
202.877625 68.0 
203.099197 192.0 
203.123474 84.0 
203.179581 2204.0 
203.386276 76.0 
203.503738 100.0 
204.041183 136.0 
204.052383 128.0 
204.069229 80.0 
204.122437 104.0 
204.180069 412.0 
204.200882 128.0 
204.293427 56.0 
204.694382 104.0 
204.902023 144.0 
205.050858 108.0 
205.067657 172.0 
205.092941 160.0 
205.112656 88.0 
205.129471 128.0 
205.155365 112.0 
205.177231 112.0 
205.195572 1064.0 
205.472275 104.0 
205.657852 100.0 
205.944809 80.0 
205.989853 64.0 
206.063019 88.0 
206.091827 840.0 
206.153107 84.0 
206.201462 248.0 
206.431976 52.0 
206.992981 128.0 
207.075333 4316.0 
207.141144 188.0 
207.173477 1464.0 
207.212265 512.0 
207.23848 160.0 
207.649841 144.0 
207.984467 88.0 
208.084 860.0 
208.104828 284.0 
208.134872 132.0 
208.150009 108.0 
208.177994 252.0 
208.209747 264.0 
208.972595 144.0 
209.060516 112.0 
209.084763 144.0 
209.11441 76.0 
209.153076 100.0 
209.173935 116.0 
209.188721 600.0 
209.222183 88.0 
209.593918 88.0 
209.64502 92.0 
209.840958 136.0 
209.886459 72.0 
210.088181 100.0 
210.143692 156.0 
210.157593 236.0 
210.179169 84.0 
210.190521 108.0 
210.22113 316.0 
211.075394 180.0 
211.174316 188.0 
211.20195 292.0 
211.377731 108.0 
212.085403 84.0 
212.106842 124.0 
212.131058 148.0 
212.168228 92.0 
212.209076 124.0 
212.232315 160.0 
212.371033 172.0 
212.388245 72.0 
213.087219 112.0 
213.186707 232.0 
213.435501 72.0 
214.129349 100.0 
214.758224 116.0 
215.108139 304.0 
215.123367 92.0 
215.186646 104.0 
215.770996 104.0 
216.102356 148.0 
216.134094 92.0 
216.275345 148.0 
217.014282 100.0 
217.056122 84.0 
217.084076 108.0 
217.132767 72.0 
217.158752 108.0 
217.191315 472.0 
217.219437 112.0 
217.494141 56.0 
217.829666 136.0 
218.081604 64.0 
218.101868 72.0 
218.203888 120.0 
218.330719 72.0 
219.041183 84.0 
219.14563 144.0 
219.176315 112.0 
219.211472 2500.0 
219.247223 188.0 
219.328552 140.0 
219.485489 60.0 
219.627823 92.0 
219.712097 108.0 
220.213715 544.0 
220.934616 112.0 
221.094971 96.0 
221.109512 140.0 
221.12709 56.0 
221.152252 392.0 
221.187164 912.0 
221.225754 1780.0 
222.080917 116.0 
222.090393 100.0 
222.122543 96.0 
222.145905 124.0 
222.160614 120.0 
222.191528 336.0 
222.225861 484.0 
222.631363 108.0 
223.070114 776.0 
223.112076 132.0 
223.142471 240.0 
223.148163 328.0 
223.168121 164.0 
223.20343 696.0 
223.246536 180.0 
223.260834 176.0 
223.468979 92.0 
223.85907 60.0 
223.879562 104.0 
224.066467 212.0 
224.077484 300.0 
224.102798 804.0 
224.149048 172.0 
224.159256 248.0 
224.201004 236.0 
224.211929 180.0 
224.235825 528.0 
224.854782 84.0 
225.060638 116.0 
225.08728 3024.0 
225.146988 120.0 
225.165268 96.0 
225.175308 276.0 
225.186401 136.0 
225.221771 344.0 
225.24382 176.0 
225.265213 84.0 
225.853271 68.0 
225.997116 128.0 
226.084152 96.0 
226.14621 100.0 
226.185852 112.0 
226.202011 224.0 
226.386475 72.0 
226.44252 92.0 
226.563553 68.0 
226.66098 52.0 
226.99765 68.0 
227.071503 92.0 
227.087631 136.0 
227.115768 160.0 
227.163116 92.0 
227.204468 116.0 
228.023987 116.0 
228.038773 128.0 
228.465378 176.0 
228.788681 52.0 
229.085098 128.0 
229.1595 164.0 
229.19516 112.0 
229.492126 108.0 
230.074738 132.0 
230.113464 72.0 
231.072311 80.0 
231.137863 128.0 
231.176651 88.0 
231.206665 576.0 
231.221375 320.0 
232.173553 108.0 
232.204895 120.0 
232.233292 152.0 
232.454559 68.0 
232.5233 84.0 
232.54126 72.0 
232.666794 192.0 
233.064835 112.0 
233.174026 108.0 
233.190582 112.0 
233.225815 9776.0 
233.268814 136.0 
233.325378 92.0 
233.654999 92.0 
233.834854 112.0 
233.855911 60.0 
234.107819 120.0 
234.149826 108.0 
234.230865 1628.0 
234.280853 184.0 
234.299927 76.0 
234.365997 56.0 
234.624222 72.0 
235.038925 72.0 
235.06897 88.0 
235.100632 136.0 
235.126938 160.0 
235.144104 116.0 
235.157562 100.0 
235.16864 460.0 
235.2043 932.0 
235.241028 8976.0 
235.360626 192.0 
235.613464 96.0 
235.986816 160.0 
236.071259 60.0 
236.134491 92.0 
236.167633 108.0 
236.207596 308.0 
236.244659 1556.0 
236.55658 80.0 
236.716461 72.0 
237.063522 108.0 
237.087662 128.0 
237.166153 148.0 
237.190292 200.0 
237.219986 424.0 
237.239029 284.0 
237.803879 64.0 
238.079132 76.0 
238.151718 120.0 
238.224304 180.0 
238.248581 88.0 
238.34845 140.0 
238.775558 88.0 
238.981674 72.0 
239.066467 208.0 
239.101883 172.0 
239.181717 148.0 
239.206894 232.0 
239.235336 2592.0 
239.327362 92.0 
239.494247 84.0 
239.96489 68.0 
240.105484 148.0 
240.15271 120.0 
240.201843 108.0 
240.237045 628.0 
240.405487 160.0 
240.591019 120.0 
241.053589 116.0 
241.099304 72.0 
241.19368 88.0 
241.246536 120.0 
241.370331 116.0 
242.114944 1124.0 
243.006088 100.0 
243.118011 212.0 
243.562759 108.0 
243.740356 56.0 
243.88118 80.0 
244.120041 152.0 
244.16301 72.0 
245.089233 108.0 
245.178329 68.0 
245.231323 144.0 
245.251907 244.0 
246.118774 100.0 
246.131104 84.0 
246.226456 108.0 
246.980896 144.0 
247.048706 136.0 
247.091339 104.0 
247.175125 104.0 
247.205917 268.0 
247.218216 224.0 
247.240646 768.0 
247.307724 96.0 
247.480453 92.0 
247.711899 68.0 
247.75206 52.0 
247.934143 88.0 
248.088547 108.0 
248.184372 52.0 
248.20282 124.0 
248.243484 120.0 
248.431519 100.0 
248.542847 60.0 
248.616989 108.0 
248.879913 80.0 
248.985107 84.0 
249.118118 148.0 
249.133667 72.0 
249.161499 92.0 
249.184464 620.0 
249.221649 1140.0 
249.258133 4304.0 
249.415451 52.0 
249.526855 144.0 
249.542374 100.0 
249.62294 80.0 
249.638428 96.0 
249.759262 104.0 
249.852249 96.0 
249.87088 76.0 
250.080933 940.0 
250.121979 124.0 
250.176193 216.0 
250.192932 124.0 
250.220703 528.0 
250.262009 1140.0 
250.323654 68.0 
250.351593 60.0 
250.485016 76.0 
250.622513 68.0 
250.817215 72.0 
250.854507 52.0 
250.932159 56.0 
251.062576 116.0 
251.095062 144.0 
251.120605 96.0 
251.129333 124.0 
251.149612 88.0 
251.18689 112.0 
251.199341 92.0 
251.237289 18296.0 
251.342346 72.0 
251.376572 52.0 
251.588043 56.0 
251.790192 104.0 
251.905411 52.0 
251.9832 68.0 
252.00502 52.0 
252.062347 84.0 
252.076553 104.0 
252.094177 176.0 
252.129501 88.0 
252.19426 100.0 
252.23877 3924.0 
252.271301 352.0 
252.285141 180.0 
252.300812 68.0 
252.324966 104.0 
252.537598 68.0 
252.964737 52.0 
253.036438 80.0 
253.083588 744.0 
253.108231 52.0 
253.123703 176.0 
253.139374 88.0 
253.176804 100.0 
253.20018 140.0 
253.213242 168.0 
253.250031 2228.0 
253.513931 80.0 
253.813782 60.0 
253.882492 80.0 
254.054398 64.0 
254.085983 96.0 
254.214188 132.0 
254.229462 68.0 
254.253098 436.0 
254.27887 108.0 
254.294052 256.0 
254.751862 84.0 
254.964752 76.0 
255.068069 104.0 
255.102524 100.0 
255.171448 88.0 
255.221542 124.0 
255.237213 108.0 
255.256027 88.0 
255.292145 84.0 
255.494232 60.0 
256.592438 104.0 
257.111969 140.0 
257.125793 220.0 
257.180206 80.0 
257.217865 188.0 
257.243073 112.0 
257.519989 52.0 
257.532501 112.0 
258.193787 120.0 
258.230103 84.0 
258.67926 124.0 
258.777039 128.0 
259.102142 72.0 
259.208038 68.0 
259.241425 12688.0 
259.320007 52.0 
259.354675 100.0 
259.711731 60.0 
259.800232 56.0 
259.831818 56.0 
260.110016 96.0 
260.201752 92.0 
260.2453 2972.0 
261.097717 80.0 
261.148438 72.0 
261.219879 304.0 
261.25174 388.0 
261.260956 852.0 
261.278717 152.0 
261.899994 104.0 
261.992035 92.0 
262.090454 96.0 
262.122131 200.0 
262.216675 116.0 
262.252502 316.0 
262.280945 104.0 
262.566895 84.0 
262.833893 60.0 
263.098602 208.0 
263.15509 68.0 
263.201324 236.0 
263.236206 484.0 
263.26474 120.0 
263.278625 104.0 
263.460571 60.0 
264.036926 152.0 
264.052948 52.0 
264.126801 108.0 
264.166107 164.0 
264.197906 168.0 
264.230743 136.0 
264.243835 200.0 
264.265289 504.0 
265.111908 100.0 
265.166168 108.0 
265.22052 60.0 
265.257782 768.0 
266.111084 116.0 
266.199585 116.0 
266.212341 176.0 
266.252472 164.0 
266.263397 152.0 
266.291382 136.0 
266.970245 84.0 
267.111267 88.0 
267.198242 108.0 
267.239441 112.0 
267.268066 2836.0 
267.791168 64.0 
267.868134 124.0 
268.090149 476.0 
268.237366 96.0 
268.27182 880.0 
268.34021 64.0 
269.098114 300.0 
269.127747 112.0 
269.224152 92.0 
269.253693 324.0 
269.283691 144.0 
269.687836 76.0 
270.242859 144.0 
270.270966 152.0 
271.103455 72.0 
271.145386 88.0 
271.22583 80.0 
272.215302 76.0 
272.448303 64.0 
273.251434 116.0 
274.088562 104.0 
274.114563 80.0 
274.163269 64.0 
274.224915 108.0 
274.250488 100.0 
274.543274 96.0 
274.689484 120.0 
274.702515 84.0 
275.118713 76.0 
275.161041 56.0 
275.196747 120.0 
275.233673 852.0 
275.298798 128.0 
275.313843 140.0 
275.486359 96.0 
275.883575 116.0 
276.209442 68.0 
276.227264 112.0 
276.240723 268.0 
276.271912 148.0 
276.408295 68.0 
276.678864 152.0 
276.724609 84.0 
276.757263 52.0 
276.796417 52.0 
276.850952 116.0 
276.930176 64.0 
277.001923 96.0 
277.015045 64.0 
277.076202 208.0 
277.110962 116.0 
277.210815 148.0 
277.253326 53480.0 
277.312317 144.0 
277.347931 184.0 
277.373199 180.0 
277.393738 84.0 
277.410828 128.0 
277.436157 136.0 
277.452515 88.0 
277.511353 72.0 
277.527679 68.0 
277.548523 80.0 
277.597076 104.0 
277.627625 68.0 
277.664825 152.0 
277.74707 68.0 
277.910278 60.0 
278.106171 104.0 
278.129089 84.0 
278.214661 360.0 
278.255676 10200.0 
278.312286 64.0 
278.495422 164.0 
278.740997 92.0 
278.813202 76.0 
278.842499 72.0 
279.006226 96.0 
279.094574 252.0 
279.130737 80.0 
279.20694 120.0 
279.257843 1348.0 
279.265656 1456.0 
279.282593 548.0 
279.298553 152.0 
279.320801 72.0 
279.501099 68.0 
279.733917 64.0 
279.789703 60.0 
279.842163 68.0 
279.983246 60.0 
280.06189 180.0 
280.137512 56.0 
280.163269 1608.0 
280.185455 156.0 
280.216187 152.0 
280.242462 136.0 
280.269592 480.0 
280.305267 144.0 
280.341003 80.0 
281.112183 140.0 
281.156281 92.0 
281.178162 344.0 
281.245026 644.0 
281.316986 108.0 
282.103607 120.0 
282.166199 116.0 
282.192566 108.0 
282.209015 120.0 
282.255066 256.0 
282.272949 468.0 
282.284546 356.0 
283.253571 232.0 
283.267365 96.0 
283.449036 120.0 
283.690155 64.0 
283.789215 88.0 
283.80249 60.0 
283.908203 68.0 
284.073425 60.0 
284.26123 332.0 
285.118774 100.0 
285.221039 196.0 
285.264496 220.0 
285.691925 76.0 
286.14621 80.0 
286.219208 64.0 
286.232422 120.0 
286.250488 104.0 
287.108948 128.0 
287.235809 984.0 
287.351624 76.0 
287.903656 128.0 
288.228119 92.0 
288.242859 248.0 
288.263428 128.0 
288.272034 84.0 
288.29306 152.0 
288.546204 120.0 
289.24881 716.0 
289.406311 68.0 
289.543091 92.0 
289.816772 84.0 
290.145813 300.0 
290.248901 228.0 
290.277588 172.0 
290.886078 72.0 
291.153656 100.0 
291.23291 104.0 
291.263641 512.0 
291.30423 104.0 
291.695984 104.0 
292.223785 224.0 
292.265686 1640.0 
292.299164 88.0 
292.3461 80.0 
292.668091 68.0 
293.064026 124.0 
293.160248 180.0 
293.246368 1028.0 
293.264526 1024.0 
293.329376 68.0 
293.356201 84.0 
293.453156 84.0 
293.692169 92.0 
293.981293 60.0 
294.06189 152.0 
294.09552 188.0 
294.108704 132.0 
294.149414 76.0 
294.179626 120.0 
294.248718 276.0 
294.276611 844.0 
294.431061 88.0 
294.549774 80.0 
294.56665 52.0 
294.606995 88.0 
294.708008 56.0 
294.724854 60.0 
294.751801 52.0 
294.866241 68.0 
294.988708 116.0 
294.999176 84.0 
295.038025 56.0 
295.061584 64.0 
295.075043 76.0 
295.091827 132.0 
295.106079 116.0 
295.161133 96.0 
295.176056 124.0 
295.216522 92.0 
295.263428 59112.0 
295.339264 148.0 
295.353973 136.0 
295.378326 60.0 
295.398438 168.0 
295.459106 144.0 
295.478088 60.0 
295.489471 124.0 
295.533325 84.0 
295.545135 52.0 
295.583069 56.0 
295.597382 84.0 
295.667389 104.0 
295.685089 72.0 
295.708679 68.0 
295.782898 60.0 
295.817871 68.0 
295.87735 52.0 
295.917267 76.0 
295.951447 132.0 
295.979828 76.0 
296.069611 84.0 
296.124603 84.0 
296.266754 11376.0 
296.326019 160.0 
296.339661 52.0 
296.378479 88.0 
296.461182 60.0 
296.542175 80.0 
296.616486 84.0 
296.785339 108.0 
296.869812 108.0 
297.021912 76.0 
297.045593 52.0 
297.222595 120.0 
297.271362 1204.0 
297.311279 104.0 
297.32724 84.0 
297.711761 76.0 
297.925018 52.0 
297.95755 96.0 
298.03775 92.0 
298.060333 92.0 
298.073883 96.0 
298.097626 60.0 
298.121307 88.0 
298.158569 64.0 
298.178833 96.0 
298.246552 132.0 
298.267365 320.0 
298.282104 228.0 
298.321136 64.0 
299.043549 52.0 
299.239655 136.0 
299.272705 108.0 
299.806427 124.0 
300.244629 108.0 
301.271637 148.0 
301.526947 176.0 
301.898376 52.0 
301.973297 68.0 
302.147095 88.0 
302.228912 92.0 
302.488037 108.0 
302.75415 76.0 
302.805328 80.0 
303.102264 88.0 
303.115936 80.0 
303.208069 124.0 
303.230804 984.0 
303.27536 104.0 
303.72052 96.0 
304.093201 60.0 
304.23526 452.0 
304.262238 480.0 
304.401062 52.0 
304.494812 100.0 
304.654297 56.0 
304.685059 76.0 
304.767273 52.0 
304.897339 64.0 
305.133636 84.0 
305.157562 136.0 
305.18161 68.0 
305.207397 112.0 
305.247955 26580.0 
305.340698 124.0 
305.378906 60.0 
305.462616 52.0 
305.568878 56.0 
305.610016 52.0 
305.69223 100.0 
305.891174 60.0 
305.932312 80.0 
306.038635 84.0 
306.059265 52.0 
306.124359 128.0 
306.22052 60.0 
306.253448 5480.0 
306.277466 3340.0 
306.355835 56.0 
306.381744 112.0 
306.402374 88.0 
306.673645 68.0 
306.707947 100.0 
306.831604 84.0 
307.051544 52.0 
307.085876 72.0 
307.123596 124.0 
307.202759 56.0 
307.261841 1016.0 
307.279327 792.0 
307.30127 164.0 
307.367737 60.0 
307.580902 92.0 
307.763214 80.0 
307.837677 96.0 
308.158142 1056.0 
308.210571 100.0 
308.262115 444.0 
308.29129 252.0 
308.302521 260.0 
308.420685 56.0 
308.985718 72.0 
309.158447 312.0 
309.175873 320.0 
309.192566 72.0 
309.286224 588.0 
310.176544 300.0 
310.241669 108.0 
310.27359 4892.0 
310.321228 116.0 
310.424683 184.0 
310.708191 72.0 
311.074707 68.0 
311.173798 108.0 
311.209656 52.0 
311.237244 104.0 
311.274963 776.0 
311.31131 340.0 
311.406799 84.0 
311.676697 156.0 
311.957275 92.0 
312.123352 112.0 
312.277649 256.0 
312.294403 140.0 
313.123474 104.0 
313.281738 96.0 
313.301331 68.0 
314.236969 100.0 
314.390015 60.0 
314.842163 80.0 
315.702179 100.0 
316.061218 64.0 
316.262817 1816.0 
317.121948 52.0 
317.270264 684.0 
317.306976 120.0 
318.248352 208.0 
318.273102 372.0 
319.245178 80.0 
319.264679 128.0 
319.280121 176.0 
319.297913 120.0 
319.760468 72.0 
319.963837 92.0 
320.233978 108.0 
320.251221 160.0 
320.297119 132.0 
320.638885 136.0 
320.964325 100.0 
321.254517 132.0 
321.28064 68.0 
321.301727 80.0 
321.73764 164.0 
322.096588 88.0 
322.18811 92.0 
322.230316 108.0 
322.247925 108.0 
322.27179 2368.0 
322.306885 288.0 
322.325439 60.0 
322.737518 52.0 
323.206146 104.0 
323.256897 2148.0 
323.271362 1128.0 
323.304932 68.0 
323.325989 140.0 
323.763489 56.0 
324.158752 84.0 
324.172852 100.0 
324.258331 224.0 
324.289368 2700.0 
324.381226 96.0 
324.801636 92.0 
325.024323 120.0 
325.260468 88.0 
325.290619 956.0 
326.280609 104.0 
326.684601 60.0 
327.230621 92.0 
327.301544 104.0 
329.27002 64.0 
329.294922 68.0 
329.629456 104.0 
330.270569 184.0 
330.287872 100.0 
330.316986 80.0 
330.352661 60.0 
330.737732 60.0 
331.237152 88.0 
331.376373 72.0 
331.708374 132.0 
331.940643 72.0 
332.019257 68.0 
332.412445 52.0 
332.508942 88.0 
332.902405 84.0 
333.088531 52.0 
333.174347 116.0 
333.296051 108.0 
333.356995 64.0 
333.887085 80.0 
334.084167 84.0 
334.112885 64.0 
334.170197 88.0 
334.226349 84.0 
334.274384 28160.0 
334.340332 56.0 
334.367401 76.0 
334.400574 160.0 
334.431915 100.0 
334.518066 60.0 
334.550354 60.0 
334.571838 72.0 
334.683044 76.0 
334.701019 60.0 
334.722534 60.0 
334.772705 92.0 
334.833771 64.0 
334.95578 56.0 
334.977295 68.0 
335.120789 132.0 
335.153107 144.0 
335.277679 5344.0 
335.404419 196.0 
335.469177 72.0 
335.523071 64.0 
335.835693 52.0 
336.072754 156.0 
336.284393 2104.0 
336.331726 96.0 
336.425293 60.0 
336.644745 52.0 
336.727448 88.0 
337.155823 72.0 
337.256592 112.0 
337.287933 516.0 
337.384216 144.0 
337.425964 64.0 
337.51239 68.0 
337.789886 52.0 
338.268005 836.0 
338.305023 160.0 
339.268127 476.0 
339.341431 60.0 
340.143768 120.0 
340.291138 424.0 
340.324615 160.0 
341.113708 152.0 
341.271942 204.0 
341.294922 80.0 
342.26712 112.0 
342.280212 92.0 
342.299133 96.0 
343.028778 92.0 
343.126831 108.0 
343.26123 120.0 
344.257202 244.0 
344.274536 240.0 
344.297485 124.0 
345.167694 120.0 
345.317047 152.0 
346.214142 96.0 
346.276062 216.0 
346.319946 112.0 
346.458649 92.0 
347.200073 56.0 
347.302338 100.0 
347.327881 124.0 
347.697144 88.0 
347.88736 60.0 
348.279999 96.0 
348.524017 108.0 
348.710693 160.0 
349.022095 92.0 
349.117401 68.0 
349.597504 92.0 
350.088928 176.0 
350.202759 88.0 
350.283539 68.0 
350.43399 108.0 
351.113525 60.0 
351.186951 92.0 
351.275208 68.0 
351.458954 92.0 
351.951691 160.0 
352.058472 76.0 
352.148346 444.0 
352.284851 15820.0 
352.356476 148.0 
352.802094 88.0 
353.155914 184.0 
353.258942 128.0 
353.287262 4040.0 
353.483826 112.0 
353.53186 56.0 
353.655029 68.0 
353.738342 64.0 
353.800995 84.0 
354.243805 72.0 
354.290466 616.0 
354.502228 56.0 
355.28717 100.0 
355.325134 88.0 
355.411041 96.0 
356.254852 80.0 
357.16922 120.0 
357.291595 92.0 
358.155762 100.0 
358.274536 88.0 
359.143616 112.0 
359.305939 196.0 
360.713623 100.0 
361.231537 88.0 
361.339569 120.0 
361.850433 136.0 
362.269318 5464.0 
362.447571 104.0 
362.697723 108.0 
363.231995 92.0 
363.275208 1644.0 
363.306793 80.0 
363.456329 68.0 
363.548706 108.0 
364.166992 84.0 
364.234375 64.0 
364.270386 268.0 
364.282837 252.0 
365.279266 84.0 
365.305481 92.0 
365.624146 92.0 
365.747864 108.0 
366.329468 76.0 
366.520844 124.0 
366.892639 92.0 
367.302216 80.0 
368.099335 112.0 
368.321411 84.0 
368.355347 52.0 
369.291168 108.0 
370.282379 92.0 
370.311218 80.0 
370.326324 76.0 
371.285461 80.0 
371.300568 80.0 
372.090759 68.0 
373.161987 96.0 
373.283234 96.0 
373.317352 92.0 
373.332336 88.0 
374.295563 76.0 
376.263336 104.0 
376.290009 72.0 
376.799896 88.0 
377.26825 92.0 
377.733154 56.0 
378.259247 76.0 
378.739929 84.0 
379.205688 72.0 
379.297272 140.0 
379.32016 152.0 
380.28241 3208.0 
380.352173 80.0 
380.367523 52.0 
381.28421 1028.0 
381.314026 208.0 
382.056 64.0 
382.28772 272.0 
382.304993 264.0 
382.32428 104.0 
383.210602 76.0 
383.309204 188.0 
383.329498 140.0 
384.310425 904.0 
385.313843 124.0 
386.291595 108.0 
386.310883 96.0 
387.29599 88.0 
387.318695 104.0 
387.340607 164.0 
388.286865 80.0 
388.309998 116.0 
389.296021 100.0 
390.283264 116.0 
390.303009 148.0 
390.321991 144.0 
390.74054 120.0 
391.15155 112.0 
391.295105 88.0 
391.310486 196.0 
392.281036 84.0 
392.308258 60.0 
392.32373 92.0 
393.163177 84.0 
393.318756 76.0 
394.283783 104.0 
395.304749 60.0 
396.334656 92.0 
398.290009 872.0 
398.309784 136.0 
398.414307 92.0 
399.256317 100.0 
399.298431 204.0 
399.334656 120.0 
399.859955 100.0 
400.291473 76.0 
400.369904 104.0 
401.223785 96.0 
401.316833 468.0 
401.555847 60.0 
401.677643 76.0 
402.298767 140.0 
402.313538 100.0 
402.330322 364.0 
403.296082 100.0 
403.337891 100.0 
404.58725 132.0 
404.685883 120.0 
405.308319 136.0 
405.36084 64.0 
405.961212 56.0 
406.318909 84.0 
407.123627 80.0 
407.337311 80.0 
409.326569 88.0 
410.311066 108.0 
411.295044 212.0 
411.310303 320.0 
411.599182 56.0 
412.31955 80.0 
412.335358 164.0 
413.307068 84.0 
413.328491 152.0 
413.471161 60.0 
414.145325 64.0 
414.292938 96.0 
414.308929 76.0 
415.286102 156.0 
416.311066 112.0 
417.388092 100.0 
417.917114 84.0 
419.257172 80.0 
419.297333 76.0 
419.333405 112.0 
419.795471 52.0 
420.338013 72.0 
420.828674 68.0 
421.307495 72.0 
421.355774 84.0 
421.706055 88.0 
423.325012 764.0 
424.324341 344.0 
424.570129 72.0 
425.305786 96.0 
425.32608 72.0 
425.341248 200.0 
426.029999 108.0 
426.333618 112.0 
427.164154 64.0 
427.293854 68.0 
429.310669 796.0 
430.298645 192.0 
430.31781 100.0 
430.330292 88.0 
430.347565 92.0 
431.287903 52.0 
431.332489 184.0 
432.241394 60.0 
432.355438 108.0 
433.307465 236.0 
434.314819 168.0 
435.067169 112.0 
435.243134 80.0 
435.327881 100.0 
435.354858 196.0 
435.423126 100.0 
436.327942 100.0 
436.721313 68.0 
437.336182 100.0 
437.352661 64.0 
439.237 92.0 
439.290405 108.0 
439.306976 52.0 
439.352142 76.0 
441.337311 392.0 
442.332031 260.0 
443.158295 120.0 
443.319214 204.0 
443.340088 52.0 
443.381317 72.0 
444.678802 96.0 
445.208313 80.0 
445.709015 144.0 
446.388245 144.0 
446.467041 84.0 
447.321838 308.0 
447.332733 244.0 
448.300415 72.0 
448.322205 56.0 
448.351868 120.0 
449.326752 164.0 
449.663361 60.0 
450.320526 108.0 
450.358002 96.0 
451.315094 748.0 
451.624054 72.0 
452.07428 60.0 
452.170197 52.0 
452.315063 368.0 
453.359253 124.0 
453.530609 56.0 
455.625305 60.0 
456.366486 68.0 
456.420959 64.0 
456.819031 64.0 
457.104004 100.0 
457.254944 108.0 
457.30954 3800.0 
458.308777 1280.0 
458.434143 60.0 
459.232208 76.0 
459.314453 348.0 
459.43396 64.0 
459.53064 68.0 
460.304321 136.0 
460.328918 92.0 
460.590546 80.0 
460.889465 60.0 
461.870911 56.0 
462.043701 68.0 
462.342987 88.0 
463.271118 80.0 
463.338623 96.0 
463.358032 104.0 
464.639648 88.0 
465.320465 92.0 
468.3414 112.0 
468.396637 72.0 
469.3078 136.0 
469.344818 296.0 
470.338043 196.0 
470.691284 72.0 
471.33606 192.0 
471.84491 84.0 
472.339203 68.0 
472.897552 144.0 
473.264465 76.0 
473.375458 52.0 
474.391388 80.0 
475.321442 1316.0 
475.613617 160.0 
476.221222 84.0 
476.319977 636.0 
476.361115 152.0 
477.206055 52.0 
477.324188 112.0 
478.15744 100.0 
478.324768 60.0 
478.492035 64.0 
479.049713 128.0 
479.351105 248.0 
480.343262 224.0 
480.367767 84.0 
481.073456 108.0 
481.340179 112.0 
481.374664 76.0 
481.921295 52.0 
483.345917 64.0 
484.34787 136.0 
484.369537 80.0 
485.354034 84.0 
485.379974 84.0 
488.365631 72.0 
488.781708 80.0 
489.332428 112.0 
489.354187 76.0 
490.348938 80.0 
491.36911 72.0 
492.278015 76.0 
492.371765 100.0 
492.391205 60.0 
492.60434 92.0 
492.708923 52.0 
493.788849 128.0 
494.325012 116.0 
494.351227 80.0 
495.245483 68.0 
498.339844 196.0 
499.123932 84.0 
500.334991 124.0 
500.364563 80.0 
501.343201 104.0 
502.274536 76.0 
502.368744 556.0 
502.419434 156.0 
503.354767 140.0 
503.376801 300.0 
503.39566 224.0 
503.457367 116.0 
504.249786 80.0 
504.390259 80.0 
504.478699 124.0 
504.804779 84.0 
505.179291 112.0 
506.36557 140.0 
507.133789 88.0 
507.336853 148.0 
507.363342 156.0 
507.884857 64.0 
508.340149 68.0 
508.376587 84.0 
508.395172 96.0 
509.229218 72.0 
510.2164 140.0 
515.300903 76.0 
516.409851 116.0 
517.096436 92.0 
518.336853 76.0 
518.3573 264.0 
518.394897 80.0 
519.252441 100.0 
519.332947 80.0 
519.350769 108.0 
519.366455 68.0 
520.378845 2532.0 
520.412659 268.0 
521.378174 616.0 
521.41748 112.0 
521.73114 56.0 
522.368652 116.0 
522.387085 88.0 
522.409424 176.0 
522.560059 80.0 
523.928223 72.0 
523.955139 76.0 
526.804871 76.0 
528.367798 84.0 
530.29425 120.0 
531.335938 148.0 
532.337402 108.0 
533.292542 96.0 
534.257568 80.0 
534.298401 76.0 
535.468445 108.0 
536.35791 180.0 
536.373413 336.0 
536.386536 304.0 
537.380371 276.0 
537.407837 100.0 
538.367493 88.0 
538.396667 104.0 
542.717102 60.0 
546.346313 360.0 
546.455688 192.0 
546.703247 172.0 
547.344543 152.0 
547.386841 84.0 
548.341309 228.0 
548.36908 76.0 
548.432068 84.0 
549.301514 184.0 
550.787292 64.0 
558.189331 76.0 
561.348816 124.0 
561.376709 124.0 
561.397217 148.0 
561.442871 144.0 
562.389404 112.0 
562.66925 68.0 
563.334656 60.0 
563.379211 116.0 
563.427734 72.0 
564.358459 340.0 
564.382141 392.0 
564.412109 120.0 
564.480164 72.0 
564.506104 60.0 
564.601379 52.0 
565.281799 80.0 
565.300476 64.0 
565.328491 68.0 
565.37616 104.0 
565.407776 56.0 
566.317322 84.0 
566.350037 68.0 
566.370911 56.0 
566.4245 164.0 
566.443359 72.0 
566.49939 60.0 
567.28833 112.0 
567.321045 112.0 
567.339355 92.0 
567.391113 124.0 
567.433228 76.0 
568.288391 80.0 
568.325745 100.0 
570.698486 64.0 
579.350708 156.0 
588.37262 140.0 
590.062561 84.0 
598.476257 56.0 
599.32074 96.0 
602.305847 56.0 
618.653198 92.0 
620.337158 60.0 
627.405151 52.0 
641.169312 76.0 
642.734436 60.0 
649.893311 108.0 
654.756653 80.0 
662.31012 84.0 
674.32489 84.0 
701.714172 52.0 
716.145691 60.0 
727.457153 56.0 
728.615967 52.0 
731.185242 128.0 
732.315308 72.0 
736.582825 88.0 
753.507812 64.0 
760.381226 116.0 
764.339478 52.0 
773.420166 76.0 
809.531921 60.0 
816.523071 64.0 
827.546936 52.0 
834.483093 76.0 
846.758362 60.0 
854.490845 76.0 
863.036011 104.0 
885.578857 80.0 
896.650024 80.0 
897.04364 56.0 
904.506348 96.0 
998.522766 76.0 
999.371948 72.0 
999.985535 136.0 
END IONS

