BEGIN IONS
PEPMASS=266.142
CHARGE=1+
COMPOUNDNAME=MLS001066392-01!Anisomycin from Streptomyces griseolus
LIBRARYQUALITY=1
SMILES=COc1ccc(C[C@H]2NC[C@H](O)[C@H]2OC(=O)C)cc1
INCHIKEY=YKJYKKNCCRKFSL-RDBSUJKOSA-N
INCHI=N/A
MSLEVEL=2
SOURCE_INSTRUMENT=LC-ESI-qTof
FILENAME=p4-F11_GF11_01_18395.mzXML
SEQ=*..*
IONMODE=Positive
ORGANISM=GNPS-NIH-SMALLMOLECULEPHARMACOLOGICALLYACTIVE
NAME=MLS001066392-01!Anisomycin from Streptomyces griseolus M+H
PI=Dorrestein
DATACOLLECTOR=VP/LMS
PUBMED=N/A
SUBMITUSER=vphelan
TAGS=
SPECTRUMID=CCMSLIB00000085827
SCANS=1223
44.904682 112.0 
44.916687 172.0 
44.940704 104.0 
45.026138 180.0 
45.134388 204.0 
45.224339 204.0 
45.252136 152.0 
45.347874 336.0 
45.614368 188.0 
45.844532 228.0 
45.884972 156.0 
46.064465 180.0 
46.083378 188.0 
46.102299 264.0 
46.144203 120.0 
46.156372 208.0 
46.206417 164.0 
46.242954 108.0 
46.291695 148.0 
46.352654 88.0 
46.363495 136.0 
46.372982 160.0 
46.488266 64.0 
46.509373 232.0 
46.52763 164.0 
46.556145 112.0 
46.625431 164.0 
46.815899 104.0 
46.843143 136.0 
46.890835 112.0 
47.039513 60.0 
47.055897 212.0 
47.13512 96.0 
47.203472 172.0 
47.256817 84.0 
47.299244 216.0 
47.34169 148.0 
47.378674 136.0 
47.506172 220.0 
47.526752 220.0 
47.556942 176.0 
47.70805 308.0 
47.853889 196.0 
47.877296 196.0 
47.902092 184.0 
47.994434 180.0 
48.070305 244.0 
48.152813 220.0 
48.186291 136.0 
48.335629 124.0 
48.420074 200.0 
48.469948 228.0 
48.584892 120.0 
48.61417 132.0 
48.70303 164.0 
48.714142 68.0 
48.725254 96.0 
48.882381 48.0 
48.917774 160.0 
48.932491 256.0 
48.945023 96.0 
49.011887 128.0 
49.169472 28.0 
49.287025 180.0 
49.362263 332.0 
49.423813 144.0 
49.461418 152.0 
49.532169 152.0 
49.555431 180.0 
49.590469 156.0 
49.687229 92.0 
49.711082 160.0 
49.793915 156.0 
49.915192 244.0 
49.930244 128.0 
49.978077 140.0 
50.024521 56.0 
50.037193 160.0 
50.058315 140.0 
50.298 152.0 
50.319176 168.0 
50.372845 156.0 
50.430779 128.0 
50.609035 144.0 
50.722374 136.0 
50.75782 184.0 
50.850033 160.0 
50.862808 188.0 
50.884102 240.0 
50.899723 232.0 
50.963642 80.0 
51.064579 88.0 
51.095875 172.0 
51.154224 144.0 
51.177006 192.0 
51.188396 148.0 
51.22258 172.0 
51.278202 216.0 
51.311962 156.0 
51.352291 176.0 
51.386528 156.0 
51.39864 148.0 
51.465034 176.0 
51.489311 100.0 
51.5536 136.0 
51.605061 152.0 
51.660839 204.0 
51.706631 192.0 
51.778217 212.0 
51.818325 52.0 
51.874222 264.0 
51.914368 156.0 
51.964573 164.0 
52.006191 128.0 
52.056442 116.0 
52.113899 80.0 
52.148392 212.0 
52.182892 152.0 
52.195721 284.0 
52.23035 240.0 
52.28215 136.0 
52.327782 200.0 
52.421841 220.0 
52.440578 208.0 
52.641117 192.0 
52.710457 140.0 
52.749481 236.0 
52.787075 220.0 
52.826126 224.0 
52.849277 164.0 
52.862301 180.0 
52.903343 168.0 
52.94482 228.0 
52.967995 176.0 
53.070892 144.0 
53.088295 144.0 
53.114403 160.0 
53.156479 216.0 
53.229061 64.0 
53.306053 148.0 
53.507534 204.0 
53.621864 156.0 
53.772091 196.0 
53.78231 172.0 
53.815887 76.0 
53.899147 56.0 
53.9123 220.0 
54.001484 136.0 
54.021961 224.0 
54.166889 160.0 
54.21524 76.0 
54.243092 176.0 
54.304676 156.0 
54.319347 164.0 
54.380974 92.0 
54.513157 172.0 
54.555782 196.0 
54.610191 164.0 
54.659061 184.0 
54.691116 208.0 
54.778 148.0 
54.875267 116.0 
54.907711 128.0 
54.963772 148.0 
55.105522 132.0 
55.143944 160.0 
55.225266 220.0 
55.235622 200.0 
55.281487 164.0 
55.321453 148.0 
55.356987 152.0 
55.388462 208.0 
55.417721 164.0 
55.589733 132.0 
55.603424 160.0 
55.73526 132.0 
55.812557 164.0 
55.875027 168.0 
56.038803 116.0 
56.056686 164.0 
56.173717 228.0 
56.202824 152.0 
56.241169 196.0 
56.281937 108.0 
56.335705 188.0 
56.42157 192.0 
56.616913 192.0 
56.723621 184.0 
56.75478 76.0 
56.818115 160.0 
56.835781 228.0 
56.867298 132.0 
57.002464 184.0 
57.026512 152.0 
57.148323 188.0 
57.164665 144.0 
57.297382 228.0 
57.41238 244.0 
57.454178 160.0 
57.488884 184.0 
57.511524 152.0 
57.529636 196.0 
57.559834 220.0 
57.593601 180.0 
57.667099 156.0 
57.710941 168.0 
57.897072 180.0 
57.959183 156.0 
57.99559 184.0 
58.010715 76.0 
58.095642 136.0 
58.29607 192.0 
58.441746 160.0 
58.463356 168.0 
58.512066 204.0 
58.565365 136.0 
58.583645 192.0 
58.649937 160.0 
58.842918 228.0 
58.927311 220.0 
58.9529 172.0 
59.004871 136.0 
59.152721 332.0 
59.180828 208.0 
59.199203 196.0 
59.323311 140.0 
59.39999 60.0 
59.412262 68.0 
59.430672 160.0 
59.477512 392.0 
59.502811 176.0 
59.590359 144.0 
59.656448 200.0 
59.671822 224.0 
59.748722 156.0 
59.81028 172.0 
59.83337 160.0 
59.847229 156.0 
59.904213 136.0 
59.921162 164.0 
59.939651 164.0 
59.972015 212.0 
60.081505 36.0 
60.150948 180.0 
60.197269 160.0 
60.245152 108.0 
60.280689 152.0 
60.364166 148.0 
60.378086 204.0 
60.435322 180.0 
60.453892 124.0 
60.467823 144.0 
60.506519 72.0 
60.525482 196.0 
60.543686 204.0 
60.624245 124.0 
60.659893 224.0 
60.852272 128.0 
60.956345 136.0 
61.044952 144.0 
61.072948 132.0 
61.153862 180.0 
61.247288 120.0 
61.283119 96.0 
61.357933 184.0 
61.414074 168.0 
61.440594 152.0 
61.453075 156.0 
61.632641 132.0 
61.710793 184.0 
61.781174 192.0 
61.821552 164.0 
61.906395 176.0 
61.953384 252.0 
62.025471 176.0 
62.105824 200.0 
62.205872 176.0 
62.276535 172.0 
62.326809 172.0 
62.389679 180.0 
62.41169 232.0 
62.469883 192.0 
62.485615 72.0 
62.548565 200.0 
62.564308 164.0 
62.617847 152.0 
62.654079 196.0 
62.686119 152.0 
62.706081 56.0 
62.795952 80.0 
62.887466 36.0 
62.944302 92.0 
62.974308 76.0 
63.004322 52.0 
63.065952 200.0 
63.130775 168.0 
63.293774 176.0 
63.336533 48.0 
63.552147 164.0 
63.607693 208.0 
63.679146 100.0 
63.737926 156.0 
63.749054 140.0 
63.810177 220.0 
63.833305 76.0 
63.914436 172.0 
63.982876 144.0 
64.083221 128.0 
64.123055 148.0 
64.18045 124.0 
64.258606 136.0 
64.2985 232.0 
64.378326 156.0 
64.456604 176.0 
64.470985 132.0 
64.526932 216.0 
64.5989 160.0 
64.6213 192.0 
64.895195 212.0 
65.00106 52.0 
65.208237 196.0 
65.250031 212.0 
65.364235 228.0 
65.457596 160.0 
65.55748 164.0 
65.612282 192.0 
65.681625 164.0 
65.723572 136.0 
65.736481 120.0 
66.067719 184.0 
66.150261 160.0 
66.164825 124.0 
66.184258 100.0 
66.409523 188.0 
66.445213 632.0 
66.545845 200.0 
66.716438 164.0 
66.735687 148.0 
66.815643 140.0 
66.84005 220.0 
66.910042 236.0 
66.993103 32.0 
67.069572 164.0 
67.126755 144.0 
67.167534 140.0 
67.273605 128.0 
67.340553 136.0 
67.404266 144.0 
67.446762 180.0 
67.471283 144.0 
67.511459 204.0 
67.623795 172.0 
67.724937 188.0 
67.74295 172.0 
67.777359 192.0 
67.831444 252.0 
67.860954 172.0 
67.915077 208.0 
68.14209 156.0 
68.189278 140.0 
68.26162 104.0 
68.439331 164.0 
68.557945 168.0 
68.604523 168.0 
68.651909 168.0 
68.795464 156.0 
68.828484 152.0 
68.897858 144.0 
69.031746 164.0 
69.048279 148.0 
69.06813 156.0 
69.111145 156.0 
69.172379 140.0 
69.208801 184.0 
69.322105 208.0 
69.339676 144.0 
69.3778 188.0 
69.419258 188.0 
69.441689 168.0 
69.47731 132.0 
69.681526 220.0 
69.766281 184.0 
69.809517 188.0 
69.96093 204.0 
70.069328 140.0 
70.150848 32.0 
70.175858 112.0 
70.227554 168.0 
70.351044 204.0 
70.446228 152.0 
70.534798 172.0 
70.561546 180.0 
70.62677 152.0 
70.640152 104.0 
70.663574 88.0 
70.693695 200.0 
70.775719 92.0 
70.794136 156.0 
70.822609 56.0 
70.91404 184.0 
70.965019 156.0 
70.988541 196.0 
71.067375 60.0 
71.238632 208.0 
71.277275 120.0 
71.320969 152.0 
71.405045 220.0 
71.443779 144.0 
71.474014 108.0 
71.512726 252.0 
71.575012 192.0 
71.660919 192.0 
71.691254 128.0 
71.819389 180.0 
71.986481 176.0 
72.097977 200.0 
72.162216 168.0 
72.271263 144.0 
72.317848 156.0 
72.334778 220.0 
72.372025 128.0 
72.419441 100.0 
72.504158 140.0 
72.609276 184.0 
72.680527 180.0 
72.879196 172.0 
72.918282 136.0 
72.94548 196.0 
72.967575 168.0 
73.001587 236.0 
73.020294 224.0 
73.084938 176.0 
73.171745 100.0 
73.194954 164.0 
73.231346 176.0 
73.260307 200.0 
73.285866 132.0 
73.389839 132.0 
73.451233 180.0 
73.574104 176.0 
73.599716 120.0 
73.73468 140.0 
73.756111 148.0 
73.850945 152.0 
73.874893 160.0 
73.897133 228.0 
73.917664 184.0 
74.039215 164.0 
74.140297 192.0 
74.15229 200.0 
74.176292 296.0 
74.190002 120.0 
74.20372 188.0 
74.224297 96.0 
74.327217 100.0 
74.352959 168.0 
74.411324 176.0 
74.464561 224.0 
74.557335 84.0 
74.579193 168.0 
74.686295 220.0 
74.769775 184.0 
74.827171 176.0 
74.929024 140.0 
74.946251 232.0 
75.108315 192.0 
75.225655 140.0 
75.356911 176.0 
75.490013 216.0 
75.569588 152.0 
75.586891 120.0 
75.806686 216.0 
75.995827 104.0 
76.02359 140.0 
76.136436 164.0 
76.186813 244.0 
76.265015 104.0 
76.311951 156.0 
76.332817 160.0 
76.449371 180.0 
76.485924 244.0 
76.517258 64.0 
76.63221 188.0 
76.670547 144.0 
76.825737 36.0 
76.926956 188.0 
77.029991 156.0 
77.042221 244.0 
77.153664 188.0 
77.197784 136.0 
77.215271 140.0 
77.231018 196.0 
77.279999 188.0 
77.341255 200.0 
77.35701 172.0 
77.407784 64.0 
77.423546 204.0 
77.457726 148.0 
77.505882 156.0 
77.567223 136.0 
77.601204 256.0 
77.660156 152.0 
77.68998 136.0 
77.779472 196.0 
77.879562 224.0 
77.897133 188.0 
77.932266 172.0 
77.977959 144.0 
78.069382 160.0 
78.181976 60.0 
78.340446 124.0 
78.469101 188.0 
78.576691 128.0 
78.599632 188.0 
78.645515 228.0 
78.767357 148.0 
78.829193 136.0 
78.91581 108.0 
78.986557 136.0 
79.013092 196.0 
79.036095 208.0 
79.117508 128.0 
79.163544 112.0 
79.202515 40.0 
79.269836 176.0 
79.328331 132.0 
79.345673 204.0 
79.401581 128.0 
79.46489 160.0 
79.532326 244.0 
79.63176 156.0 
79.653076 120.0 
79.722374 152.0 
79.771248 216.0 
79.825478 136.0 
79.846817 136.0 
79.946449 72.0 
80.069298 188.0 
80.101357 144.0 
80.190453 128.0 
80.21006 140.0 
80.256409 196.0 
80.272461 152.0 
80.363434 52.0 
80.406265 128.0 
80.497307 240.0 
80.515167 72.0 
80.699226 128.0 
80.720688 164.0 
80.758247 168.0 
81.069771 228.0 
81.162994 244.0 
81.177338 140.0 
81.213203 164.0 
81.25267 168.0 
81.302917 92.0 
81.3442 244.0 
81.487877 204.0 
81.552567 132.0 
81.577736 140.0 
81.590324 212.0 
81.604706 260.0 
81.665848 172.0 
81.705421 192.0 
81.775604 176.0 
81.808006 144.0 
81.824211 144.0 
81.961098 128.0 
82.002548 240.0 
82.152222 136.0 
82.170258 176.0 
82.259949 236.0 
82.504379 372.0 
82.556824 220.0 
82.583946 136.0 
82.6147 148.0 
82.692513 124.0 
82.730522 212.0 
82.761307 208.0 
82.784843 212.0 
82.833748 160.0 
82.929787 124.0 
83.04583 124.0 
83.082115 104.0 
83.194633 208.0 
83.316315 188.0 
83.369003 204.0 
83.382896 168.0 
83.509529 152.0 
83.58905 140.0 
83.652756 192.0 
83.685524 172.0 
83.791168 88.0 
83.9049 224.0 
84.048256 96.0 
84.097534 200.0 
84.125221 216.0 
84.230827 300.0 
84.297737 148.0 
84.367889 144.0 
84.459328 108.0 
84.631355 184.0 
84.763245 128.0 
85.131973 144.0 
85.253227 136.0 
85.26609 188.0 
85.310204 180.0 
85.341461 252.0 
85.396629 176.0 
85.418701 144.0 
85.437103 116.0 
85.464699 276.0 
85.481262 176.0 
85.50164 212.0 
85.532799 232.0 
85.57222 216.0 
85.593552 168.0 
85.62854 180.0 
85.709602 236.0 
85.722504 176.0 
85.81559 156.0 
85.987679 204.0 
86.063766 176.0 
86.088043 160.0 
86.189369 160.0 
86.213394 176.0 
86.337257 128.0 
86.372406 48.0 
86.3909 116.0 
86.439011 196.0 
86.453812 164.0 
86.476021 76.0 
86.601257 88.0 
86.71891 60.0 
86.789108 148.0 
86.802086 100.0 
86.818779 172.0 
86.909676 64.0 
86.95607 112.0 
86.991089 208.0 
87.084702 72.0 
87.099045 228.0 
87.299774 232.0 
87.343605 156.0 
87.426285 232.0 
87.457924 208.0 
87.510048 128.0 
87.608765 160.0 
87.671082 160.0 
87.703796 72.0 
87.800751 156.0 
87.923889 140.0 
87.948151 140.0 
88.123039 292.0 
88.140015 208.0 
88.215279 80.0 
88.285423 152.0 
88.316254 204.0 
88.377991 120.0 
88.422905 192.0 
88.443497 116.0 
88.537117 176.0 
88.610168 168.0 
88.676903 120.0 
88.709312 200.0 
88.840775 172.0 
88.962761 132.0 
89.00589 140.0 
89.037865 156.0 
89.052895 184.0 
89.0961 132.0 
89.146828 168.0 
89.378128 264.0 
89.432709 188.0 
89.447769 108.0 
89.592773 220.0 
89.654953 160.0 
89.681343 176.0 
89.782997 176.0 
89.858612 156.0 
89.883141 48.0 
90.009613 136.0 
90.031502 164.0 
90.083275 72.0 
90.223122 180.0 
90.340378 172.0 
90.395248 248.0 
90.45771 52.0 
90.688736 216.0 
90.794983 148.0 
90.815849 96.0 
90.849991 180.0 
90.887939 68.0 
90.973351 204.0 
90.994232 200.0 
91.016945 200.0 
91.053947 4748.0 
91.089188 160.0 
91.203201 176.0 
91.41127 140.0 
91.482841 176.0 
91.534248 144.0 
91.612335 116.0 
91.673309 172.0 
91.810577 116.0 
91.884964 60.0 
92.020477 224.0 
92.058052 680.0 
92.085411 84.0 
92.112152 176.0 
92.203865 184.0 
92.224892 72.0 
92.253563 140.0 
92.410393 116.0 
92.454407 104.0 
92.513741 160.0 
92.546295 244.0 
92.567352 176.0 
92.584587 148.0 
92.620979 100.0 
92.63755 160.0 
92.663132 180.0 
92.688042 252.0 
92.720619 128.0 
92.741699 160.0 
92.806885 196.0 
92.82222 56.0 
92.962265 144.0 
93.034431 160.0 
93.070869 432.0 
93.16964 160.0 
93.252266 176.0 
93.433029 144.0 
93.481133 192.0 
93.498451 156.0 
93.589668 208.0 
93.625519 196.0 
93.696793 152.0 
93.717987 212.0 
93.889557 76.0 
93.908844 192.0 
94.003151 172.0 
94.042641 208.0 
94.059349 208.0 
94.16555 148.0 
94.23896 168.0 
94.378128 96.0 
94.478699 256.0 
94.517403 164.0 
94.836952 112.0 
94.893173 152.0 
94.949409 216.0 
94.966866 160.0 
94.984322 208.0 
95.019241 76.0 
95.048531 128.0 
95.211418 136.0 
95.230843 228.0 
95.380455 184.0 
95.546364 192.0 
95.574074 244.0 
95.661369 188.0 
95.775475 184.0 
95.792999 144.0 
96.046417 144.0 
96.076294 204.0 
96.142273 188.0 
96.161545 124.0 
96.294312 204.0 
96.556961 192.0 
96.700996 180.0 
96.718613 80.0 
96.806717 208.0 
97.05806 200.0 
97.096771 172.0 
97.124229 268.0 
97.181122 164.0 
97.236069 128.0 
97.2714 172.0 
97.310669 64.0 
97.493347 196.0 
97.513008 164.0 
97.672272 88.0 
97.705719 56.0 
97.934067 136.0 
97.989639 96.0 
98.028641 192.0 
98.059982 384.0 
98.089737 92.0 
98.111427 188.0 
98.208054 152.0 
98.221863 168.0 
98.25737 96.0 
98.300781 200.0 
98.352097 160.0 
98.367889 60.0 
98.415894 204.0 
98.521927 184.0 
98.619324 168.0 
98.634567 204.0 
98.680038 132.0 
98.761116 72.0 
98.873901 176.0 
99.031372 224.0 
99.063179 208.0 
99.151176 128.0 
99.270126 196.0 
99.401802 200.0 
99.514198 124.0 
99.750999 160.0 
99.768509 148.0 
99.86396 72.0 
99.919655 216.0 
99.973381 152.0 
99.99926 144.0 
100.017174 100.0 
100.064949 60.0 
100.086853 132.0 
100.106766 132.0 
100.302025 196.0 
100.399719 116.0 
100.44944 216.0 
100.543365 160.0 
100.59726 224.0 
100.659157 60.0 
100.818977 216.0 
100.97876 200.0 
101.00692 200.0 
101.144997 232.0 
101.291176 72.0 
101.337257 84.0 
101.379333 132.0 
101.39537 188.0 
101.409401 124.0 
101.471542 60.0 
101.686188 76.0 
101.766487 184.0 
101.786568 176.0 
101.874947 184.0 
101.920464 192.0 
101.947281 392.0 
102.046532 1048.0 
102.202667 152.0 
102.285179 156.0 
102.363701 216.0 
102.412041 140.0 
102.42614 160.0 
102.494644 180.0 
102.609528 160.0 
102.649857 196.0 
102.663979 148.0 
102.680107 176.0 
102.744659 180.0 
102.891991 176.0 
102.935417 188.0 
103.05378 1080.0 
103.089943 276.0 
103.257195 220.0 
103.366997 132.0 
103.433784 184.0 
103.48642 164.0 
103.622124 224.0 
103.691025 160.0 
103.715347 124.0 
103.820778 172.0 
103.863373 36.0 
103.877571 236.0 
104.031807 172.0 
104.048279 564.0 
104.062592 392.0 
104.110992 28.0 
104.295883 164.0 
104.373138 144.0 
104.436188 188.0 
104.478905 68.0 
104.523674 200.0 
104.619331 168.0 
104.666161 192.0 
104.735405 200.0 
104.806717 156.0 
104.839317 156.0 
104.988144 212.0 
105.032898 136.0 
105.068787 1376.0 
105.15432 240.0 
105.218727 100.0 
105.235062 144.0 
105.269775 180.0 
105.310616 152.0 
105.335129 196.0 
105.371902 196.0 
105.451599 216.0 
105.472038 176.0 
105.510887 148.0 
105.559822 180.0 
105.650032 204.0 
105.858734 32.0 
106.04052 1748.0 
106.070045 292.0 
106.090271 160.0 
106.112343 224.0 
106.162033 148.0 
106.225616 108.0 
106.297432 152.0 
106.377472 176.0 
106.541771 72.0 
106.578751 56.0 
106.761826 140.0 
106.819298 136.0 
107.048279 1256.0 
107.153519 176.0 
107.171356 136.0 
107.313583 112.0 
107.482719 224.0 
107.534317 128.0 
107.552895 120.0 
107.577667 136.0 
107.606567 148.0 
107.678841 260.0 
107.778008 76.0 
107.930969 140.0 
107.999214 116.0 
108.05938 696.0 
108.12957 208.0 
108.181053 156.0 
108.431961 68.0 
108.473412 212.0 
108.740997 176.0 
108.767975 156.0 
108.861412 176.0 
109.010986 164.0 
109.029686 184.0 
109.064178 692.0 
109.098282 128.0 
109.29171 140.0 
109.454071 76.0 
109.695755 104.0 
109.720779 172.0 
109.806274 176.0 
109.962753 168.0 
109.985718 144.0 
110.000328 80.0 
110.042084 164.0 
110.147903 220.0 
110.236343 168.0 
110.319954 336.0 
110.342949 124.0 
110.43264 184.0 
110.543755 188.0 
110.778259 192.0 
110.950111 152.0 
110.966881 92.0 
111.058022 148.0 
111.115799 160.0 
111.197639 176.0 
111.224922 176.0 
111.321503 156.0 
111.401321 188.0 
111.443336 108.0 
111.577858 192.0 
111.672485 172.0 
111.691414 208.0 
111.720871 148.0 
111.80188 208.0 
111.872391 160.0 
112.005058 112.0 
112.074585 128.0 
112.131485 248.0 
112.215805 112.0 
112.295944 88.0 
112.395096 204.0 
112.561859 156.0 
112.610435 72.0 
112.836548 160.0 
112.881805 184.0 
112.993057 128.0 
113.009987 176.0 
113.031143 116.0 
113.060768 100.0 
113.096756 188.0 
113.139091 164.0 
113.488686 152.0 
113.531097 112.0 
113.764496 160.0 
113.80484 104.0 
113.849434 172.0 
113.930153 88.0 
114.038521 336.0 
114.147392 212.0 
114.200119 140.0 
114.246918 112.0 
114.28096 60.0 
114.361832 148.0 
114.513008 156.0 
114.538567 172.0 
114.640839 64.0 
114.674934 156.0 
114.721832 124.0 
114.745285 144.0 
114.807121 196.0 
114.883911 200.0 
114.922318 128.0 
114.950058 368.0 
115.024704 168.0 
115.054031 3700.0 
115.214821 156.0 
115.244736 100.0 
115.300293 52.0 
115.531227 176.0 
115.589005 228.0 
115.760254 160.0 
115.775246 276.0 
115.818085 220.0 
115.837364 176.0 
115.877502 76.0 
115.948784 144.0 
116.060898 2244.0 
116.12674 48.0 
116.182518 128.0 
116.205315 140.0 
116.377831 44.0 
116.405739 172.0 
116.422386 208.0 
116.526031 188.0 
116.852844 200.0 
116.88942 196.0 
116.936768 184.0 
116.993896 140.0 
117.067398 1784.0 
117.19735 124.0 
117.423706 48.0 
117.570412 180.0 
117.820892 360.0 
117.978661 532.0 
118.038704 472.0 
118.06456 960.0 
118.130043 176.0 
118.233902 108.0 
118.249054 156.0 
118.296677 156.0 
118.345314 112.0 
118.36322 196.0 
118.537094 156.0 
118.594154 208.0 
118.884117 188.0 
118.945396 236.0 
119.028267 104.0 
119.049248 720.0 
119.073639 760.0 
119.115692 112.0 
119.159843 32.0 
119.268501 104.0 
119.285896 68.0 
119.310501 188.0 
119.357643 192.0 
119.403313 188.0 
119.427238 140.0 
119.462044 152.0 
119.516434 40.0 
119.590431 40.0 
119.638321 160.0 
119.657913 128.0 
119.79512 92.0 
119.967285 168.0 
120.055473 292.0 
120.078804 176.0 
120.122116 132.0 
120.318527 192.0 
120.333809 72.0 
120.390587 112.0 
120.421165 192.0 
120.438637 144.0 
120.453926 108.0 
120.504173 188.0 
120.528214 136.0 
120.552246 244.0 
120.64624 168.0 
120.67247 192.0 
120.697807 184.0 
120.730309 160.0 
120.751198 140.0 
120.773071 112.0 
120.804558 172.0 
120.837845 112.0 
120.846298 68.0 
120.858612 160.0 
120.882462 88.0 
120.899696 144.0 
120.923958 192.0 
120.942726 112.0 
120.958809 340.0 
120.984993 400.0 
121.011589 180.0 
121.026321 508.0 
121.064957 121116.0 
121.126656 128.0 
121.131126 132.0 
121.142258 48.0 
121.18959 124.0 
121.211395 180.0 
121.236168 112.0 
121.266586 164.0 
121.293785 104.0 
121.306145 64.0 
121.312889 132.0 
121.342949 176.0 
121.361511 52.0 
121.37796 56.0 
121.403008 32.0 
121.424553 1540.0 
121.451263 96.0 
121.478195 112.0 
121.48571 100.0 
121.512329 80.0 
121.528419 168.0 
121.557259 184.0 
121.565491 60.0 
121.569069 76.0 
121.602959 128.0 
121.624649 128.0 
121.637947 52.0 
121.64563 84.0 
121.669357 80.0 
121.719864 32.0 
121.752251 44.0 
121.798172 140.0 
121.827957 112.0 
121.864838 52.0 
121.91098 116.0 
121.951729 52.0 
121.981316 32.0 
122.027481 64.0 
122.067734 10776.0 
122.097595 240.0 
122.135246 104.0 
122.150642 68.0 
122.168243 84.0 
122.227646 40.0 
122.254059 68.0 
122.276062 68.0 
122.423569 108.0 
122.449997 52.0 
122.507271 88.0 
122.564552 84.0 
122.582184 32.0 
122.643898 60.0 
122.687866 76.0 
122.722641 144.0 
122.74234 92.0 
122.789703 92.0 
122.825516 132.0 
122.846771 128.0 
122.862854 192.0 
122.893967 92.0 
122.910439 112.0 
122.959305 144.0 
122.974754 200.0 
123.023598 140.0 
123.06971 1296.0 
123.155815 100.0 
123.230927 80.0 
123.266281 92.0 
123.334076 148.0 
123.414383 172.0 
123.474091 80.0 
123.606827 52.0 
123.728569 136.0 
123.765808 112.0 
123.828217 92.0 
123.947845 132.0 
124.025414 124.0 
124.046715 92.0 
124.06456 164.0 
124.220558 100.0 
124.320404 64.0 
124.391838 152.0 
124.584633 28.0 
124.711296 204.0 
124.78466 36.0 
125.009323 120.0 
125.376785 168.0 
125.479324 80.0 
125.856407 120.0 
125.988373 140.0 
126.047867 168.0 
126.225105 104.0 
126.312332 168.0 
126.401825 168.0 
126.529411 128.0 
126.565239 180.0 
126.616745 208.0 
127.053482 668.0 
127.11219 168.0 
127.260338 168.0 
127.298515 216.0 
127.352417 160.0 
127.552399 160.0 
127.579376 64.0 
127.685852 192.0 
127.842552 152.0 
128.061447 2500.0 
128.133026 92.0 
128.304306 148.0 
128.493073 184.0 
128.660782 100.0 
128.94313 48.0 
129.069412 1036.0 
129.094604 136.0 
129.126282 28.0 
129.588089 68.0 
129.674194 72.0 
129.699127 208.0 
129.737671 52.0 
129.891876 112.0 
130.042557 1036.0 
130.064224 2728.0 
130.100662 144.0 
130.131592 96.0 
130.198288 92.0 
130.320969 60.0 
130.486893 56.0 
130.586945 232.0 
130.980728 112.0 
131.026291 260.0 
131.048615 1612.0 
131.069672 1000.0 
131.199509 88.0 
131.352295 32.0 
131.370544 68.0 
131.464096 284.0 
132.052109 1088.0 
132.075653 996.0 
132.21785 64.0 
132.241165 52.0 
132.319 192.0 
132.348755 28.0 
132.804825 76.0 
132.82547 80.0 
132.990677 36.0 
133.063522 1024.0 
133.105087 192.0 
133.465836 92.0 
133.535233 152.0 
133.719299 148.0 
133.944946 88.0 
134.060425 1596.0 
134.089584 344.0 
134.731613 152.0 
134.893387 232.0 
134.91188 124.0 
134.978928 52.0 
135.039062 212.0 
135.078262 1600.0 
135.103973 244.0 
135.166306 36.0 
135.247314 64.0 
135.358444 224.0 
135.393173 244.0 
135.420975 104.0 
135.548386 208.0 
135.615601 44.0 
135.719925 104.0 
135.803421 136.0 
136.071045 312.0 
136.156204 88.0 
136.337418 80.0 
136.544342 160.0 
136.716507 176.0 
136.947006 256.0 
137.126404 152.0 
137.859238 96.0 
137.931702 168.0 
137.990143 68.0 
138.226395 104.0 
138.284897 184.0 
138.530777 176.0 
138.800308 184.0 
138.903503 188.0 
139.05368 196.0 
139.201584 44.0 
139.452957 68.0 
139.949356 176.0 
140.034134 164.0 
140.225555 212.0 
141.067749 344.0 
141.178802 36.0 
141.2332 120.0 
141.292343 156.0 
141.697189 136.0 
142.069656 120.0 
142.195175 108.0 
142.629852 100.0 
142.870041 84.0 
143.019958 100.0 
143.070618 516.0 
143.322418 112.0 
143.339096 60.0 
143.384384 56.0 
143.422516 224.0 
143.443161 204.0 
143.699158 176.0 
143.718246 160.0 
143.945007 216.0 
144.055786 9256.0 
144.077362 1124.0 
144.195862 52.0 
144.246048 44.0 
144.358429 56.0 
144.375168 36.0 
144.427795 92.0 
144.566559 56.0 
144.703003 92.0 
144.741318 52.0 
144.808365 204.0 
144.944931 44.0 
144.995255 140.0 
145.021622 60.0 
145.061951 9780.0 
145.084381 1252.0 
145.115112 40.0 
145.144989 104.0 
145.215836 52.0 
145.275803 72.0 
145.357376 88.0 
145.501389 128.0 
145.518204 28.0 
145.70314 112.0 
145.804062 180.0 
145.846237 132.0 
146.023727 88.0 
146.06601 1308.0 
146.094269 480.0 
146.169601 60.0 
146.244064 64.0 
146.371811 148.0 
146.403763 104.0 
146.434433 72.0 
146.487411 56.0 
146.53801 44.0 
146.583801 68.0 
146.858643 96.0 
146.880356 76.0 
147.075424 3660.0 
147.107498 188.0 
147.129944 84.0 
147.182037 60.0 
147.267838 68.0 
147.503357 88.0 
147.537201 44.0 
147.684723 88.0 
148.042557 184.0 
148.075272 2112.0 
148.230942 108.0 
148.59317 80.0 
148.969482 44.0 
149.059235 268.0 
149.09082 784.0 
149.219803 168.0 
149.314636 44.0 
149.570114 216.0 
149.643158 80.0 
149.874557 48.0 
150.091125 1448.0 
150.150024 104.0 
150.24028 192.0 
150.513641 104.0 
151.09021 180.0 
151.242203 180.0 
151.277649 224.0 
151.451569 40.0 
151.938171 156.0 
152.090317 180.0 
152.645569 168.0 
153.125473 88.0 
153.63327 80.0 
153.959091 60.0 
154.06778 180.0 
154.19133 140.0 
154.750397 144.0 
155.057541 964.0 
155.355133 84.0 
155.461838 48.0 
155.484177 160.0 
155.578491 108.0 
155.672852 40.0 
156.057724 668.0 
156.080658 1556.0 
156.346573 44.0 
156.483475 68.0 
156.655334 112.0 
156.732559 80.0 
157.061569 352.0 
157.085876 1524.0 
157.213852 80.0 
157.283737 84.0 
157.675888 180.0 
157.768372 44.0 
157.868393 116.0 
157.973434 200.0 
158.057907 1460.0 
158.094498 392.0 
158.15361 64.0 
158.331375 84.0 
158.742386 152.0 
159.052612 312.0 
159.079514 4760.0 
159.153915 40.0 
159.427734 52.0 
159.626343 40.0 
160.008804 132.0 
160.076111 1964.0 
160.200211 76.0 
160.762482 92.0 
160.835678 32.0 
160.888687 72.0 
161.052841 224.0 
161.093552 1576.0 
161.146301 40.0 
161.186737 76.0 
161.282425 176.0 
161.505295 68.0 
162.026306 232.0 
162.091644 2252.0 
162.168701 132.0 
162.478653 244.0 
162.599869 152.0 
162.665863 52.0 
162.711563 168.0 
162.739487 148.0 
162.975723 68.0 
162.998581 188.0 
163.095001 916.0 
163.250259 40.0 
163.418137 60.0 
163.527573 68.0 
163.858627 32.0 
164.008972 208.0 
164.080353 144.0 
164.102417 312.0 
164.28949 80.0 
165.106873 164.0 
165.426727 84.0 
166.490829 44.0 
166.855713 100.0 
168.476807 140.0 
168.515564 68.0 
168.562073 216.0 
168.830933 100.0 
169.0793 124.0 
169.185425 96.0 
169.91629 116.0 
169.939636 184.0 
170.052414 148.0 
170.375824 72.0 
171.07872 2340.0 
172.078125 900.0 
172.654037 40.0 
173.081299 2872.0 
173.125732 132.0 
173.237747 52.0 
173.326828 92.0 
173.50769 36.0 
173.919556 204.0 
174.086914 1416.0 
174.11647 68.0 
174.400238 96.0 
174.58165 96.0 
174.713165 96.0 
174.81842 196.0 
174.984253 244.0 
175.098511 640.0 
175.527054 120.0 
176.102356 168.0 
177.086517 268.0 
177.77565 88.0 
178.086288 160.0 
178.793518 192.0 
182.813293 128.0 
182.918274 148.0 
183.853561 144.0 
183.972336 120.0 
185.753006 180.0 
186.090668 1560.0 
186.149277 72.0 
186.171005 44.0 
186.578583 40.0 
187.096832 352.0 
187.174469 52.0 
187.414169 96.0 
187.613129 136.0 
187.95134 220.0 
188.022293 104.0 
188.10527 2688.0 
188.147858 152.0 
188.229782 104.0 
188.254349 108.0 
189.106796 544.0 
189.246979 52.0 
189.488007 72.0 
189.603104 64.0 
190.08728 124.0 
190.755936 56.0 
191.09523 768.0 
192.097046 128.0 
195.566406 208.0 
195.836487 256.0 
196.407898 56.0 
199.071182 200.0 
200.352234 72.0 
203.403641 52.0 
203.500168 112.0 
203.983139 128.0 
204.098495 172.0 
205.103378 112.0 
205.546768 172.0 
205.837936 72.0 
206.077881 76.0 
206.116409 9536.0 
206.223633 80.0 
206.257935 68.0 
206.360855 56.0 
206.383728 44.0 
206.993225 32.0 
207.117615 752.0 
207.990952 48.0 
208.118805 168.0 
208.272369 108.0 
208.884644 80.0 
215.690735 68.0 
218.367828 60.0 
219.298248 88.0 
220.059357 92.0 
220.534988 96.0 
224.125534 628.0 
225.134628 196.0 
225.711044 116.0 
230.910858 160.0 
233.376343 76.0 
234.877777 132.0 
241.778946 48.0 
245.790955 76.0 
251.118057 128.0 
251.910355 128.0 
259.815369 92.0 
260.904114 132.0 
262.378632 72.0 
265.482849 100.0 
265.602844 52.0 
266.136383 864.0 
266.196808 72.0 
267.144745 192.0 
267.259766 88.0 
268.135773 168.0 
268.174896 108.0 
268.885925 104.0 
269.134033 144.0 
272.65564 60.0 
279.780884 68.0 
288.632324 104.0 
290.020386 88.0 
292.888275 136.0 
307.66626 64.0 
308.242584 52.0 
311.641541 44.0 
317.356171 72.0 
319.11731 136.0 
321.553955 68.0 
325.667969 116.0 
327.023529 120.0 
328.356659 100.0 
330.962219 116.0 
347.828247 116.0 
351.031708 56.0 
351.8638 88.0 
353.931488 136.0 
359.163055 116.0 
361.032654 76.0 
375.369446 104.0 
393.898254 136.0 
399.639038 96.0 
405.028687 108.0 
437.445892 72.0 
443.863495 116.0 
462.20639 84.0 
474.26123 128.0 
476.513519 104.0 
495.733948 96.0 
504.212067 116.0 
507.601044 96.0 
509.94455 32.0 
511.496399 124.0 
575.999939 112.0 
597.073975 28.0 
604.763428 104.0 
655.36853 120.0 
668.621826 56.0 
696.392761 72.0 
701.017334 44.0 
711.59668 180.0 
719.07074 100.0 
721.16449 196.0 
721.875549 148.0 
722.554871 212.0 
732.012756 64.0 
738.727173 200.0 
751.691284 192.0 
752.286194 220.0 
753.930298 172.0 
757.760742 80.0 
773.866089 84.0 
782.973328 56.0 
791.170593 60.0 
802.587646 32.0 
805.55072 188.0 
811.022705 188.0 
826.845703 236.0 
827.292175 60.0 
830.644592 148.0 
836.22406 128.0 
836.713379 108.0 
839.49646 64.0 
840.94458 208.0 
842.492188 168.0 
845.13446 104.0 
860.952271 168.0 
877.370667 136.0 
880.149658 132.0 
884.335327 240.0 
900.042358 240.0 
903.7005 176.0 
912.060608 148.0 
913.521912 72.0 
922.858154 52.0 
923.535461 32.0 
923.989197 200.0 
924.600342 72.0 
926.853149 148.0 
938.207031 152.0 
942.980591 88.0 
949.053528 188.0 
952.514954 156.0 
952.895874 80.0 
959.450562 180.0 
960.252197 220.0 
967.172607 176.0 
968.200378 216.0 
969.984863 144.0 
972.118469 152.0 
981.885986 164.0 
989.35321 184.0 
990.267456 80.0 
998.25061 128.0 
999.395447 48.0 
999.924072 164.0 
1001.164368 188.0 
1003.130249 144.0 
1004.681641 204.0 
1008.552673 124.0 
1011.487732 176.0 
1012.184204 56.0 
1014.509521 200.0 
1016.348816 208.0 
1017.135803 184.0 
1022.34137 164.0 
1024.487183 180.0 
1025.404785 216.0 
1026.596924 96.0 
1026.705444 152.0 
1028.804688 92.0 
1028.894043 112.0 
1030.401978 196.0 
1030.484375 112.0 
1030.893433 60.0 
1035.672729 204.0 
1038.197998 184.0 
1038.281372 196.0 
1039.641479 176.0 
1039.699219 144.0 
1041.561279 156.0 
1046.989868 168.0 
1047.318359 228.0 
1052.174316 124.0 
1055.172119 148.0 
1056.071045 228.0 
1057.080322 100.0 
1057.546265 192.0 
1059.437134 176.0 
1060.415649 188.0 
1060.979614 268.0 
1064.05481 240.0 
1065.431763 32.0 
1067.583252 72.0 
1067.960449 140.0 
1070.466187 168.0 
1071.032837 136.0 
1071.990601 140.0 
1072.870483 156.0 
1073.392212 220.0 
1076.171875 132.0 
1076.400513 128.0 
1076.622559 192.0 
1076.955566 124.0 
1077.275635 168.0 
1078.889893 172.0 
1080.793213 200.0 
1083.31958 172.0 
1083.418701 132.0 
1083.497314 212.0 
1083.923218 244.0 
1085.730225 112.0 
1086.040894 140.0 
1086.375488 164.0 
1086.611572 44.0 
1092.215454 72.0 
1093.946167 204.0 
1095.684814 164.0 
1095.902222 180.0 
1096.640259 128.0 
1098.024902 196.0 
1100.044067 144.0 
1100.314697 144.0 
1101.239258 200.0 
1101.582764 132.0 
1103.988647 144.0 
1104.45166 228.0 
1106.05957 128.0 
1106.688477 180.0 
1107.291138 132.0 
1108.994019 108.0 
1112.09082 196.0 
1112.297363 228.0 
1113.38623 152.0 
1114.475708 164.0 
1115.685303 168.0 
1115.771851 156.0 
1116.11084 172.0 
1116.609619 164.0 
1116.89563 160.0 
1117.893677 212.0 
1118.113281 108.0 
1119.071899 328.0 
1121.283569 204.0 
1122.116821 76.0 
1122.203491 212.0 
1123.637451 124.0 
1124.258057 176.0 
1124.364868 156.0 
1125.112427 144.0 
1125.619995 76.0 
1126.54834 148.0 
1126.969238 240.0 
1127.991821 208.0 
1128.185669 172.0 
1128.518066 212.0 
1128.787476 32.0 
1129.757324 232.0 
1132.334473 196.0 
1132.448242 180.0 
1133.51355 144.0 
1135.927246 64.0 
1136.557861 180.0 
1137.759399 212.0 
1138.692749 152.0 
1140.379883 124.0 
1141.340576 176.0 
1142.087036 148.0 
1143.123169 140.0 
1144.873535 192.0 
1146.032227 228.0 
1146.443237 124.0 
1146.786987 232.0 
1147.562256 176.0 
1148.513184 128.0 
1148.580566 76.0 
1148.701538 168.0 
1150.969727 100.0 
1152.003174 192.0 
1153.131592 220.0 
1155.742065 172.0 
1155.884155 188.0 
1158.96521 184.0 
1159.100708 144.0 
1159.493774 204.0 
1159.717407 104.0 
1161.283691 156.0 
1162.88501 120.0 
1163.705322 172.0 
1164.276855 124.0 
1164.439819 120.0 
1165.696655 172.0 
1166.451172 48.0 
1166.553101 64.0 
1166.695801 160.0 
1167.756714 200.0 
1169.655151 208.0 
1170.049927 208.0 
1170.546997 180.0 
1173.845215 208.0 
1174.998047 160.0 
1175.161743 124.0 
1175.366455 140.0 
1176.929565 108.0 
1177.032104 156.0 
1177.359863 172.0 
1179.77356 180.0 
1180.551392 144.0 
1180.838623 160.0 
1181.864868 168.0 
1184.014404 228.0 
1184.28833 88.0 
1184.586792 132.0 
1185.233765 176.0 
1185.329712 212.0 
1185.586548 172.0 
1185.727173 116.0 
1185.871094 84.0 
1186.090454 204.0 
1186.261841 108.0 
1188.29187 164.0 
1188.573242 120.0 
1191.003662 168.0 
1192.480957 208.0 
1194.990967 232.0 
1195.555176 380.0 
1195.727295 112.0 
1197.05603 160.0 
1197.427856 144.0 
1199.026367 284.0 
1199.439941 184.0 
1201.439819 188.0 
1202.626709 152.0 
1202.744019 200.0 
1202.88208 192.0 
1202.985718 68.0 
1204.387451 100.0 
1204.456543 112.0 
1205.866089 160.0 
1206.702637 160.0 
1207.103638 216.0 
1207.207397 132.0 
1207.477051 160.0 
1209.372925 144.0 
1210.044434 248.0 
1210.349121 160.0 
1210.75769 180.0 
1211.152466 136.0 
1213.959473 216.0 
1214.035767 144.0 
1214.660034 104.0 
1215.86731 124.0 
1217.415527 92.0 
1218.283813 204.0 
1218.513062 112.0 
1220.208862 180.0 
1220.271484 172.0 
1220.966919 180.0 
1221.224243 168.0 
1221.940796 72.0 
1222.754883 164.0 
1223.499756 196.0 
1223.861816 108.0 
1224.453735 176.0 
1225.275757 156.0 
1225.895874 52.0 
1226.035278 172.0 
1226.662598 252.0 
1227.262207 224.0 
1228.203735 152.0 
1228.545532 132.0 
1228.866455 156.0 
1228.985107 120.0 
1229.843506 168.0 
1230.625366 116.0 
1231.065308 340.0 
1233.112305 192.0 
1233.175293 164.0 
1234.070068 152.0 
1234.664429 200.0 
1234.853271 228.0 
1235.713745 192.0 
1236.910522 204.0 
1237.323486 36.0 
1237.582642 188.0 
1238.899292 108.0 
1239.053467 140.0 
1239.803223 168.0 
1241.142212 164.0 
1241.499878 208.0 
1243.716919 84.0 
1244.082031 100.0 
1245.915039 208.0 
1247.580566 156.0 
1249.029297 224.0 
1249.796143 144.0 
1250.436523 124.0 
1251.154541 236.0 
1251.323486 152.0 
1251.548828 176.0 
1251.76709 176.0 
1251.837524 184.0 
1252.006592 176.0 
1252.344604 68.0 
1252.471436 380.0 
1252.577148 172.0 
1253.267578 156.0 
1255.368164 196.0 
1255.495117 244.0 
1255.720825 136.0 
1256.715576 136.0 
1256.877808 116.0 
1257.188354 228.0 
1257.583618 144.0 
1258.896729 196.0 
1258.974487 80.0 
1262.500977 208.0 
1263.137573 168.0 
1264.382935 156.0 
1265.086548 220.0 
1266.266235 200.0 
1266.946289 72.0 
1267.286377 72.0 
1269.62561 196.0 
1270.356201 160.0 
1270.838745 160.0 
1271.56958 212.0 
1271.924561 236.0 
1272.429688 128.0 
1274.140259 140.0 
1274.921631 140.0 
1275.716797 152.0 
1276.571167 156.0 
1276.651733 184.0 
1276.834351 164.0 
1277.630981 184.0 
1277.887207 212.0 
1280.400024 132.0 
1281.190674 184.0 
1281.889038 172.0 
1281.938843 168.0 
1283.079346 180.0 
1283.157837 156.0 
1283.321777 160.0 
1284.02063 104.0 
1284.448608 64.0 
1286.446777 144.0 
1287.417847 156.0 
1287.774902 196.0 
1288.832275 120.0 
1289.232422 180.0 
1290.583496 136.0 
1291.627686 104.0 
1292.493408 132.0 
1293.531128 100.0 
1293.831787 152.0 
1294.275757 120.0 
1294.333008 168.0 
1295.242676 160.0 
1295.292725 160.0 
1296.40332 52.0 
1296.467896 100.0 
1296.553833 100.0 
1296.947998 236.0 
1297.292114 192.0 
1298.217041 224.0 
1298.482422 160.0 
1298.955933 192.0 
1301.108887 40.0 
1301.805298 52.0 
1302.76062 92.0 
1303.00061 216.0 
1303.57251 124.0 
1304.140381 204.0 
1304.787354 128.0 
1304.916748 184.0 
1305.549561 160.0 
1306.160889 168.0 
1306.427124 132.0 
1306.729248 208.0 
1307.189819 220.0 
1307.247314 96.0 
1308.017456 160.0 
1309.313599 196.0 
1309.904175 36.0 
1310.264404 96.0 
1310.444458 232.0 
1311.006592 148.0 
1311.225342 332.0 
1311.96521 176.0 
1314.237183 192.0 
1315.197021 172.0 
1315.789062 204.0 
1316.215088 176.0 
1316.77832 176.0 
1317.153931 104.0 
1317.898071 112.0 
1318.331665 148.0 
1319.040039 164.0 
1319.799072 144.0 
1319.987183 144.0 
1321.050293 164.0 
1321.33252 136.0 
1322.454224 244.0 
1322.939209 196.0 
1323.055054 132.0 
1323.656006 104.0 
1324.039795 152.0 
1325.481445 240.0 
1325.611938 188.0 
1325.793091 144.0 
1326.92395 216.0 
1327.0979 156.0 
1328.795166 232.0 
1329.382935 128.0 
1330.094238 220.0 
1330.159546 116.0 
1330.595581 196.0 
1331.379395 196.0 
1332.759644 224.0 
1333.966064 144.0 
1334.794922 204.0 
1335.122192 192.0 
1335.391357 116.0 
1335.733154 152.0 
1336.016846 180.0 
1336.890015 216.0 
1337.042847 144.0 
1337.17395 36.0 
1337.537842 160.0 
1340.370972 148.0 
1340.720825 144.0 
1341.69751 172.0 
1342.805908 176.0 
1342.937256 136.0 
1343.856445 204.0 
1344.17749 44.0 
1344.710327 144.0 
1345.688477 180.0 
1345.944092 180.0 
1346.03894 152.0 
1347.0177 148.0 
1347.127319 132.0 
1347.390259 188.0 
1349.663452 56.0 
1350.592285 228.0 
1350.723877 184.0 
1351.097046 176.0 
1351.455566 200.0 
1351.718994 172.0 
1351.938477 156.0 
1352.304443 72.0 
1352.414185 168.0 
1352.663086 148.0 
1353.043823 220.0 
1353.117065 124.0 
1353.556396 212.0 
1353.856689 196.0 
1354.53772 204.0 
1356.882935 120.0 
1357.975586 100.0 
1358.034302 220.0 
1358.393677 208.0 
1358.628418 124.0 
1358.797241 232.0 
1358.894531 184.0 
1359.105347 208.0 
1359.67041 152.0 
1361.608643 152.0 
1362.137573 156.0 
1362.409424 208.0 
1363.693115 156.0 
1364.004028 184.0 
1366.460449 208.0 
1366.585449 40.0 
1367.306641 80.0 
1367.601074 176.0 
1367.969116 164.0 
1368.631714 140.0 
1369.088379 100.0 
1369.247192 228.0 
1369.589111 152.0 
1369.648071 132.0 
1369.935425 172.0 
1370.981689 172.0 
1372.382324 140.0 
1372.573975 208.0 
1372.994385 180.0 
1373.709839 152.0 
1373.768921 200.0 
1373.982788 180.0 
1374.277954 216.0 
1374.74292 60.0 
1374.883057 152.0 
1375.03064 192.0 
1375.79834 188.0 
1376.595825 212.0 
1379.174316 268.0 
1379.839722 164.0 
1379.928467 208.0 
1380.460815 172.0 
1381.451904 212.0 
1381.747925 180.0 
1382.621094 152.0 
1382.717285 176.0 
1382.887451 124.0 
1382.968872 88.0 
1383.612915 140.0 
1384.012451 160.0 
1384.087646 152.0 
1384.212769 92.0 
1384.390503 156.0 
1385.471924 276.0 
1385.575684 100.0 
1386.42041 68.0 
1386.53894 100.0 
1387.168945 128.0 
1387.235718 184.0 
1388.169922 44.0 
1389.705444 160.0 
1390.202637 152.0 
1390.66272 180.0 
1391.768921 172.0 
1392.169922 228.0 
1392.351318 132.0 
1392.749268 220.0 
1392.920166 200.0 
1393.031616 188.0 
1393.105835 160.0 
1393.514526 184.0 
1393.774536 156.0 
1393.900879 228.0 
1394.376465 148.0 
1396.183105 156.0 
1396.302124 136.0 
1396.428589 256.0 
1396.681519 188.0 
1397.225708 216.0 
1397.804932 348.0 
1398.370483 136.0 
1398.720337 208.0 
1399.576538 204.0 
1400.150024 112.0 
1401.401489 156.0 
1401.602661 180.0 
1403.011353 104.0 
1403.593018 164.0 
1404.353638 256.0 
1404.659546 148.0 
1404.771362 112.0 
1405.405518 140.0 
1406.368286 200.0 
1406.748779 168.0 
1408.070679 104.0 
1408.488892 184.0 
1408.848267 188.0 
1409.460205 152.0 
1411.074707 180.0 
1411.456055 168.0 
1412.009521 140.0 
1412.211426 160.0 
1412.75 192.0 
1414.553589 128.0 
1415.796509 224.0 
1416.44812 136.0 
1418.568848 168.0 
1419.423584 124.0 
1419.723633 204.0 
1420.181152 200.0 
1422.282104 60.0 
1422.499756 120.0 
1422.980225 128.0 
1423.088867 164.0 
1423.182983 200.0 
1423.588501 176.0 
1424.02417 188.0 
1425.654419 148.0 
1426.541382 116.0 
1426.669189 192.0 
1427.112793 180.0 
1427.518921 176.0 
1427.8573 152.0 
1428.240845 92.0 
1428.655273 192.0 
1428.73938 216.0 
1429.715576 240.0 
1430.234985 164.0 
1430.536011 208.0 
1430.656494 64.0 
1431.401245 164.0 
1431.68811 172.0 
1431.906494 52.0 
1431.981812 184.0 
1432.155029 156.0 
1432.403687 200.0 
1432.93103 204.0 
1433.059082 208.0 
1433.769165 188.0 
1433.793213 124.0 
1434.604126 168.0 
1434.812134 188.0 
1435.576782 200.0 
1435.689941 160.0 
1436.655396 128.0 
1436.866699 176.0 
1437.168457 136.0 
1437.372192 108.0 
1437.7771 108.0 
1438.609985 148.0 
1439.459351 228.0 
1440.256226 172.0 
1440.528198 148.0 
1440.634033 140.0 
1442.213379 180.0 
1444.202026 72.0 
1444.610474 116.0 
1444.776855 176.0 
1445.548706 192.0 
1446.328247 152.0 
1447.585083 232.0 
1447.64563 68.0 
1447.69873 88.0 
1449.267456 176.0 
1449.387085 128.0 
1449.812378 52.0 
1451.381592 176.0 
1451.828979 212.0 
1452.534424 192.0 
1452.610229 172.0 
1452.754395 140.0 
1453.611816 196.0 
1454.560547 176.0 
1454.9021 196.0 
1454.962891 100.0 
1455.031128 128.0 
1455.630981 160.0 
1455.722168 180.0 
1456.466431 132.0 
1456.53479 52.0 
1457.53772 208.0 
1457.598511 116.0 
1457.917725 160.0 
1458.274902 136.0 
1458.472534 180.0 
1459.411377 172.0 
1459.536865 32.0 
1459.643311 48.0 
1459.71936 196.0 
1460.761353 156.0 
1460.913574 212.0 
1461.202637 128.0 
1462.975952 192.0 
1463.25 136.0 
1463.600342 148.0 
1463.661255 192.0 
1464.293335 168.0 
1464.377075 236.0 
1464.559937 184.0 
1464.818848 200.0 
1465.039795 200.0 
1466.525757 168.0 
1467.966675 88.0 
1468.767578 168.0 
1469.690674 212.0 
1470.418091 260.0 
1471.148438 188.0 
1471.247681 232.0 
1471.413452 160.0 
1471.507324 196.0 
1472.416016 184.0 
1472.637573 160.0 
1473.210449 36.0 
1473.56189 144.0 
1473.684204 196.0 
1473.989746 208.0 
1475.724976 152.0 
1476.390259 196.0 
1477.231689 156.0 
1477.484131 188.0 
1477.713623 188.0 
1478.448242 204.0 
1478.509399 84.0 
1480.49231 176.0 
1480.545898 88.0 
1481.35791 128.0 
1482.453491 188.0 
1482.898071 316.0 
1484.132324 56.0 
1484.377686 96.0 
1484.669189 168.0 
1485.060303 172.0 
1485.267334 240.0 
1485.420776 148.0 
1485.950195 112.0 
1486.126587 176.0 
1486.278076 208.0 
1487.231812 184.0 
1487.746094 164.0 
1488.229736 108.0 
1488.475464 176.0 
1488.567627 232.0 
1488.640015 160.0 
1488.836426 232.0 
1490.903076 124.0 
1491.702515 180.0 
1491.933105 116.0 
1491.994629 152.0 
1492.686646 40.0 
1495.595459 216.0 
1495.702637 192.0 
1495.972046 136.0 
1496.664917 152.0 
1497.650757 132.0 
1498.760132 60.0 
1499.777466 144.0 
1500.02417 220.0 
1500.502075 172.0 
1500.610107 56.0 
1501.342651 180.0 
1501.450562 76.0 
1501.55249 184.0 
1502.414795 112.0 
1502.490967 184.0 
1502.862305 176.0 
1503.518188 584.0 
1504.637573 148.0 
1504.838257 184.0 
END IONS

