BEGIN IONS
TITLE=Scan Number: 516
PEPMASS=901.46698
CHARGE=1+
COMPOUNDNAME=Etamycin
LIBRARYQUALITY=3
SMILES=O=C(N1[C@@](C[C@@H](O)C1)([H])C2=O)[C@@H](CC(C)C)NC([C@](NC(C3=C(O)C=CC=N3)=O)([H])[C@H](C)OC([C@H](C4=CC=CC=C4)N(C)C([C@H](C)NC([C@H](C(C)C(C)C)N(C)C(CN2C)=O)=O)=O)=O)=O
INCHIKEY=SATIISJKSAELDC-QPFUEGANSA-N
INCHI=
MSLEVEL=2
SOURCE_INSTRUMENT=LC-ESI-qTof
FILENAME=f.dfloros/Final1000Strains/Round_2/mzXMLs/Samples/ISP2-s-EAM-P-01_G-4_P1-G-4_01_12810.mzXML;
SEQ=*..*
NOTES=
IONMODE=Positive
ORGANISM=GNPS-LIBRARY
NAME=Etamycin M+Na
SPECTRUMID=CCMSLIB00000579202
ACTIVATION=CID
INSTRUMENT=ion trap
SCANS=516
202.149582 376.0 
233.699158 336.0 
284.28653 536.0 
290.254883 876.0 
303.261536 1096.0 
312.229431 1164.0 
324.284271 356.0 
325.276794 1092.0 
326.310669 1436.0 
327.309326 340.0 
331.791229 3000.0 
332.291656 728.0 
332.790802 544.0 
340.235382 548.0 
340.765259 396.0 
348.301666 4508.0 
349.304016 1176.0 
350.274902 360.0 
362.792328 432.0 
363.304138 492.0 
364.272369 636.0 
366.317291 580.0 
385.800171 1880.0 
386.30658 892.0 
391.357483 852.0 
391.822479 744.0 
392.317169 8796.0 
392.816681 4232.0 
393.316895 1564.0 
393.814545 356.0 
397.371124 1688.0 
398.371063 480.0 
421.340576 524.0 
434.372437 544.0 
437.375885 20324.0 
438.380371 4660.0 
439.384369 712.0 
450.410278 5012.0 
451.41391 908.0 
453.32608 888.0 
458.860596 3136.0 
459.356232 25184.0 
459.858276 13084.0 
460.360382 4856.0 
460.857849 1548.0 
461.405792 2104.0 
461.853912 384.0 
462.425568 348.0 
468.363586 520.0 
471.335876 784.0 
480.341522 380.0 
483.369873 360.0 
484.371735 976.0 
487.417969 1636.0 
488.426605 404.0 
491.404114 1048.0 
497.380463 364.0 
498.360443 832.0 
499.353149 408.0 
504.477661 1048.0 
505.427094 676.0 
523.381714 608.0 
524.37854 2320.0 
525.385681 396.0 
530.451233 496.0 
532.479858 420.0 
533.464111 332.0 
540.350525 476.0 
540.483276 1020.0 
541.398804 1808.0 
542.397217 8200.0 
543.396729 3112.0 
544.485413 5236.0 
545.486816 1268.0 
546.499939 368.0 
550.497253 14496.0 
551.496948 4840.0 
552.498291 1072.0 
555.43634 972.0 
556.429993 432.0 
560.480591 1208.0 
562.499817 1296.0 
563.52832 2700.0 
564.528564 464.0 
566.465149 1412.0 
570.415466 404.0 
571.404114 512.0 
576.494446 12964.0 
577.499268 2900.0 
578.498291 596.0 
584.492004 3800.0 
585.49823 1228.0 
587.536804 1616.0 
588.542725 656.0 
589.531006 2276.0 
590.526611 672.0 
592.461365 1156.0 
593.464905 516.0 
615.548462 1128.0 
621.503235 2684.0 
622.499695 648.0 
633.562561 90340.0 
634.564392 28144.0 
635.568787 7260.0 
636.562683 1056.0 
638.51239 976.0 
639.514587 1452.0 
640.518311 504.0 
646.5979 6592.0 
647.599365 2468.0 
648.587585 424.0 
649.531189 1712.0 
650.533447 916.0 
653.609497 472.0 
655.480469 484.0 
659.551025 1608.0 
660.54187 716.0 
663.555603 620.0 
664.54718 8136.0 
665.542969 34100.0 
666.544922 12472.0 
667.549866 2304.0 
668.547607 776.0 
669.581726 388.0 
679.614502 448.0 
681.527588 444.0 
682.559387 2436.0 
683.557983 5200.0 
684.557861 2292.0 
685.558289 468.0 
692.58551 492.0 
695.557983 500.0 
697.608398 1040.0 
698.606323 748.0 
699.523376 336.0 
707.600769 1784.0 
708.595093 10500.0 
709.598206 5596.0 
710.577271 23776.0 
711.580688 8460.0 
712.578857 2224.0 
713.58429 416.0 
722.612366 456.0 
723.616089 2320.0 
724.597351 1784.0 
725.579895 448.0 
726.617004 472.0 
735.602417 768.0 
736.606018 5344.0 
737.611572 2656.0 
738.605042 1044.0 
739.577637 820.0 
751.94104 336.0 
752.657654 1204.0 
753.622681 54324.0 
753.988159 588.0 
754.309448 656.0 
754.622009 359600.0 
755.272949 548.0 
755.622986 143652.0 
756.215088 500.0 
756.621338 26144.0 
757.624268 3432.0 
758.616272 648.0 
766.656433 5688.0 
767.653137 30928.0 
768.655334 10024.0 
769.659485 2808.0 
770.588135 4120.0 
771.592529 2216.0 
772.59259 540.0 
773.590576 424.0 
780.67981 24104.0 
781.67926 9520.0 
782.679016 1688.0 
783.669189 440.0 
788.601868 396.0 
806.666138 1148.0 
807.672791 632.0 
829.700134 488.0 
856.717773 432.0 
857.709045 1480.0 
858.722168 764.0 
873.721558 4268.0 
874.7276 2452.0 
875.718994 856.0 
879.740967 2968.0 
880.747009 1896.0 
881.755127 748.0 
883.716125 592.0 
896.788147 576.0 
897.026123 748.0 
897.40863 564.0 
897.724365 504.0 
898.064575 420.0 
898.701904 392.0 
899.704834 1544.0 
900.330933 456.0 
900.506653 716.0 
900.737671 101236.0 
901.271423 1480.0 
901.498535 1244.0 
901.738525 848088.0 
901.925293 1852.0 
902.152039 2156.0 
902.501587 1644.0 
902.742004 488676.0 
903.139771 1496.0 
903.517883 776.0 
903.741821 117380.0 
904.126953 552.0 
904.465332 428.0 
904.742065 21728.0 
905.729187 1864.0 
916.701782 768.0 
917.70282 5552.0 
918.703003 1992.0 
919.706665 932.0 
920.70343 348.0 
921.685974 364.0 
END IONS

