BEGIN IONS
TITLE=Scan Number: 5
PEPMASS=485.0
CHARGE=1+
COMPOUNDNAME=Kanamycin A
LIBRARYQUALITY=3
SMILES=O([C@@H]2[C@@H](O)[C@H](O[C@H]1O[C@H](CN)[C@@H](O)[C@H](O)[C@H]1O)[C@@H](N)C[C@H]2N)[C@H]3O[C@@H]([C@@H](O)[C@H](N)[C@H]3O)CO
INCHIKEY=SBUJHOSQTJFQJX-NOAMYHISSA-N
INCHI="InChI=1S/C18H36N4O11/c19-2-6-10(25)12(27)13(28)18(30-6)33-16-5(21)1-4(20)15(14(16)29)32-17-11(26)8(22)9(24)7(3-23)31-17/h4-18,23-29H,1-3,19-22H2/t4-,5+,6-,7-,8+,9-,10-,11-,12+,13-,14-,15+,16-,17-,18-/m1/s1"
MSLEVEL=2
SOURCE_INSTRUMENT=DI-ESI-Hybrid FT
FILENAME=Kanamycin_A_FT_485mz.mzXML
SEQ=*..*
NOTES=
IONMODE=Positive
ORGANISM=GNPS-LIBRARY
NAME=Kanamycin A M+H
SPECTRUMID=CCMSLIB00000075308
ACTIVATION=CID
INSTRUMENT=ion trap
SCANS=5
130.023361 15.191068 
130.053284 11.630985 
130.372849 12.549274 
130.398178 14.656364 
130.564529 14.646991 
130.865479 11.182426 
131.430405 11.472622 
131.432602 13.805915 
131.574982 13.506962 
131.850754 11.137483 
131.853745 13.976279 
132.254227 12.115646 
132.349991 13.575042 
132.398499 10.545129 
132.441162 11.734766 
132.721268 15.226375 
132.75293 11.130616 
132.950653 13.145082 
133.118637 11.858903 
133.311478 12.816157 
133.342041 12.784089 
133.35054 12.403728 
133.638321 11.885671 
133.639191 12.91571 
133.832581 11.365347 
133.967957 11.242606 
134.075928 10.600077 
134.087601 11.780109 
134.283737 14.560125 
134.344727 12.204496 
134.423187 15.004266 
134.674896 11.951762 
134.713882 11.453379 
134.74353 11.332827 
134.877274 10.625359 
134.971924 12.084953 
135.107315 13.523629 
135.19281 12.291043 
135.287613 10.492894 
135.339066 14.947865 
135.477554 11.517954 
135.522034 12.983525 
135.585617 13.478298 
135.74588 13.170882 
135.754822 12.810741 
136.067169 10.967188 
136.177322 15.433846 
136.217422 12.955179 
136.41803 10.180635 
136.603806 12.226189 
136.66275 14.648232 
136.79332 12.162942 
136.888794 11.328509 
136.896255 13.036062 
136.931412 12.991171 
136.970779 13.430219 
136.988373 11.00895 
137.044907 15.101873 
137.516327 11.762632 
137.866196 10.148186 
138.141739 16.103535 
138.158661 11.314988 
138.312042 12.742348 
138.480896 12.5038 
138.483002 9.906043 
138.616043 11.357434 
138.746918 11.29314 
139.055801 11.802385 
139.076782 10.784806 
139.078171 11.876387 
139.233704 13.135403 
139.277893 14.241671 
139.582016 11.701859 
139.737 12.590611 
139.857925 11.695025 
139.859131 12.651423 
139.891953 13.588447 
140.152405 11.72394 
140.296844 12.014731 
140.473648 14.191631 
140.538193 11.741181 
140.687912 13.808743 
140.751175 11.831075 
140.837906 9.907067 
140.8629 12.918308 
141.069153 11.94025 
141.106003 13.088512 
141.121536 11.38508 
141.13475 12.813053 
141.208054 12.027225 
141.333725 11.253993 
141.548706 12.515764 
141.622879 11.610183 
142.24028 11.366385 
142.281967 12.803004 
142.727997 9.465063 
142.80838 11.880449 
142.90831 12.692902 
143.131836 11.473783 
143.191513 13.600378 
143.507095 12.397869 
143.539703 10.645189 
143.552994 13.01073 
143.628052 14.20129 
143.723083 10.478215 
144.04512 11.598349 
144.109634 14.247819 
144.330704 13.939672 
144.522781 11.828215 
144.777176 12.281384 
144.781891 13.705382 
144.806961 13.155984 
144.810989 12.610609 
145.096985 26.706997 
145.418594 11.857748 
145.467789 13.708722 
145.716507 12.701668 
145.733185 11.089836 
145.75975 12.8696 
145.938904 12.438436 
146.140442 10.219289 
146.224533 9.928606 
146.391098 11.152442 
146.8349 10.517628 
147.190079 13.004603 
147.314957 10.426394 
147.505753 10.523042 
147.510468 12.488506 
147.895599 12.647528 
147.959259 10.408155 
148.030716 12.582856 
148.157822 13.185858 
148.373688 14.452954 
148.469009 15.259282 
148.540085 12.554741 
148.640686 17.050198 
148.674377 12.368759 
148.894989 11.321217 
149.145233 11.888138 
149.328995 12.274869 
149.37323 10.151537 
149.416153 10.711287 
149.516373 10.895076 
149.664429 10.70161 
149.678513 14.167598 
149.925674 14.820738 
149.927002 12.89619 
149.929886 14.039083 
149.94574 13.301076 
150.109879 12.936107 
150.117752 12.479214 
150.126022 9.667325 
150.156891 10.626805 
150.186646 11.179956 
150.655228 12.713266 
150.688187 10.882797 
150.778015 11.088929 
150.801254 13.528681 
151.017441 14.074116 
151.104584 10.699845 
151.178711 11.888222 
151.335785 11.202526 
151.35228 14.92033 
151.420547 13.712338 
151.433746 11.83644 
151.508484 15.445568 
151.544449 12.543432 
151.640244 17.594475 
151.872437 12.801422 
151.981155 12.256417 
152.171692 10.149817 
152.172089 9.98058 
152.383636 10.909955 
152.41214 11.762466 
152.462128 14.877544 
152.910599 12.872795 
153.053558 13.213206 
153.097397 11.735541 
153.317474 10.21759 
153.474609 13.51846 
153.752914 11.863267 
153.93576 11.748102 
153.936127 9.531574 
154.264786 13.165665 
154.404694 11.9965 
154.569717 10.98294 
154.616364 12.126429 
154.626633 13.993315 
154.769241 10.545843 
154.828308 11.260978 
154.943848 13.973844 
155.33931 12.446848 
155.363876 14.510914 
155.483093 12.754673 
155.581314 14.480516 
155.866013 10.889994 
155.890518 16.268808 
155.891037 13.119821 
155.893173 11.393151 
155.921265 10.25563 
156.065247 13.634124 
156.122559 12.497751 
156.258926 10.669565 
156.479813 13.842459 
156.528885 12.84017 
156.820297 13.228801 
156.840652 10.171168 
156.886734 11.351293 
157.073166 12.523645 
157.110733 11.326515 
157.150391 13.82817 
157.672913 12.938866 
157.69574 12.96081 
157.734543 12.111843 
157.79277 15.067935 
157.933624 13.902588 
158.050049 14.609819 
158.055847 12.757228 
158.196457 14.336114 
158.315704 12.184681 
158.35202 13.505198 
158.511169 10.246251 
158.685043 11.587481 
158.725174 10.536607 
158.732376 11.197512 
158.800186 10.248612 
158.876419 14.06714 
158.878891 10.281693 
158.950363 12.17074 
158.983322 16.093449 
159.061371 11.779469 
159.157486 11.512337 
159.178528 12.172927 
159.301071 10.392677 
159.421982 12.12794 
159.664185 10.528048 
159.697937 10.963677 
159.900604 12.277693 
160.007767 12.663101 
160.170319 12.877713 
160.259399 10.762876 
160.361572 15.322098 
160.62468 10.357768 
160.628555 13.304591 
160.68779 11.050396 
161.108185 11.833285 
161.145401 15.314069 
161.393051 12.666861 
161.689194 13.543896 
161.707413 13.400902 
161.891174 19.209892 
162.075851 39.607059 
162.111298 13.244425 
162.114975 10.247075 
162.162415 12.881798 
162.215271 11.740667 
162.240509 12.56219 
162.297989 11.048908 
162.343765 14.49353 
162.391327 10.998812 
162.485077 12.207327 
162.495544 11.271549 
162.58934 15.54536 
162.730392 12.734857 
163.106186 84.469696 
163.107544 506.188995 
163.117645 11.753715 
163.143341 11.189131 
163.213715 9.541858 
163.413315 15.103729 
163.683746 12.371115 
164.089401 12.705806 
164.110748 23.963263 
164.472046 11.627665 
164.504822 11.8076 
164.517151 11.557103 
164.596832 10.821239 
164.661987 14.002707 
164.738541 13.721456 
165.017303 11.172731 
165.077606 13.521361 
165.119125 10.790317 
165.445557 10.447725 
165.655884 15.915723 
165.659912 13.835623 
165.758652 12.553303 
166.223343 10.946296 
166.522202 11.871874 
166.533463 12.121592 
166.69223 13.171482 
166.811447 12.624876 
166.844193 10.857044 
166.870377 11.845837 
167.100128 13.238365 
167.12854 10.979034 
167.168442 13.480118 
167.226639 10.299329 
167.262909 11.464723 
168.104431 10.625539 
168.357391 11.233574 
168.421631 13.396094 
168.512207 10.67725 
168.545502 12.385731 
168.675049 11.138673 
168.720352 14.898476 
169.097641 12.382755 
169.224792 11.57076 
169.360703 11.704283 
169.575378 14.415112 
169.798325 12.43542 
169.80806 12.695249 
170.148224 11.503773 
170.195694 11.068282 
170.313751 9.95183 
170.47403 10.132442 
170.817612 13.396082 
171.041016 11.476418 
171.052887 11.171948 
171.707169 15.408612 
172.11879 11.694644 
172.171112 10.407046 
172.693909 10.656232 
172.721573 17.042995 
172.760513 12.386514 
173.065338 12.826034 
173.325043 17.008434 
173.354767 12.034572 
173.387543 12.070689 
173.388824 10.312678 
173.509705 11.679754 
173.686966 13.924376 
174.086746 13.554663 
174.087769 15.164918 
174.529739 11.203449 
174.594406 12.516084 
174.721451 13.05832 
174.883209 12.58973 
174.938126 10.425632 
174.938858 10.974097 
175.020798 12.367962 
175.091904 10.669784 
175.14093 14.413939 
175.219482 13.584759 
175.26535 10.904937 
175.432526 10.010329 
175.530365 11.945566 
175.653061 11.483335 
176.107986 12.135486 
176.247879 14.144214 
176.577469 11.452125 
176.668961 12.125775 
176.76535 11.721777 
176.97345 11.379593 
176.974518 11.313186 
177.75383 11.397332 
178.039215 11.656258 
178.091675 13.159248 
178.608963 13.94459 
178.662338 15.488634 
178.742477 11.482004 
179.125168 12.958496 
179.504349 11.597045 
179.968353 12.816336 
180.653915 11.506694 
180.853409 13.023632 
181.16922 13.163698 
181.31459 11.255262 
181.324799 11.927324 
181.500824 10.865183 
181.556152 10.897923 
181.683105 13.300718 
181.839355 18.673561 
181.84201 13.531187 
181.949997 14.31551 
182.214828 13.297636 
182.248627 10.586797 
182.345703 10.996867 
182.716934 11.249539 
182.830032 11.716814 
182.955704 10.340779 
182.973007 11.90077 
183.035492 11.90406 
183.093018 35.962635 
183.816422 13.157995 
184.095474 10.233512 
184.24971 12.625772 
184.388535 10.712319 
184.396027 12.908463 
184.485703 14.355864 
184.841705 12.46295 
185.170639 11.400771 
185.35376 14.993544 
185.958633 12.375974 
186.238556 13.061549 
186.349625 14.281659 
186.35437 11.609027 
186.672699 10.382275 
186.740097 10.469911 
186.773422 12.754604 
186.803299 10.480855 
186.843552 11.358709 
187.107452 51.246811 
187.124863 10.179051 
187.236664 9.838548 
187.430328 12.366687 
187.730911 12.338299 
187.793991 11.672581 
188.09343 16.112045 
188.264633 12.787524 
188.283691 15.126699 
188.776978 11.181824 
188.817078 14.063966 
188.940674 10.876451 
189.033142 11.565135 
189.169418 12.244553 
189.404114 12.626389 
189.405167 10.450375 
189.673935 9.349092 
190.135315 12.638092 
190.235077 11.247094 
190.276352 12.801553 
190.999359 13.443295 
191.132935 11.506416 
191.199509 14.315009 
191.288834 14.625294 
191.320328 12.038215 
191.480942 12.774651 
191.502075 12.208325 
191.552979 13.911785 
191.696609 11.131128 
192.175049 11.386469 
192.364624 12.335279 
192.686096 11.848467 
192.719177 13.593748 
192.866394 10.723704 
193.07222 10.868515 
193.150375 12.44735 
193.676056 12.363556 
194.309998 12.271688 
194.324707 13.540761 
194.540192 12.188618 
194.773499 11.189052 
195.122284 10.603765 
195.123001 11.356999 
195.194855 13.972203 
195.453888 11.65825 
195.655975 12.56536 
195.791214 14.527873 
195.798035 10.966377 
195.906006 12.820827 
196.547684 19.059402 
196.60997 12.8428 
196.682541 13.222903 
196.687012 11.327183 
196.771103 13.737132 
196.954483 12.035851 
196.955826 13.541106 
197.390121 11.194511 
197.567459 10.975198 
198.305252 12.224754 
198.352127 12.91723 
198.408524 11.939175 
198.507523 11.650476 
198.583969 12.6142 
198.736389 14.051981 
198.805435 12.924585 
198.811432 10.183374 
199.002121 13.534461 
199.154266 10.311528 
199.33934 12.035587 
199.632339 11.520869 
199.703842 12.896932 
199.733673 14.407217 
199.876709 9.907197 
200.002289 15.010668 
200.060684 13.356712 
200.093185 12.455869 
200.444214 11.595425 
200.580444 13.057299 
200.589432 12.838546 
200.609406 13.22965 
200.795288 12.189742 
200.852829 15.200027 
200.940521 11.049622 
201.172318 11.342072 
201.30249 11.858709 
201.384323 9.961952 
201.492844 11.335214 
201.512589 12.548105 
201.651123 15.07305 
201.788849 12.207431 
201.790817 12.226293 
201.90712 11.31971 
202.069534 11.200367 
202.14386 16.801682 
202.183212 13.86326 
202.539688 11.746984 
202.541229 13.222398 
202.543015 13.178728 
202.544266 13.233211 
202.847778 14.388765 
202.998596 11.932669 
203.180328 11.156054 
203.281052 12.273034 
203.400833 17.333162 
203.49324 11.537072 
203.735214 13.957923 
203.785736 12.439481 
204.086365 48.483097 
204.832184 11.83928 
204.839539 14.399317 
205.115891 67.350456 
205.116821 33.887585 
205.118011 463.886414 
205.261261 15.427783 
205.308136 10.90099 
205.339752 10.43911 
205.596451 10.667379 
205.657471 12.171364 
205.869934 11.333733 
205.991852 12.093895 
206.121338 41.277496 
207.097107 11.348039 
207.446426 10.007201 
207.635086 12.755056 
207.749176 11.685365 
207.889603 13.228927 
208.318634 14.959184 
208.402237 10.721401 
208.65477 12.087837 
208.675919 13.649774 
208.727188 10.585556 
209.291885 12.104436 
209.342529 11.796719 
209.523422 12.861507 
209.536896 10.295493 
209.645828 12.274965 
210.100952 15.445694 
210.449188 11.378562 
210.471786 11.041946 
210.584946 11.170416 
210.744293 16.106539 
210.94664 12.579812 
210.966812 11.01034 
210.970001 9.794835 
211.00119 13.560118 
211.267578 12.563103 
211.611633 11.726511 
211.682541 11.214201 
211.956543 10.38134 
212.160568 13.23584 
212.225937 12.460044 
212.517563 12.311453 
212.621872 12.303394 
212.649063 14.00649 
212.717575 12.229496 
212.746735 12.474877 
213.041168 12.885238 
213.105789 12.443871 
213.223846 14.797346 
213.226517 11.174023 
213.39769 10.694381 
213.472137 10.366397 
213.710281 14.314959 
213.866287 12.088259 
213.872955 11.746746 
214.525177 13.641268 
215.047714 15.136292 
215.084396 11.482353 
215.104095 10.03652 
215.377197 11.458729 
215.433823 14.767768 
215.818192 12.472458 
215.898621 12.081935 
216.104553 11.997849 
216.185532 12.706258 
216.238556 10.461353 
216.322968 12.177112 
216.853546 11.999079 
216.865692 11.249738 
217.103348 13.898107 
217.217667 11.592746 
217.310303 12.447357 
217.445129 13.049265 
217.612473 13.004776 
217.659637 11.247393 
218.052017 11.246918 
218.163803 10.987361 
218.294281 17.588915 
218.345062 15.820087 
218.475479 11.553679 
218.813309 13.256689 
219.244232 10.899952 
219.357864 13.085807 
219.380981 14.033225 
219.717087 11.974226 
219.722549 13.670115 
219.819336 11.47146 
219.869736 12.750157 
219.904099 11.097943 
220.19754 11.377319 
220.350815 11.238165 
220.431015 11.814818 
220.783432 13.910041 
221.090317 14.822464 
221.261871 11.53434 
221.390839 11.061134 
221.581497 11.058516 
222.096924 12.671689 
222.164505 11.447485 
222.238052 13.526934 
222.595184 16.618145 
222.711685 14.462077 
222.935196 12.276696 
223.008331 10.976456 
223.102753 12.601454 
223.112701 12.716487 
223.822906 13.168137 
223.960007 15.254817 
223.99649 12.891568 
224.02832 11.740024 
224.215958 11.683601 
224.246887 10.62559 
224.264313 16.793478 
224.329407 11.565751 
224.551987 12.045373 
224.553894 10.533773 
224.683487 11.410657 
224.801071 14.570098 
224.853897 11.785792 
224.866272 11.054015 
224.908432 11.966166 
225.102997 13.703958 
225.541107 12.045551 
225.782974 15.558659 
226.13562 11.571623 
226.248535 13.258287 
226.572739 17.231052 
226.785583 10.949862 
227.063339 11.792413 
227.090057 13.676981 
227.261246 10.362871 
227.472717 11.148332 
227.698074 11.179763 
227.999374 13.252536 
228.181534 11.73916 
228.465088 10.523077 
229.247269 13.767263 
229.626968 12.372111 
229.667679 11.310713 
230.593887 13.638266 
230.880783 14.347493 
231.383331 10.722356 
231.46347 12.186961 
231.940475 12.992923 
232.077454 13.860106 
232.131851 10.854 
232.17775 10.81229 
232.787537 11.98705 
232.78981 14.009545 
233.110519 12.209959 
233.445129 14.070956 
233.47023 14.277179 
233.946854 12.37001 
234.108475 11.951479 
234.409729 9.736308 
234.455109 12.150562 
234.54332 12.684473 
235.123672 14.344311 
235.320633 12.637549 
235.427322 13.036913 
235.465256 14.255404 
235.578491 10.768497 
235.689255 10.621469 
235.83873 11.009017 
236.159302 12.554212 
236.694275 10.32601 
236.695114 11.857904 
236.800491 11.59271 
237.20253 13.762418 
237.278625 15.188951 
237.521622 13.912093 
238.679581 11.599973 
238.855484 10.082845 
239.034637 11.411196 
239.169968 14.67751 
239.305878 12.982818 
239.603317 13.752259 
239.786758 11.706184 
239.887146 13.034348 
240.423477 14.53252 
240.684006 15.119714 
241.11264 11.490838 
241.592789 12.412237 
241.628479 11.157878 
241.687683 12.492074 
241.922821 13.547502 
242.144852 13.061646 
242.590103 10.391521 
243.032211 13.831953 
243.959412 16.556057 
243.985107 10.59256 
244.093979 12.196838 
244.155334 10.896512 
244.330063 14.550626 
244.621948 13.441166 
245.153549 13.52794 
245.395615 13.627368 
245.578232 14.382222 
245.66069 13.898462 
245.762177 11.54608 
245.767166 14.304056 
246.246643 11.251237 
246.302063 11.25661 
246.372025 10.577996 
246.593323 10.662789 
246.706879 9.662563 
246.717178 11.540009 
246.987289 11.811448 
247.201416 11.941124 
247.254013 13.886459 
247.520432 11.441769 
248.494095 10.486575 
248.639297 11.488099 
249.025818 11.881054 
249.383179 13.011087 
249.403702 13.05393 
249.690826 13.21708 
250.010925 15.040958 
250.584869 12.885783 
250.902542 12.806675 
251.389923 12.115658 
251.510101 14.133575 
251.709473 11.125152 
252.241241 14.938132 
252.701614 12.80427 
252.863571 12.00736 
252.99704 13.039178 
253.044296 12.025104 
253.267151 12.102324 
253.513535 16.456551 
253.735062 11.914353 
253.863693 10.748153 
253.881653 11.634984 
254.310944 12.9787 
254.311874 14.018289 
254.594299 14.244026 
254.656296 14.925554 
254.729736 11.181858 
254.782623 22.560001 
254.85173 14.878429 
254.864212 11.723343 
254.901184 10.625308 
254.946991 12.194415 
255.119278 12.997235 
255.284744 12.731274 
255.952393 12.196537 
256.56546 11.01036 
256.599915 14.139543 
257.380371 15.5127 
257.486328 10.904184 
257.738251 14.989689 
257.795593 14.150447 
257.835815 13.060277 
258.045776 12.165776 
258.160278 12.689494 
258.225922 11.180728 
258.286957 10.600251 
258.300964 16.080957 
258.505707 11.722054 
259.173157 12.231022 
259.561981 11.433422 
260.030975 11.249089 
260.995056 13.975886 
261.041504 15.716077 
261.090393 13.257855 
261.484802 13.443295 
261.485779 13.314024 
261.637024 11.702374 
261.640686 13.606892 
262.542328 11.22086 
262.82135 12.133081 
262.892059 12.888529 
263.123322 54.237778 
263.210175 12.411264 
263.213593 11.522433 
263.368378 12.808201 
263.545624 13.013353 
263.560272 10.448495 
263.581451 13.653676 
263.641815 12.15362 
263.704773 11.778066 
264.107239 22.071062 
264.332336 11.59798 
264.39447 12.23088 
264.414948 14.450647 
264.587921 11.956589 
264.679291 10.865637 
265.16214 12.589596 
265.232269 11.9145 
265.325073 9.782865 
265.326691 12.622009 
265.834167 9.826241 
266.988403 11.824484 
267.038818 11.244002 
267.180695 12.553708 
267.544861 14.441359 
267.894226 10.712732 
268.104584 13.323321 
268.166229 11.354882 
268.293976 13.242854 
268.296906 17.408726 
268.352722 12.577275 
268.433075 14.009584 
268.775238 12.992592 
268.868103 12.327837 
269.049347 11.329174 
269.107056 11.761971 
269.520721 12.425383 
270.123688 12.223853 
270.251526 10.141547 
270.253204 13.038156 
270.547455 10.627229 
270.603729 11.234013 
270.706482 15.213826 
270.768097 11.112093 
270.867767 11.968272 
271.07193 13.196027 
271.089355 12.125916 
271.128418 51.641006 
271.255188 11.399023 
271.427429 12.289322 
271.538422 10.572028 
271.634735 11.238094 
271.943481 12.757221 
272.013306 15.807703 
272.221344 11.146652 
272.377869 13.995942 
272.432465 10.381601 
272.489899 13.01822 
272.565979 11.809616 
272.600006 12.890944 
272.966858 17.91802 
273.187744 12.516732 
273.706085 13.44391 
273.937714 14.05224 
274.389801 14.560916 
274.442047 15.279636 
275.068665 14.124483 
275.092712 16.59276 
276.577942 12.06019 
276.615387 14.266736 
276.771301 13.632159 
277.034851 10.564009 
277.630188 11.645925 
277.632385 12.243456 
277.734344 10.898558 
277.809204 11.517052 
277.864716 10.893363 
278.115234 12.193794 
278.327759 13.952228 
279.188812 12.212714 
279.238312 13.568416 
279.660797 10.949889 
279.715881 12.92651 
281.133911 25.253199 
281.290009 14.138986 
282.951202 12.425699 
283.308197 13.81843 
283.391937 11.906524 
283.717041 11.020619 
283.769745 13.178259 
283.887573 10.720525 
283.950226 10.619032 
284.114594 13.70431 
284.187469 12.103555 
284.318573 11.294913 
284.400238 14.165618 
284.574005 12.051051 
284.70816 18.649847 
285.369324 12.333876 
285.972534 10.765982 
286.949982 12.578368 
287.12323 19.610111 
287.378204 12.453959 
287.420654 10.751814 
287.655121 13.978308 
287.97583 11.335227 
288.090546 19.44215 
288.169952 10.189266 
288.940582 15.070495 
288.952423 13.584099 
289.120392 11.938664 
289.139191 32.990738 
289.393311 11.447173 
289.470154 12.538677 
289.516785 10.474944 
289.580597 14.175052 
289.798218 12.221749 
290.078552 11.583344 
290.22583 10.806353 
290.552643 13.649081 
290.903717 16.686152 
291.269562 13.467893 
291.327209 11.303828 
291.373169 15.535556 
291.864502 11.992881 
291.914246 13.269846 
292.309509 12.891169 
292.395691 14.889276 
292.407684 12.398565 
293.288483 12.523591 
293.300964 12.062963 
293.351501 12.33393 
293.438507 15.341559 
294.082031 12.316381 
294.090149 13.623519 
294.287842 12.312455 
294.380859 12.097404 
294.529663 14.554159 
294.846375 12.669459 
295.320099 13.708936 
295.413025 11.832011 
295.716217 13.859122 
296.794739 12.986691 
296.862152 13.81447 
297.075195 14.784088 
297.278564 13.652267 
297.539001 11.069463 
298.396576 10.296314 
298.403534 12.783869 
298.75528 11.223981 
299.766632 11.186363 
300.210419 13.036525 
300.323517 13.809527 
300.939301 11.364186 
301.314697 14.831334 
301.328064 13.223286 
301.4664 13.2711 
301.482025 11.816988 
301.617584 10.918931 
302.263733 13.257992 
302.408112 13.03528 
303.193481 13.40488 
304.859406 13.318058 
304.927521 12.789172 
305.129272 18.445328 
305.133728 162.529648 
305.413513 13.197946 
305.683685 12.350563 
306.11734 16.153316 
306.1651 12.626074 
306.37738 11.68468 
306.659607 13.057918 
307.149414 46.217899 
307.801727 12.063033 
308.702759 12.099213 
308.85791 12.864005 
309.352295 10.624194 
309.460419 12.514117 
309.666229 16.121752 
309.812256 11.620967 
311.087158 11.33637 
311.573517 11.988108 
311.855286 13.046738 
312.108063 12.339589 
312.311798 14.138633 
312.820374 12.846813 
313.137787 12.070152 
313.323303 12.600061 
313.694397 17.058149 
313.847717 12.309709 
315.37854 14.370476 
315.442291 14.54989 
316.142853 13.103342 
316.405334 13.104945 
316.482697 13.106633 
317.916809 13.054573 
318.181061 12.523335 
318.758789 11.404406 
319.335388 11.504362 
319.541809 11.126253 
320.023865 13.597318 
320.03598 12.063745 
320.084015 10.833668 
320.140686 10.630774 
320.157074 13.144797 
320.560791 11.547153 
320.775208 11.493982 
321.440887 13.271275 
321.893982 13.420141 
322.878723 16.391762 
323.026428 13.753184 
323.091797 11.023816 
323.139069 22.571396 
323.144287 235.096664 
323.528107 11.116388 
323.540741 11.948497 
324.164856 62.744202 
324.170776 776.942017 
324.175232 8532.165039 
324.180878 113.770706 
324.433197 13.106999 
324.555237 10.174065 
325.120789 14.620955 
325.154785 33.18808 
325.15979 205.803818 
325.173737 96.771194 
325.179138 527.003601 
325.352661 13.660964 
325.815887 15.01354 
325.895538 12.023336 
325.926147 14.669678 
326.554779 14.536798 
327.431549 13.232313 
328.10907 11.933001 
328.82077 14.902992 
329.101868 14.370134 
330.165253 41.778126 
331.196808 12.117865 
331.242218 12.201238 
332.074249 11.543418 
332.141724 11.330102 
332.335266 12.780035 
332.676666 13.732275 
332.741364 17.20569 
333.043396 13.032059 
333.251068 11.130769 
334.098267 13.185599 
334.326294 12.102628 
334.773926 10.902328 
335.202393 16.28677 
336.134705 11.59169 
336.842163 14.567961 
337.230072 12.266973 
337.296204 11.70808 
337.664215 11.786292 
339.103424 11.142169 
339.462036 10.43226 
339.555023 11.719122 
339.831116 11.368593 
340.549896 12.781676 
340.566681 13.436825 
340.610535 12.215922 
341.363312 12.920226 
341.394287 16.737459 
342.493561 11.010364 
343.184631 12.106201 
343.35675 19.473104 
343.409821 11.780614 
343.539978 12.994676 
343.840637 10.774105 
344.331726 11.159737 
345.417969 13.242459 
345.548859 13.643006 
345.564178 10.714277 
345.705017 11.94851 
346.378632 16.378731 
347.225708 11.10162 
347.909302 13.831104 
348.169769 115.469208 
348.175812 775.655334 
348.640656 15.806346 
348.782318 11.941383 
348.981873 10.478397 
349.17926 105.22364 
349.337555 13.917577 
349.542145 12.892 
350.231598 12.649533 
351.134033 14.191001 
351.787354 13.096601 
351.981659 13.826425 
352.103577 14.002101 
353.349121 16.568663 
354.597351 13.095685 
354.735992 12.016496 
355.972717 12.355681 
356.14505 12.81047 
356.693756 10.493818 
357.675415 12.27492 
357.761627 10.700994 
358.056122 12.191903 
358.355225 9.638444 
358.358276 11.517639 
358.429382 12.004143 
358.976166 11.892196 
359.210968 18.908003 
359.309967 13.734073 
359.373199 11.440423 
359.511932 13.750931 
360.26123 12.333763 
360.775146 11.48198 
361.044434 12.732438 
362.028442 16.385649 
362.270538 13.104199 
362.601105 11.558051 
362.690643 12.475607 
362.694183 18.747616 
363.095703 13.695853 
363.481598 15.598927 
363.770782 11.155453 
364.120239 11.130706 
364.296417 12.073895 
364.297638 12.005929 
364.523956 13.295604 
364.560577 12.188642 
365.344879 12.39274 
365.646362 13.046933 
365.997375 14.321801 
366.171295 14.576171 
366.179291 147.361893 
366.186279 1340.52832 
366.191986 14.005611 
366.194092 15.692942 
366.406677 11.835846 
366.721069 11.645147 
366.987183 14.063244 
367.101837 13.522933 
367.128601 11.560183 
367.18277 12.312526 
367.189697 118.375427 
367.216461 14.829343 
368.157898 12.492912 
368.708008 14.177175 
368.792023 13.931555 
371.52179 13.756869 
371.605743 12.956285 
371.761871 14.040693 
372.239594 14.65184 
373.419434 13.38503 
373.477203 13.622478 
373.79776 14.128974 
373.816162 12.669497 
374.530975 11.909698 
375.241425 11.125521 
375.666931 12.563086 
377.901154 15.557725 
378.39975 17.789942 
379.315186 11.540483 
379.426605 12.722615 
379.789948 12.879542 
379.941315 14.698344 
380.138977 13.537878 
380.21524 12.310513 
380.662537 12.158509 
381.442474 14.174808 
381.570129 11.927529 
381.738342 11.458108 
382.077026 13.018569 
382.448761 13.041105 
383.705048 12.670093 
383.877686 12.098984 
385.843597 11.322155 
385.877258 14.052138 
386.688385 12.649878 
387.561218 13.274954 
387.785431 11.910029 
388.078888 14.185693 
388.720428 10.074675 
390.037872 13.917809 
390.587189 13.081189 
390.826202 12.257401 
390.871368 11.117243 
391.154572 10.803795 
391.196411 10.102392 
392.054016 11.31081 
393.192566 12.166595 
393.905548 13.799868 
394.217987 11.721379 
394.47467 11.43381 
395.338745 13.539392 
396.916046 11.167833 
397.017487 10.641412 
397.362396 13.275234 
397.618469 11.451745 
398.905365 11.474748 
399.040588 13.268785 
399.190186 12.134575 
399.771912 17.008934 
400.24234 12.186711 
400.55188 10.8908 
402.171234 14.854556 
402.186127 36.480404 
402.738403 14.691756 
402.850647 11.146752 
402.953583 10.638322 
403.367279 13.147872 
403.4216 10.841157 
403.805878 13.732106 
404.179535 11.617554 
405.091553 11.029369 
405.632782 10.897533 
405.961731 12.483765 
406.04892 14.116641 
406.531891 12.016749 
406.644562 14.772331 
406.731567 14.628771 
406.826294 12.638954 
408.390839 11.638494 
408.993134 10.886966 
409.041534 15.936543 
410.298737 12.856838 
410.827789 12.663486 
410.867859 13.696471 
411.174255 12.190428 
412.65033 13.870902 
413.023956 9.793942 
413.202118 19.209099 
413.37854 13.909257 
413.734039 15.47819 
413.796753 13.194098 
414.185608 33.807648 
414.233643 12.886165 
414.540558 13.385321 
415.142822 12.194669 
416.400818 11.504038 
417.71167 14.011743 
417.800903 18.536844 
418.267792 11.300266 
418.718506 11.553341 
418.746216 12.306943 
419.319366 13.533108 
420.261353 10.610285 
421.171143 12.321546 
421.425262 15.932506 
421.962494 12.264007 
422.054901 11.370474 
422.697113 11.307489 
424.45636 14.269927 
424.553986 15.12925 
425.093719 13.619024 
425.695038 12.496923 
425.735962 17.806389 
426.141754 12.093395 
426.611969 13.690918 
426.929535 13.634429 
427.104034 11.754501 
427.215942 11.638571 
427.281738 9.607198 
427.776947 11.507287 
429.269989 13.688788 
429.872681 10.763086 
430.246796 14.717802 
431.212708 18.917212 
431.236298 15.526002 
431.354431 13.330619 
432.186829 32.195686 
432.196442 359.261658 
432.906006 13.591481 
432.940979 10.253098 
433.200073 44.798405 
433.390869 13.281846 
433.804871 12.312256 
434.236053 13.714998 
434.290894 11.343225 
435.75824 10.742027 
436.270935 13.032895 
436.30014 12.69042 
436.502167 11.422052 
436.676331 10.907804 
437.01947 13.204313 
437.306671 14.389345 
437.605103 14.206765 
438.291687 16.084492 
438.71875 15.870533 
438.736023 10.922545 
440.70166 13.704952 
441.219788 12.981304 
441.282288 13.011333 
441.331238 11.02314 
441.411804 14.337268 
441.582306 13.117531 
442.553772 17.380054 
442.807495 12.887119 
443.544739 10.901484 
444.308411 12.423793 
445.019775 11.75126 
445.189697 11.557889 
445.486023 11.94251 
445.702026 13.093734 
445.804291 11.018684 
445.820618 10.88372 
446.354584 10.695818 
446.518311 12.681212 
446.953888 11.097933 
448.404083 15.630653 
449.089691 11.602525 
449.785004 17.642174 
450.196411 64.410286 
450.20694 550.584106 
450.916901 15.875351 
451.198914 13.372448 
451.210297 82.873459 
452.174835 14.12529 
453.046783 14.822578 
454.15451 11.091858 
455.10556 14.059402 
455.552734 13.604664 
456.154388 14.1477 
456.685486 10.300076 
458.645874 10.463812 
459.068665 11.789959 
460.216553 13.776577 
460.528046 16.088942 
460.601562 10.822445 
461.538452 12.757193 
461.581085 10.834799 
462.606659 17.582796 
462.652832 13.66248 
462.742004 12.167664 
463.19339 12.657405 
464.401001 12.315659 
465.104156 12.919774 
465.119843 13.254201 
466.190796 10.699146 
466.23645 12.176883 
466.434631 14.388628 
467.233887 17.57996 
468.217316 98.321533 
469.644043 12.561328 
469.824951 15.262202 
470.91806 12.976148 
471.97818 12.647504 
475.093109 11.549524 
476.793365 10.784245 
477.528961 13.960376 
477.865875 11.147927 
478.114838 12.056833 
478.240936 15.568495 
478.326233 11.608744 
481.277435 14.821997 
482.301025 16.558228 
483.263763 13.210067 
485.227112 13.146623 
485.243988 86.136612 
485.522583 13.366115 
486.227936 58.910873 
486.247162 250.421982 
488.282562 12.256822 
488.418793 10.498507 
488.685608 14.297181 
489.593353 12.894598 
490.433533 11.636439 
490.848633 15.124335 
493.062317 15.931722 
494.19809 14.30215 
494.276672 13.123511 
494.342194 11.042536 
496.21402 23.34115 
496.240692 14.658293 
496.319031 12.437966 
496.374756 14.618631 
497.201019 12.847194 
499.095642 12.394836 
499.317596 13.627378 
500.501831 12.785999 
501.41217 11.937948 
501.452545 17.69902 
503.00943 12.320415 
503.159637 16.23769 
504.388336 11.033694 
504.393372 9.920199 
504.641113 15.748443 
504.874023 11.013977 
505.28244 13.688918 
505.729614 11.59899 
505.914246 14.420174 
506.349121 11.753318 
507.825012 11.498394 
507.961212 13.30338 
508.90564 13.663855 
509.769531 11.23807 
510.39975 13.878783 
511.202972 12.063708 
511.443298 11.563568 
511.698334 13.01483 
512.288696 11.976514 
513.16095 13.918662 
513.223328 13.670447 
513.41803 14.44228 
513.456665 13.336123 
513.641052 14.254057 
513.704773 13.188268 
514.424255 14.358879 
514.854187 11.610751 
515.07312 11.292716 
516.726624 10.647017 
516.7323 11.455272 
516.955627 13.077397 
516.980774 13.200612 
517.217712 14.159758 
517.726562 13.373633 
518.203918 13.449665 
520.221436 13.221658 
520.599487 12.571321 
521.633118 12.059589 
522.61377 19.406441 
523.657654 12.488786 
523.680786 13.339972 
526.017883 16.021652 
526.033386 18.641003 
526.133606 12.441769 
526.237244 12.483154 
526.784302 18.671808 
528.115967 11.44227 
529.81189 13.568163 
530.144958 14.077998 
530.224365 14.011675 
530.526306 15.211927 
530.654419 12.232097 
531.43573 14.659495 
532.78894 12.913598 
533.817505 13.183634 
534.241821 11.97823 
534.982178 16.012289 
535.401001 11.274267 
536.297485 12.301304 
536.368896 34.229729 
536.449768 13.672252 
536.487366 13.935627 
537.293335 12.277779 
537.572876 12.540062 
538.116516 12.761671 
538.488647 11.89397 
539.208374 12.951787 
539.630371 12.892793 
541.022034 15.149163 
541.809143 10.920285 
542.860291 12.609057 
544.135132 11.472298 
544.360107 13.207729 
544.433105 13.177132 
545.527222 16.376696 
545.98645 11.530669 
546.372192 15.523292 
546.919067 15.991699 
548.166199 13.616188 
548.266785 12.992973 
550.070862 13.018928 
550.57489 12.986518 
551.632019 12.617562 
551.736023 11.988756 
552.804749 11.742982 
553.565613 14.016118 
554.426147 13.1204 
555.844727 12.478123 
558.262573 12.568552 
559.615112 14.042187 
560.168518 16.732233 
560.207947 15.165307 
560.23761 18.921755 
562.747559 16.659826 
563.486267 11.918694 
563.638916 11.822268 
563.683228 11.04974 
563.688538 11.283628 
564.135986 12.722845 
566.184998 17.163412 
566.214966 10.281737 
567.946899 10.441043 
568.685547 11.775333 
569.200317 11.677737 
569.895386 11.900076 
569.936584 20.546759 
570.207275 14.577554 
570.289856 10.915093 
570.716614 12.548166 
571.02063 14.215288 
571.34668 19.267315 
571.698364 14.521353 
571.89679 14.59641 
572.252319 11.461496 
572.371948 13.101562 
573.000793 18.52759 
573.176331 14.800433 
573.184937 11.421974 
573.198242 21.351671 
573.208313 14.183065 
573.246704 35.082855 
573.288086 13.477303 
574.047852 14.71275 
574.709167 12.330566 
575.039001 10.766113 
575.298279 12.53716 
575.634888 17.90539 
575.7854 21.323862 
575.879211 12.062342 
576.336121 13.26306 
576.589539 14.286934 
578.119385 17.548687 
579.048645 12.635264 
580.181091 12.474533 
580.849487 13.345726 
581.621155 12.650469 
582.107178 14.582594 
583.914368 10.89353 
585.168091 15.394934 
586.274536 10.742583 
586.288452 17.243092 
586.488708 15.167532 
587.410461 15.190738 
588.747803 16.161341 
589.066833 12.472627 
590.582886 15.012219 
590.609436 14.600558 
590.758606 13.480422 
590.956482 15.898075 
592.178772 13.053218 
592.853943 13.245128 
593.229675 13.477966 
593.632385 11.404778 
593.937317 11.526196 
594.21106 12.782963 
594.236206 17.888893 
594.655029 12.818307 
594.870056 14.112602 
595.662048 12.06644 
595.695251 11.216031 
596.173645 11.88036 
596.967407 19.634153 
597.195435 14.322839 
597.243103 17.936653 
598.363342 21.789648 
598.540222 16.424637 
599.604614 11.890421 
599.801392 12.361049 
604.187683 12.257985 
604.546997 15.81768 
604.849365 13.365539 
605.409668 14.835009 
605.421082 25.95397 
605.432861 20.999546 
605.495361 18.812889 
605.641174 11.32839 
606.489624 15.157489 
606.799683 14.711899 
607.489136 13.821581 
608.310486 11.296771 
609.635925 13.389762 
609.785706 12.904046 
611.378723 23.404966 
611.403381 23.872158 
611.412415 20.174856 
611.420654 17.862066 
611.459229 45.171219 
611.541382 12.773181 
612.047668 13.701653 
612.660889 12.991031 
614.318665 11.848475 
614.833862 12.538346 
615.184021 14.195819 
615.268494 13.392581 
616.840271 13.245261 
616.94043 12.338912 
617.074158 16.985353 
618.034668 13.321247 
618.254883 15.176442 
620.989075 11.625246 
621.094788 14.394624 
621.543579 13.645288 
621.831909 11.491872 
622.445312 11.187908 
622.454529 12.847842 
623.096252 14.592355 
623.254944 10.328403 
623.269226 14.641712 
623.291077 19.472683 
623.339661 30.270191 
625.950928 11.252311 
626.371582 15.522863 
626.598511 15.336218 
626.61969 23.016878 
626.673523 22.969141 
626.707336 12.339594 
626.991943 13.065389 
627.220703 9.907483 
627.231201 16.040167 
627.246033 19.51898 
627.295532 22.077557 
629.148499 33.141434 
629.162476 34.750561 
629.174622 17.418484 
629.906189 14.33355 
629.975403 11.166391 
630.366394 16.587196 
630.599182 18.48675 
630.653564 13.550826 
630.674072 24.148014 
630.917419 22.865269 
630.932739 13.534551 
630.957397 14.164828 
630.985229 13.007569 
631.213867 23.720104 
631.257019 30.804209 
631.305847 46.25071 
631.331787 15.797395 
631.38324 15.371433 
633.614136 13.07507 
634.730103 14.013301 
636.199707 15.812432 
638.00177 16.520979 
638.755066 14.92671 
638.791016 16.670742 
638.83197 24.93202 
638.866455 16.406631 
639.019653 11.220832 
639.664001 12.205554 
639.785339 13.400672 
641.189209 13.720766 
641.746094 15.21721 
642.939636 16.877218 
642.947571 16.61235 
642.995911 23.949842 
644.250671 13.071551 
644.291321 16.053701 
645.266418 13.566587 
646.089294 13.017777 
646.137024 10.931584 
646.873901 16.655792 
647.154785 16.044075 
647.183105 11.595467 
647.491089 13.749661 
647.501587 17.43573 
647.539551 17.758829 
649.055603 12.74963 
649.264282 13.643879 
650.047607 15.00909 
650.523071 23.672134 
650.538696 15.292764 
650.548035 12.031022 
650.784058 14.669208 
651.106506 18.551033 
651.147278 21.592325 
651.220459 12.228163 
651.397156 15.831087 
651.413757 14.152163 
651.427002 16.699564 
651.440735 22.123573 
651.479187 26.514534 
651.711243 15.538074 
651.72583 22.559408 
651.733704 18.924595 
651.747131 20.48694 
651.763916 22.129549 
651.772339 23.056784 
651.815491 52.836143 
652.079163 20.911669 
653.180603 14.458354 
653.241211 15.466849 
654.815308 16.199366 
654.827698 29.267649 
654.841614 33.47081 
654.853394 10.817408 
654.881042 20.5026 
654.898743 13.001449 
654.925537 14.004337 
655.641541 14.760907 
657.381165 11.817327 
657.923279 13.72433 
658.105469 16.240416 
658.181702 11.8605 
659.256165 16.849955 
659.844849 24.411781 
661.251465 12.319927 
661.585938 17.89352 
663.986084 13.893239 
664.184204 14.592431 
664.237122 30.899923 
664.285522 30.697441 
664.346802 14.315486 
665.983398 12.164831 
667.78595 14.425973 
668.451538 32.37709 
668.468323 53.902203 
668.482788 68.780098 
668.497009 40.856419 
668.511108 25.631754 
668.524475 30.168602 
668.54364 28.698727 
668.564209 28.616615 
668.581116 23.612608 
671.655518 14.403203 
672.678589 16.850819 
672.76355 11.808407 
673.238403 14.450456 
673.25531 27.770884 
673.28009 29.802923 
673.30365 14.363246 
673.309326 14.327019 
673.340027 41.794094 
673.391235 15.963831 
673.446777 12.938552 
673.951355 12.397528 
674.552307 12.924862 
674.56488 10.920308 
675.37915 11.923574 
675.507263 13.959967 
675.522522 10.350724 
675.664001 15.467188 
676.140747 14.084147 
676.449951 14.000013 
677.187622 13.85902 
677.875061 14.89884 
679.217468 11.664391 
680.305115 11.269261 
680.652893 12.858465 
681.274597 15.165172 
681.920898 14.465507 
682.351868 18.199995 
682.690125 14.257184 
682.703979 18.827713 
682.744446 12.084725 
683.117737 14.645575 
683.483398 12.758891 
683.87616 17.498943 
686.355408 12.111566 
686.952454 11.473104 
686.980469 24.254951 
687.401367 16.591606 
689.193726 12.25689 
690.207581 15.479766 
690.224609 12.313812 
692.940979 11.662951 
692.95166 13.491145 
695.156555 11.067319 
696.66095 21.015953 
696.713196 15.139107 
697.039795 12.726377 
697.054138 19.836769 
697.1073 39.70858 
697.337219 11.322406 
697.486816 13.007108 
698.498901 12.941815 
699.433899 13.03213 
701.261597 15.706556 
702.890259 16.275938 
703.943665 14.249591 
704.136169 12.568154 
706.204468 25.857523 
706.214111 26.104528 
706.238525 29.920187 
706.249634 31.818562 
706.263977 43.574409 
706.302307 60.692905 
706.961975 13.378999 
709.522705 19.118698 
710.073242 14.115044 
710.925598 13.429029 
710.943054 13.777987 
711.337219 13.821663 
711.389038 17.37999 
711.451782 14.719612 
712.315369 13.861588 
712.368469 13.644188 
713.045288 20.428421 
713.089783 14.729962 
713.766724 17.417067 
714.6427 13.203333 
716.464478 19.095768 
717.806152 22.008747 
717.989746 12.557946 
718.772705 11.446325 
719.274231 12.070271 
721.445374 13.462432 
721.72876 13.053579 
721.786804 12.373772 
722.191589 13.635233 
724.506226 13.941329 
724.852844 12.314657 
726.200745 14.850942 
727.485229 12.298285 
727.576538 13.679787 
728.723816 12.42776 
729.977783 13.914428 
731.255615 13.397108 
731.486694 21.28322 
732.486816 12.72399 
732.725464 12.698888 
732.762024 13.932115 
733.552856 16.409519 
734.55426 17.618958 
736.872803 14.197794 
736.894409 17.088009 
737.326416 11.722143 
740.039307 13.671245 
742.530823 12.354741 
742.595581 16.432013 
742.653137 23.60055 
742.953796 12.903147 
743.036072 14.065121 
743.450134 20.847012 
743.47113 14.929848 
743.524292 36.427376 
743.552063 11.389968 
744.356995 10.849393 
744.37616 11.208301 
745.049133 16.472324 
745.201172 13.525274 
747.059265 14.214533 
747.934875 12.557433 
748.213257 13.434652 
748.614502 31.008253 
748.633972 17.336414 
748.655823 28.779619 
748.669128 25.945253 
748.680054 22.79394 
748.724426 55.880283 
749.821228 12.890973 
750.988464 10.976512 
752.477417 14.687531 
753.41156 14.296309 
753.882385 17.0625 
753.899048 18.082533 
753.918518 14.507319 
753.939026 21.900766 
753.965698 15.895886 
753.996033 28.575754 
754.596985 13.546883 
755.089111 13.336748 
755.626221 18.305231 
755.778198 16.536505 
756.261414 12.103348 
756.286255 16.02953 
756.429321 15.41042 
756.516663 11.237574 
758.107605 16.34256 
758.503784 11.445007 
759.141357 13.345741 
760.146729 18.735533 
760.168701 14.520725 
760.216309 22.109949 
760.251221 37.542652 
760.696289 11.943027 
761.331726 13.188702 
761.637878 15.702033 
762.519836 15.038538 
762.914246 12.022856 
763.973938 17.205687 
764.078552 12.739002 
764.791382 11.844022 
764.952576 12.912818 
765.593933 14.201454 
765.686279 18.495382 
767.600586 13.763297 
771.682373 14.581161 
772.044434 21.705303 
772.137146 23.384981 
772.456299 12.536538 
772.739807 13.854959 
773.48822 14.604873 
775.093201 12.648355 
776.803589 14.721779 
779.935669 13.233019 
781.037231 14.431028 
782.385803 13.998614 
783.215454 15.285546 
784.699524 13.335695 
785.121948 12.02595 
786.822449 19.094986 
790.131653 12.215366 
790.505432 15.7761 
790.601807 15.444722 
793.446228 12.225193 
794.08844 13.906057 
794.831299 16.090027 
795.145203 11.956253 
795.931519 13.803761 
796.002502 17.552496 
796.46405 12.898043 
796.504272 16.729742 
796.52594 21.383757 
796.567383 21.87525 
797.427612 14.469749 
799.483765 18.262512 
800.322571 13.905635 
801.085449 12.503901 
801.27417 14.373102 
801.921143 22.644629 
801.963623 33.331627 
802.026428 54.175198 
802.93573 13.178942 
802.954163 13.26698 
803.918335 13.775742 
804.981567 12.259545 
808.360352 12.619404 
808.569153 13.773818 
808.668762 14.005253 
808.903931 10.993996 
809.735962 16.731873 
810.177002 13.802533 
810.386475 12.802299 
812.593323 13.203494 
812.862793 14.161973 
813.589417 18.176239 
816.201782 18.532543 
817.013489 12.793876 
817.658875 12.16982 
819.124451 16.04179 
819.598816 12.766059 
820.210693 12.86823 
822.219971 14.508191 
824.029297 15.432329 
825.123474 13.407854 
825.350769 17.353287 
825.819336 17.712746 
827.306885 15.768538 
827.956116 14.304552 
828.929016 12.611909 
830.992432 14.061198 
832.619629 13.101681 
832.862 13.040536 
833.948303 12.486502 
835.69696 10.396297 
836.510986 14.107027 
836.677734 20.161224 
838.94812 14.551085 
839.359558 16.001179 
840.276428 19.177052 
840.304993 14.287281 
841.033081 11.156724 
842.41803 14.300584 
842.464294 12.410427 
842.538757 14.089543 
842.981262 15.768591 
843.877075 14.521638 
846.763855 11.455417 
851.589355 14.755936 
854.227295 15.352397 
854.27594 18.329418 
856.906006 10.715165 
856.916992 10.491877 
862.196777 11.137677 
863.721863 13.469596 
863.748169 12.622338 
864.163696 11.935319 
865.345398 16.381618 
865.956421 12.482248 
866.013 14.267873 
866.456726 12.932946 
867.085327 14.486834 
868.316223 11.460765 
870.51062 14.718777 
870.555054 17.014404 
870.957275 13.030844 
871.620667 17.757215 
871.645203 20.218414 
871.718201 21.82122 
872.317078 26.242371 
873.412537 11.567318 
874.755554 18.747351 
876.459534 13.70282 
877.103882 12.692026 
878.441528 13.202608 
879.402954 20.71578 
879.423096 19.087626 
879.480835 21.890242 
880.419678 15.693376 
881.795227 13.568521 
882.676575 15.772667 
883.287048 15.382254 
886.470764 12.849232 
886.962708 14.938108 
887.536438 14.009245 
887.95282 13.102324 
890.284851 17.413408 
895.790405 12.400146 
896.057312 11.956958 
898.549255 15.60694 
900.414734 16.273367 
900.581055 14.183212 
901.349182 11.076886 
901.536377 10.993322 
903.864319 14.307149 
904.030884 12.860744 
904.12793 14.555586 
904.186829 11.85213 
904.262512 21.595701 
904.715759 11.917591 
905.612244 12.683173 
905.89917 12.369303 
906.304382 14.153598 
909.330322 13.204574 
909.991089 11.930622 
911.000977 16.97031 
911.395813 19.213886 
911.952881 18.581705 
911.964294 20.941441 
912.544678 17.617575 
912.612732 14.685256 
913.728516 15.147707 
914.471436 15.632684 
914.795105 14.751803 
916.762634 13.304669 
917.045227 17.288637 
918.829529 14.487754 
919.478333 17.192673 
923.99585 15.181078 
925.995483 12.264289 
927.542603 15.795442 
927.680969 12.143475 
928.001587 12.472853 
929.660095 15.698335 
930.31073 12.742382 
934.812378 16.518641 
935.820312 15.740067 
936.842041 15.728737 
937.991943 13.781222 
939.878967 11.239876 
939.916199 11.865064 
940.532776 12.871021 
941.051086 12.863715 
941.852783 13.264083 
942.426636 14.035876 
944.524719 18.241144 
946.238647 36.07682 
946.272766 14.78729 
948.846191 11.214487 
948.867004 13.385652 
950.369873 13.033527 
951.150146 12.753049 
952.482849 17.207525 
955.269043 65.820122 
955.309143 94.161354 
955.331909 80.11512 
955.387939 191.466202 
955.42157 26.546902 
956.102783 13.334126 
956.145386 16.993591 
960.20575 11.216655 
960.801392 14.122042 
963.483093 14.993922 
964.60553 13.811301 
964.719849 26.942575 
964.751221 14.179951 
967.887451 17.700998 
969.219666 12.834102 
969.736877 19.105158 
973.497864 16.886658 
974.15509 13.774378 
974.241394 24.346947 
975.028809 11.839245 
975.504578 12.759379 
980.336853 15.190994 
980.413147 16.599976 
983.222534 15.475644 
983.852356 13.905314 
984.915466 13.222414 
985.731628 13.488575 
985.887329 17.881845 
986.446411 13.5957 
987.235413 12.539927 
992.174438 15.875556 
992.91571 12.861418 
995.264954 14.783484 
995.84906 15.434277 
996.523804 12.581061 
998.964905 18.289576 
999.611145 17.826797 
1000.184692 14.489547 
1001.546265 10.975597 
1001.555664 10.919414 
1002.588623 12.852273 
1002.875427 12.308613 
1003.101685 14.839467 
1003.236328 13.065831 
1004.803772 18.172771 
1006.291077 15.539558 
1008.288147 13.757803 
1010.9505 13.903195 
1011.178528 11.263634 
1012.08728 16.396067 
1012.172607 12.548622 
1012.398682 15.426377 
1015.528198 16.27899 
1015.631287 12.437749 
1016.712219 14.27349 
1017.454163 13.961312 
1019.072449 15.898497 
1019.63269 15.409077 
1022.259705 17.339891 
1022.691467 15.345587 
1023.047607 20.979717 
1023.072815 19.055443 
1023.133545 47.732407 
1024.660889 17.210051 
1025.168579 15.187236 
1025.900024 11.648985 
1028.360474 16.498486 
1030.05957 17.388836 
1030.466675 14.699226 
1031.121948 13.479325 
1033.853271 15.120256 
1034.106812 17.151716 
1034.450562 13.045382 
1035.472412 18.610001 
1035.718018 14.670872 
1037.480225 12.328004 
1037.686035 13.609558 
1037.870972 12.786578 
1040.387329 15.562809 
1040.411865 15.415148 
1040.475586 14.918034 
1041.851685 12.395811 
1041.868042 12.279565 
1043.300537 16.485863 
1044.796509 12.88537 
1048.088989 14.111566 
1048.474365 13.500184 
1051.158569 16.259329 
1051.359497 21.773136 
1051.543823 12.851452 
1055.900146 15.847846 
1055.981323 12.392692 
1056.756836 19.36573 
1056.827026 28.568432 
1058.709106 14.697779 
1059.88269 14.320536 
1066.622925 15.147388 
1066.643188 14.176702 
1070.365967 11.99254 
1072.376587 13.304763 
1074.799072 14.441732 
1075.87793 16.389153 
1076.846924 15.741942 
1079.273926 13.557896 
1080.359863 13.408153 
1080.935669 11.585147 
1082.590332 11.16239 
1084.397827 16.046076 
1086.314087 13.034845 
1087.215454 14.952883 
1089.989258 12.801633 
1090.983643 11.646318 
1094.013184 13.840889 
1094.175049 17.435623 
1094.943726 13.397976 
1099.2854 12.855861 
1099.982178 14.293384 
1100.02832 13.476308 
1100.815796 14.75003 
1101.322144 12.39619 
1103.069092 13.174511 
1107.123901 12.975217 
1109.493042 18.991405 
1109.655884 15.781737 
1112.33374 15.852781 
1115.464844 14.47461 
1120.085815 15.880537 
1123.920166 12.756249 
1124.235474 15.573279 
1125.153076 19.329571 
1126.250977 13.161076 
1126.317017 12.277842 
1126.929688 14.317668 
1129.488892 16.551199 
1132.44873 12.116654 
1134.473633 16.188282 
1137.252808 15.326315 
1140.366577 14.715286 
1147.0979 15.565883 
1149.64563 14.878585 
1150.758301 17.874567 
1151.423584 13.368948 
1153.274048 14.22681 
1155.329468 10.808883 
1156.464844 12.44249 
1159.245972 11.218263 
1159.280151 15.991842 
1163.855469 11.752293 
1165.106934 17.45936 
1167.859985 14.467556 
1175.883911 11.061821 
1176.203979 11.406713 
1177.057373 13.110734 
1177.636108 14.912047 
1177.874268 12.227251 
1178.333862 13.807974 
1180.184692 13.763699 
1185.035645 15.065183 
1186.865601 13.534995 
1188.348022 19.275261 
1188.638794 18.440456 
1189.097534 12.410135 
1189.800293 13.333175 
1191.376221 11.118243 
1192.152832 12.581305 
1193.185059 41.167294 
1193.235718 51.981071 
1193.321045 88.335403 
1194.941528 13.35251 
1196.023071 12.342275 
1197.748047 12.7531 
1198.116943 13.278133 
1198.858276 12.70164 
1199.45874 11.824946 
1202.177856 10.346237 
1203.215332 15.164864 
1205.647095 13.880942 
1211.929932 12.628247 
1212.066284 14.259345 
1213.959106 16.982389 
1215.167969 17.619986 
1218.491455 14.016252 
1220.516724 17.813387 
1220.7146 11.182046 
1222.068848 14.806756 
1222.250366 13.551232 
1223.151611 14.166803 
1223.64563 14.918027 
1232.144409 15.922776 
1234.659912 12.25653 
1235.564697 12.82607 
1237.140991 13.694756 
1239.26355 24.59725 
1239.419312 14.638655 
1240.874146 15.477183 
1243.971069 12.741182 
1244.582397 11.445094 
1245.925293 14.417495 
1248.119507 16.910368 
1250.564087 12.580468 
1250.698975 12.094622 
1254.265747 12.090952 
1256.296021 15.790396 
1260.49707 15.760776 
1264.251465 15.100427 
1267.346802 18.245304 
1267.458252 13.914986 
1271.180908 13.683846 
1273.295654 13.00948 
1273.380859 13.180316 
1274.540283 14.125684 
1275.13623 13.824299 
1276.654541 11.171735 
1280.46167 13.465743 
1282.248901 12.61154 
1284.296753 12.988084 
1285.446899 18.999121 
1286.596069 32.654133 
1289.25 16.071875 
1292.368042 15.290054 
1293.481934 12.29842 
1299.833496 12.578552 
1300.603882 15.221442 
1301.449707 12.781851 
1302.978271 13.099305 
1303.623047 13.289184 
1304.105591 15.109309 
1305.909058 15.181833 
1308.061279 17.724783 
1308.140503 12.489757 
1310.082886 12.382432 
1310.870728 15.253922 
1311.785522 13.134443 
1320.704346 13.120228 
1320.905029 16.358936 
1321.680298 14.74423 
1323.965454 16.38954 
1333.538452 18.459368 
1336.828369 12.621842 
1337.060303 18.722239 
1337.110718 15.127195 
1338.210449 15.011525 
1343.865723 12.582559 
1345.718994 19.641674 
1347.746582 13.784807 
1349.978271 14.598315 
1353.409302 13.433449 
1353.532715 13.497313 
1357.291138 15.194133 
1360.604858 14.298822 
1362.439331 14.510288 
1363.150024 17.041367 
1365.211304 13.400292 
1367.423218 14.22728 
1369.124756 13.387695 
1370.455811 12.798923 
1372.486694 15.490477 
1373.105347 19.751921 
1374.491699 14.06433 
1379.915161 14.428617 
1386.981323 16.043201 
1391.244263 13.770403 
1395.00647 15.346536 
1403.756348 15.530526 
1404.023071 12.827003 
1404.164062 12.850019 
1406.777954 16.186119 
1408.869629 15.974184 
1409.15918 14.103472 
1412.392578 31.999832 
1412.450684 25.867416 
1412.553711 34.192795 
1412.6604 17.374691 
1416.911011 19.054415 
1422.751465 21.244905 
1428.584839 18.336226 
1430.611572 14.449426 
1431.716431 17.217348 
1437.599731 15.471565 
1440.599365 14.643876 
1440.698364 19.060764 
1441.229614 12.69937 
1441.748291 16.42709 
1446.165405 18.80451 
1449.044922 15.03925 
1449.608765 13.536293 
1451.114136 13.166649 
1455.569092 17.836557 
1456.43457 16.034702 
1457.775391 13.11838 
1460.044189 12.976309 
1461.779785 13.351009 
1468.416748 13.887883 
1468.711792 17.891985 
1471.064575 14.631641 
1478.029785 13.937956 
1479.199829 16.098217 
1479.919556 14.344428 
1489.565186 16.254219 
1496.494019 19.980579 
1498.145264 23.831688 
1499.628418 14.095776 
1500.410034 12.958462 
1501.011597 13.191861 
1503.227783 12.982136 
1503.638672 14.076211 
1504.044312 15.459289 
1504.805786 16.748495 
1506.066406 12.78167 
1508.521484 12.929777 
1508.853516 13.611051 
1514.378174 21.334978 
1515.844604 12.17598 
1517.61731 16.735348 
1523.182251 14.858012 
1525.102051 19.335363 
1527.036865 13.800867 
1527.919189 23.68478 
1530.049316 13.523485 
1530.136841 13.38596 
1539.731079 19.903255 
1544.70813 18.147079 
1547.640137 13.033152 
1551.681274 16.042774 
1552.134399 14.854185 
1555.723633 15.878227 
1558.016235 13.38513 
1559.330078 12.832664 
1561.766357 18.483959 
1563.030518 14.330541 
1564.36731 14.988826 
1566.265869 20.82588 
1571.394531 15.857983 
1573.401123 12.448488 
1575.810791 13.047326 
1576.041138 14.535208 
1578.568359 16.605877 
1579.32605 13.527755 
1585.092529 12.630151 
1585.199829 13.181713 
1585.828003 14.466395 
1586.479858 15.82494 
1588.516602 15.57653 
1589.416016 17.696335 
1592.437988 31.848413 
1593.9729 13.651538 
1594.080444 13.609856 
1604.243164 36.990211 
1604.315796 42.003376 
1604.462036 20.562038 
1609.223511 13.548875 
1616.780151 13.085752 
1618.332886 15.470504 
1619.149536 19.834669 
1629.004639 14.646149 
1630.184082 14.193531 
1631.02478 16.11072 
1633.781982 19.362303 
1638.558105 18.440491 
1639.690918 17.675238 
1645.324097 16.242603 
1646.926514 12.201582 
1647.754639 16.436041 
1649.421509 17.157991 
1650.154541 19.125668 
1654.071167 15.793586 
1656.239868 14.18399 
1656.585327 15.265175 
1663.918335 14.191408 
1667.86438 14.429945 
1671.025513 13.547608 
1671.916504 14.32629 
1673.384521 14.474385 
1674.860718 16.539742 
1683.792358 16.113935 
1685.447876 13.055778 
1687.275391 14.12761 
1688.044678 14.220701 
1688.74353 24.285559 
1689.730225 11.964716 
1692.903442 14.307703 
1693.690308 18.393894 
1695.513428 14.551359 
1698.491699 23.473307 
1698.632202 23.580946 
1698.892578 16.969053 
1701.075073 13.839896 
1702.230835 89.61525 
1702.631104 15.723516 
1705.017944 16.970554 
1709.2771 16.543629 
1712.349609 13.273586 
1714.119995 17.51207 
1715.278442 13.064448 
1716.329468 15.138832 
1720.664795 13.989869 
1724.169434 11.205578 
1724.218994 12.62762 
1727.240234 14.749947 
1727.589233 16.884695 
1730.016602 15.292428 
1733.002808 14.995379 
1734.215698 12.892955 
1739.134277 13.076614 
1741.666382 14.498927 
1745.775757 14.407424 
1746.834717 13.226816 
1747.005127 14.853115 
1748.731812 15.45003 
1750.944458 13.053329 
1755.295532 17.108278 
1760.404175 13.907013 
1760.889404 13.995841 
1761.756958 15.030485 
1763.740845 14.049032 
1766.899414 14.411057 
1769.297119 13.525373 
1770.712402 14.333121 
1771.028564 14.350623 
1774.900513 14.914423 
1775.223999 16.824289 
1778.069946 16.975767 
1779.921265 14.124633 
1781.036987 17.257103 
1781.686523 14.167669 
1783.046387 12.60799 
1783.109863 12.274362 
1783.401611 13.669076 
1788.314331 16.829094 
1792.745239 14.079096 
1793.128784 19.338938 
1794.266235 17.971973 
1804.480347 17.184013 
1805.287964 12.591407 
1809.070435 16.03265 
1815.98584 18.547447 
1817.214844 19.419888 
1818.299072 15.53991 
1819.845581 16.791553 
1821.086914 12.204569 
1823.901855 21.513895 
1825.130859 12.854771 
1825.733887 15.681874 
1827.54126 12.590338 
1831.9646 14.193952 
1840.338501 15.898621 
1843.333862 12.983709 
1845.332031 14.237789 
1848.144043 15.823182 
1848.365723 18.62594 
1850.75647 16.269474 
1851.483643 14.777534 
1852.789429 14.627403 
1855.376587 15.416092 
1862.533325 16.853727 
1862.788208 16.5509 
1866.328979 15.258525 
1869.238403 18.593784 
1872.588379 12.977468 
1878.819946 13.601406 
1880.670898 20.606081 
1885.046631 19.351986 
1888.769409 15.508255 
1898.678101 16.572765 
1899.332153 17.026419 
1899.459839 11.603628 
1900.233887 14.026601 
1902.269165 12.83891 
1903.776978 13.422093 
1906.027588 14.292169 
1909.407715 17.665747 
1910.384644 18.440029 
1911.098511 17.39431 
1912.611328 13.46148 
1920.875854 15.128857 
1925.044067 19.104782 
1927.368896 15.692232 
1927.900391 21.587559 
1930.050049 13.836991 
1930.101807 13.839624 
1930.793091 13.120707 
1932.991699 13.732764 
1937.564087 14.906975 
1938.074707 14.639135 
1940.136108 15.916524 
1942.008057 14.598628 
1942.57605 21.638823 
1942.883423 13.542677 
1945.078003 16.782001 
1952.280396 13.886585 
1953.689819 13.532324 
1969.231567 16.520538 
1970.182251 14.771089 
1971.12439 15.556924 
1971.536133 13.471706 
1972.273926 14.384837 
1972.942017 18.425186 
1984.261108 14.814363 
1985.038696 12.934439 
1986.845459 14.112844 
1996.376465 13.788532 
1996.588623 13.674335 
1998.871338 22.741142 
1999.523071 19.607716 
END IONS

