BEGIN IONS
PEPMASS=501.313
CHARGE=1+
COMPOUNDNAME=MLS001074711-01!Mupirocin
LIBRARYQUALITY=3
SMILES=C[C@H](O)[C@H](C)[C@@H]1O[C@H]1C[C@H]2CO[C@@H](C/C(=C/C(=O)OCCCCCCCCC(=O)O)/C)[C@H](O)[C@@H]2O
INCHIKEY=MINDHVHHQZYEEK-HBBNESRFSA-N
INCHI=N/A
MSLEVEL=2
SOURCE_INSTRUMENT=LC-ESI-qTof
FILENAME=p4-F11_GF11_01_18395.mzXML
SEQ=*..*
IONMODE=Positive
ORGANISM=GNPS-NIH-SMALLMOLECULEPHARMACOLOGICALLYACTIVE
NAME=MLS001074711-01!Mupirocin M+H
PI=Dorrestein
DATACOLLECTOR=VP/LMS
PUBMED=N/A
SUBMITUSER=vphelan
TAGS=
SPECTRUMID=CCMSLIB00000085834
SCANS=1861
44.904678 152.0 
44.986076 112.0 
45.035484 156.0 
45.13171 232.0 
45.161961 168.0 
45.313744 92.0 
45.386124 152.0 
45.396854 108.0 
45.413952 144.0 
45.418064 108.0 
45.449169 132.0 
45.571358 60.0 
45.684296 160.0 
45.722206 184.0 
45.902496 160.0 
45.960499 152.0 
45.991539 32.0 
46.023941 184.0 
46.042847 148.0 
46.09013 136.0 
46.255135 192.0 
46.298462 212.0 
46.351295 160.0 
46.40416 84.0 
46.477406 148.0 
46.581615 164.0 
46.657841 256.0 
46.730137 108.0 
46.852673 224.0 
46.866299 196.0 
46.877201 132.0 
46.927635 112.0 
46.993107 172.0 
47.058624 172.0 
47.088665 44.0 
47.147415 136.0 
47.232189 132.0 
47.266392 164.0 
47.30061 152.0 
47.338943 224.0 
47.355381 160.0 
47.36908 208.0 
47.381409 140.0 
47.440338 236.0 
47.492447 44.0 
47.510281 180.0 
47.621475 152.0 
47.631088 56.0 
47.654446 260.0 
47.727295 164.0 
47.853886 148.0 
47.987534 196.0 
48.02615 88.0 
48.086861 160.0 
48.242954 116.0 
48.28167 184.0 
48.337006 148.0 
48.370872 128.0 
48.3993 132.0 
48.436691 132.0 
48.468559 120.0 
48.530933 212.0 
48.548962 200.0 
48.686356 192.0 
48.823948 44.0 
48.879593 52.0 
49.025818 32.0 
49.092735 224.0 
49.120628 68.0 
49.15551 220.0 
49.228104 184.0 
49.320316 56.0 
49.465797 172.0 
49.506401 176.0 
49.698448 204.0 
49.868378 168.0 
49.966816 180.0 
49.978073 112.0 
50.166801 228.0 
50.220387 160.0 
50.3573 160.0 
50.374252 144.0 
50.553822 120.0 
50.576466 196.0 
50.611862 124.0 
50.650101 176.0 
50.698273 176.0 
50.912498 200.0 
50.942329 160.0 
50.959377 176.0 
50.983536 152.0 
51.021912 256.0 
51.273869 260.0 
51.290974 224.0 
51.315208 184.0 
51.369404 152.0 
51.422203 196.0 
51.472168 180.0 
51.496449 208.0 
51.509583 244.0 
51.879951 204.0 
52.15126 44.0 
52.253365 176.0 
52.418957 96.0 
52.494335 152.0 
52.506897 116.0 
52.527092 72.0 
52.56749 44.0 
52.635338 128.0 
52.730686 200.0 
52.992619 184.0 
53.211632 152.0 
53.39764 96.0 
53.558426 188.0 
53.57523 148.0 
53.591255 204.0 
53.626232 172.0 
53.661221 216.0 
53.725391 144.0 
53.821724 108.0 
53.899143 180.0 
53.93568 196.0 
53.945911 184.0 
53.973694 144.0 
54.103912 144.0 
54.130268 100.0 
54.161026 156.0 
54.184464 224.0 
54.306141 184.0 
54.451447 104.0 
54.685226 48.0 
54.727917 164.0 
54.75737 104.0 
54.836933 164.0 
54.87674 208.0 
55.068584 164.0 
55.140984 96.0 
55.318485 148.0 
55.445873 160.0 
55.543732 144.0 
55.603085 124.0 
55.730797 92.0 
55.773895 44.0 
56.031349 148.0 
56.061153 192.0 
56.217739 172.0 
56.331219 124.0 
56.411915 36.0 
56.431351 216.0 
56.458267 184.0 
56.568993 132.0 
56.597439 176.0 
56.796856 140.0 
56.927345 168.0 
57.031013 188.0 
57.112213 224.0 
57.316963 184.0 
57.3456 104.0 
57.436069 200.0 
57.476807 168.0 
57.629314 160.0 
57.801697 200.0 
57.834991 148.0 
57.971756 160.0 
58.294544 112.0 
58.314301 156.0 
58.398392 144.0 
58.492271 116.0 
58.534901 176.0 
58.559269 64.0 
58.636974 232.0 
58.676609 192.0 
58.881088 248.0 
58.954422 180.0 
58.968178 252.0 
59.017097 132.0 
59.131832 116.0 
59.330975 184.0 
59.353973 168.0 
59.461361 152.0 
59.54734 112.0 
59.713337 84.0 
59.810272 440.0 
59.970467 200.0 
60.02597 148.0 
60.109272 104.0 
60.188 140.0 
60.203442 176.0 
60.279137 80.0 
60.317314 200.0 
60.357975 160.0 
60.427582 180.0 
60.535934 156.0 
60.568462 112.0 
60.681595 188.0 
60.939247 164.0 
61.083832 220.0 
61.297138 200.0 
61.395351 136.0 
61.496082 196.0 
61.514778 200.0 
61.579746 164.0 
61.61076 148.0 
61.649822 156.0 
61.713917 64.0 
62.008224 188.0 
62.028603 176.0 
62.227844 136.0 
62.238838 136.0 
62.263962 164.0 
62.366093 196.0 
62.406967 64.0 
62.528099 172.0 
62.581623 128.0 
62.685585 168.0 
62.794369 56.0 
62.864616 244.0 
63.059624 172.0 
63.233608 172.0 
63.249435 124.0 
63.333359 204.0 
63.609276 196.0 
63.688671 160.0 
63.793552 280.0 
63.807861 124.0 
63.884197 204.0 
63.992424 108.0 
64.328819 144.0 
64.391098 232.0 
64.456596 196.0 
64.578102 160.0 
64.701317 156.0 
64.784599 236.0 
64.803825 128.0 
64.894249 176.0 
65.058838 176.0 
65.098976 212.0 
65.118256 144.0 
65.280579 132.0 
65.48658 148.0 
65.528465 112.0 
65.868874 112.0 
65.909264 184.0 
65.923805 156.0 
65.988464 184.0 
66.014336 92.0 
66.210159 44.0 
66.247414 64.0 
66.289543 220.0 
66.341911 196.0 
66.458191 164.0 
66.485771 156.0 
66.609177 132.0 
66.696922 168.0 
66.791237 40.0 
66.809135 228.0 
66.822151 148.0 
67.157738 144.0 
67.33075 140.0 
67.351982 160.0 
67.37812 208.0 
67.466003 160.0 
67.972488 172.0 
67.988899 148.0 
68.200775 192.0 
68.385002 184.0 
68.462379 160.0 
68.503563 136.0 
68.552994 156.0 
68.581009 204.0 
68.655205 228.0 
68.749245 32.0 
68.828476 56.0 
68.927589 160.0 
68.975525 76.0 
69.159134 96.0 
69.193893 152.0 
69.578545 168.0 
69.905998 36.0 
70.01088 196.0 
70.194191 164.0 
70.376076 184.0 
70.394447 112.0 
70.432861 164.0 
70.519753 140.0 
70.584953 192.0 
70.669388 152.0 
70.728836 224.0 
70.956673 136.0 
71.033813 148.0 
71.189911 224.0 
71.334412 96.0 
71.357948 152.0 
71.383171 164.0 
71.43531 68.0 
71.492523 196.0 
71.792397 160.0 
71.871681 96.0 
71.976341 100.0 
72.0439 196.0 
72.065865 136.0 
72.162209 172.0 
72.174042 104.0 
72.192642 200.0 
72.234932 232.0 
72.283997 128.0 
72.343239 148.0 
72.422829 188.0 
72.532967 176.0 
72.556702 108.0 
72.651672 60.0 
72.74501 180.0 
72.78746 168.0 
72.97097 196.0 
73.013481 188.0 
73.144501 148.0 
73.163223 212.0 
73.314827 176.0 
73.396851 172.0 
73.418823 204.0 
73.430763 156.0 
73.516068 156.0 
73.577515 164.0 
73.645821 160.0 
73.794502 60.0 
73.948463 84.0 
74.114586 176.0 
74.243156 212.0 
74.334076 144.0 
74.576241 184.0 
74.648445 160.0 
74.710365 188.0 
74.884232 140.0 
74.977264 108.0 
74.999672 116.0 
75.134186 156.0 
75.258453 264.0 
75.403564 152.0 
75.453697 92.0 
75.510765 64.0 
75.567848 96.0 
75.602455 188.0 
75.626686 148.0 
75.708954 148.0 
75.737511 180.0 
75.789482 176.0 
75.884811 212.0 
76.204178 196.0 
76.254578 144.0 
76.33107 108.0 
76.366531 232.0 
76.489395 144.0 
76.613602 248.0 
76.660088 200.0 
77.007278 128.0 
77.077156 192.0 
77.161057 172.0 
77.24675 108.0 
77.530403 176.0 
77.588249 152.0 
77.675934 180.0 
77.737343 224.0 
77.811066 128.0 
77.970924 32.0 
77.984985 160.0 
78.053551 136.0 
78.122147 148.0 
78.164368 144.0 
78.254143 172.0 
78.322823 132.0 
78.597862 96.0 
78.673752 128.0 
78.712883 148.0 
78.73732 160.0 
78.903427 164.0 
78.945869 180.0 
78.998932 128.0 
79.218445 240.0 
79.23439 176.0 
79.381516 212.0 
79.560722 220.0 
79.656624 252.0 
79.734802 148.0 
79.861046 152.0 
79.926865 112.0 
79.966019 168.0 
80.149452 180.0 
80.22966 160.0 
80.279587 172.0 
80.37056 136.0 
80.387527 140.0 
80.558029 140.0 
80.620567 212.0 
81.005264 152.0 
81.199966 144.0 
81.223961 64.0 
81.245491 164.0 
81.49865 212.0 
81.584923 128.0 
81.70002 192.0 
82.036789 120.0 
82.069244 164.0 
82.204536 140.0 
82.229805 172.0 
82.311043 160.0 
82.560432 216.0 
82.580322 120.0 
82.609268 180.0 
82.793892 196.0 
82.938843 148.0 
83.062149 168.0 
83.172844 120.0 
83.35083 80.0 
83.452621 160.0 
83.654564 160.0 
83.762856 164.0 
83.798447 188.0 
83.880455 196.0 
83.92968 280.0 
84.035477 140.0 
84.095695 176.0 
84.243607 136.0 
84.450172 340.0 
84.519691 212.0 
84.636841 64.0 
84.699112 140.0 
84.909897 124.0 
85.049347 168.0 
85.097343 140.0 
85.203178 260.0 
85.413177 172.0 
85.437096 124.0 
85.554878 168.0 
85.70591 200.0 
85.731705 176.0 
85.798065 148.0 
85.929016 204.0 
86.004677 136.0 
86.056366 168.0 
86.091454 168.0 
86.154259 148.0 
86.172729 176.0 
86.220779 232.0 
86.291023 216.0 
86.31321 200.0 
86.461205 228.0 
86.483421 164.0 
86.524147 176.0 
86.596367 168.0 
86.663055 140.0 
86.703827 116.0 
86.876274 224.0 
86.891113 152.0 
86.935646 232.0 
86.985764 300.0 
87.013367 180.0 
87.087891 188.0 
87.104614 156.0 
87.160347 148.0 
87.208672 228.0 
87.327667 40.0 
87.398361 180.0 
87.800743 204.0 
88.00975 64.0 
88.17041 152.0 
88.213402 96.0 
88.250793 160.0 
88.301285 148.0 
88.336823 164.0 
88.445358 108.0 
88.525871 200.0 
88.64389 164.0 
88.760117 124.0 
88.902687 184.0 
89.004059 132.0 
89.195694 112.0 
89.351784 164.0 
89.430817 96.0 
89.487297 148.0 
89.545677 164.0 
89.62291 52.0 
89.66626 172.0 
89.751091 40.0 
89.864265 164.0 
89.900635 160.0 
89.954857 180.0 
90.011497 276.0 
90.096489 32.0 
90.230682 28.0 
90.467163 152.0 
90.614891 132.0 
90.8405 252.0 
90.867058 144.0 
90.965744 100.0 
91.009415 152.0 
91.052307 788.0 
91.110077 164.0 
91.149979 192.0 
91.227905 88.0 
91.440956 136.0 
91.587563 140.0 
91.66568 92.0 
91.946022 156.0 
92.059761 208.0 
92.067436 436.0 
92.232529 220.0 
92.295616 116.0 
92.368294 172.0 
92.4123 160.0 
92.446739 176.0 
92.477364 196.0 
92.774284 184.0 
92.818382 72.0 
92.845764 216.0 
92.893181 192.0 
92.95842 96.0 
93.015999 144.0 
93.037659 196.0 
93.068512 500.0 
93.13121 204.0 
93.18116 204.0 
93.200371 188.0 
93.327232 80.0 
93.415703 188.0 
93.444565 208.0 
93.473427 152.0 
93.546562 180.0 
93.725685 88.0 
93.741104 112.0 
93.810486 128.0 
93.829765 196.0 
93.914619 108.0 
93.939697 60.0 
93.966705 168.0 
93.989861 164.0 
94.068893 392.0 
94.144295 168.0 
94.203209 244.0 
94.873772 156.0 
94.895103 180.0 
95.011894 396.0 
95.048553 1464.0 
95.08564 352.0 
95.436829 188.0 
95.452385 148.0 
95.534081 124.0 
95.617752 140.0 
95.707298 232.0 
95.754036 160.0 
95.818321 216.0 
96.019104 120.0 
96.050308 144.0 
96.087379 612.0 
96.101036 72.0 
96.208382 44.0 
96.378304 160.0 
96.763168 212.0 
96.800835 144.0 
96.990883 148.0 
97.028687 1284.0 
97.065041 2168.0 
97.126183 148.0 
97.139915 160.0 
97.161491 200.0 
97.179153 104.0 
97.224281 52.0 
97.265503 76.0 
97.287094 48.0 
97.353859 160.0 
97.393135 104.0 
97.83757 164.0 
97.874977 116.0 
97.930969 228.0 
97.949821 92.0 
98.006958 96.0 
98.029449 204.0 
98.068855 156.0 
98.121277 116.0 
98.217903 60.0 
98.279068 176.0 
98.310638 28.0 
98.355705 96.0 
98.554405 252.0 
98.602936 184.0 
98.668167 96.0 
98.796715 84.0 
98.818016 152.0 
98.921394 224.0 
98.948792 148.0 
99.0439 956.0 
99.079163 1336.0 
99.214592 60.0 
99.280029 56.0 
99.347473 172.0 
99.46257 224.0 
99.563828 152.0 
99.780426 216.0 
99.812241 80.0 
99.999245 72.0 
100.047234 188.0 
100.084175 212.0 
100.256172 84.0 
100.351852 220.0 
100.419655 152.0 
100.548218 220.0 
100.595253 176.0 
100.665138 136.0 
100.723061 176.0 
101.059433 292.0 
101.094948 232.0 
101.209053 240.0 
101.235085 160.0 
101.387344 148.0 
101.740379 108.0 
101.963348 92.0 
102.051796 184.0 
102.090004 216.0 
102.108109 156.0 
102.285172 152.0 
102.327454 164.0 
102.591377 128.0 
102.680099 180.0 
102.700272 140.0 
102.866791 84.0 
102.926308 156.0 
102.946503 112.0 
103.053444 344.0 
103.186958 100.0 
103.330559 160.0 
103.691017 200.0 
103.719391 140.0 
103.741692 184.0 
103.875534 108.0 
103.926254 160.0 
103.999214 160.0 
104.064278 204.0 
104.11911 208.0 
104.273521 76.0 
104.287743 128.0 
104.334503 320.0 
104.362968 156.0 
104.434143 172.0 
104.45652 188.0 
104.552155 180.0 
104.584717 172.0 
104.739265 156.0 
104.802628 136.0 
104.890266 156.0 
104.921143 216.0 
105.014648 176.0 
105.06916 3528.0 
105.095833 236.0 
105.116653 36.0 
105.26976 64.0 
105.284058 40.0 
105.404587 64.0 
105.689583 216.0 
105.85463 100.0 
105.979584 104.0 
106.071976 244.0 
106.09417 132.0 
106.114861 180.0 
106.26664 156.0 
106.584908 168.0 
106.638336 176.0 
106.976616 172.0 
107.049919 1148.0 
107.084297 2596.0 
107.117783 144.0 
107.134262 40.0 
107.177528 68.0 
107.204323 252.0 
107.22905 48.0 
107.427002 96.0 
107.557014 132.0 
107.674706 180.0 
107.69529 120.0 
107.790398 240.0 
107.830025 180.0 
107.986794 176.0 
108.001274 88.0 
108.0261 32.0 
108.055031 548.0 
108.087296 424.0 
108.332489 220.0 
108.626862 136.0 
108.662125 88.0 
108.776276 84.0 
108.844788 136.0 
108.89463 128.0 
108.992271 104.0 
109.029655 1276.0 
109.063751 2932.0 
109.099953 896.0 
109.144012 124.0 
109.410339 40.0 
109.451981 128.0 
109.508209 172.0 
109.641556 76.0 
109.745789 92.0 
109.772896 172.0 
109.845894 120.0 
109.931442 44.0 
110.032166 188.0 
110.064323 388.0 
110.12352 68.0 
110.24678 92.0 
110.292763 80.0 
110.401489 168.0 
110.466331 228.0 
110.539558 144.0 
110.751015 92.0 
110.805489 168.0 
110.97316 208.0 
111.015099 120.0 
111.043816 7324.0 
111.078766 1748.0 
111.113686 164.0 
111.178734 228.0 
111.281593 88.0 
111.340393 124.0 
111.359299 88.0 
111.411812 152.0 
111.460136 52.0 
111.518982 216.0 
111.600975 168.0 
111.657753 180.0 
111.912384 168.0 
111.927124 168.0 
112.045769 504.0 
112.085114 148.0 
112.18206 208.0 
112.257973 144.0 
112.274841 160.0 
112.357109 76.0 
112.601974 136.0 
112.821739 64.0 
112.938042 144.0 
112.95285 172.0 
112.984581 120.0 
113.021584 312.0 
113.058815 1748.0 
113.095657 568.0 
113.181976 248.0 
113.266144 208.0 
113.700806 208.0 
113.823936 80.0 
113.998131 128.0 
114.015137 204.0 
114.061897 232.0 
114.119301 104.0 
114.300102 160.0 
114.421425 192.0 
114.606728 216.0 
114.70903 248.0 
114.77726 76.0 
115.038841 528.0 
115.072937 656.0 
115.151192 184.0 
115.347305 208.0 
115.392204 240.0 
115.518387 164.0 
115.54406 112.0 
115.732407 156.0 
115.854492 88.0 
116.061317 296.0 
116.090607 180.0 
116.270485 148.0 
116.420761 112.0 
116.566849 176.0 
116.804977 180.0 
116.882957 136.0 
116.934601 64.0 
116.994881 128.0 
117.069351 1596.0 
117.257675 148.0 
117.387894 120.0 
117.440948 136.0 
117.561768 208.0 
117.648109 176.0 
117.740959 188.0 
117.760399 104.0 
117.833847 80.0 
117.920288 128.0 
118.07106 364.0 
118.350792 144.0 
118.55442 140.0 
118.606438 176.0 
118.68232 52.0 
118.786423 160.0 
118.845001 176.0 
118.910103 92.0 
118.98391 164.0 
119.048729 992.0 
119.085197 3044.0 
119.699272 44.0 
119.732201 200.0 
119.812538 164.0 
119.996704 160.0 
120.051216 128.0 
120.05529 196.0 
120.088211 484.0 
120.235565 148.0 
120.30542 148.0 
120.386208 80.0 
120.414124 128.0 
120.585022 224.0 
120.819 184.0 
120.937172 124.0 
120.967812 184.0 
120.994087 188.0 
121.028656 584.0 
121.063187 2692.0 
121.099846 1404.0 
121.134247 72.0 
121.252571 96.0 
121.298599 260.0 
121.318329 112.0 
121.338058 200.0 
121.384109 60.0 
121.504745 84.0 
121.985703 176.0 
122.037567 248.0 
122.068214 152.0 
122.098877 152.0 
122.11544 208.0 
122.258446 152.0 
122.472015 192.0 
122.577766 124.0 
122.738686 172.0 
122.778381 176.0 
123.042641 1336.0 
123.080383 1912.0 
123.116302 364.0 
123.297211 108.0 
123.38784 132.0 
123.40995 136.0 
123.633369 124.0 
123.690918 156.0 
123.885796 124.0 
123.916817 156.0 
124.045357 440.0 
124.080948 360.0 
124.466904 224.0 
124.651276 140.0 
124.780197 184.0 
124.806885 200.0 
124.856659 260.0 
124.909187 208.0 
125.022079 152.0 
125.060028 3432.0 
125.094444 580.0 
125.16291 140.0 
125.370087 156.0 
125.537285 72.0 
125.586357 36.0 
125.615349 252.0 
125.677818 120.0 
125.726913 132.0 
125.749237 148.0 
125.876488 64.0 
125.909988 112.0 
125.952423 112.0 
126.063286 124.0 
126.106606 188.0 
126.155785 144.0 
126.354828 36.0 
126.433144 152.0 
126.549164 232.0 
126.668251 136.0 
126.955338 140.0 
127.037041 876.0 
127.071327 424.0 
127.123398 168.0 
127.422043 112.0 
127.739037 204.0 
128.060394 448.0 
128.13205 164.0 
128.33812 164.0 
128.672058 128.0 
128.701401 44.0 
128.727127 160.0 
128.825623 228.0 
129.06456 1060.0 
129.08992 2900.0 
129.23938 72.0 
129.298218 92.0 
129.357071 164.0 
129.456696 52.0 
130.055984 156.0 
130.077744 608.0 
130.121078 260.0 
130.150589 44.0 
130.175568 172.0 
130.295959 144.0 
130.311859 188.0 
130.445953 164.0 
130.548264 116.0 
130.596039 136.0 
130.766678 220.0 
130.921494 92.0 
131.046677 268.0 
131.08606 3412.0 
131.140228 88.0 
131.159897 152.0 
131.210892 56.0 
131.279297 120.0 
131.468643 72.0 
131.537125 68.0 
131.56955 168.0 
131.747223 184.0 
131.774643 124.0 
131.902618 228.0 
131.925476 60.0 
131.941483 60.0 
132.00322 80.0 
132.023804 128.0 
132.056793 384.0 
132.088898 740.0 
132.117584 148.0 
132.167923 140.0 
132.206818 80.0 
132.25946 120.0 
132.488464 200.0 
132.520538 84.0 
132.590408 156.0 
132.79335 152.0 
132.99585 176.0 
133.062881 3472.0 
133.101288 1476.0 
133.181244 196.0 
133.539764 184.0 
133.86203 200.0 
134.067963 856.0 
134.103104 200.0 
134.20076 68.0 
134.242264 124.0 
134.466049 192.0 
134.673859 136.0 
134.803238 252.0 
134.837906 112.0 
134.888748 172.0 
134.985855 212.0 
135.013611 164.0 
135.043228 744.0 
135.079315 3032.0 
135.115753 1020.0 
135.140839 68.0 
135.221832 200.0 
135.349167 164.0 
135.416321 64.0 
135.448761 184.0 
135.539108 156.0 
135.564911 208.0 
135.659637 60.0 
135.801086 48.0 
136.052475 240.0 
136.080063 576.0 
136.121353 164.0 
136.179413 44.0 
136.48851 124.0 
136.518738 184.0 
136.560608 76.0 
136.576889 116.0 
136.995911 192.0 
137.059723 2412.0 
137.095016 2688.0 
137.131058 156.0 
137.385239 36.0 
137.57193 72.0 
137.592941 188.0 
137.632629 36.0 
137.905975 44.0 
138.061142 308.0 
138.097916 324.0 
138.167877 164.0 
138.331696 184.0 
138.366821 160.0 
138.46048 88.0 
138.676926 96.0 
138.83313 188.0 
138.901138 180.0 
138.957443 176.0 
139.038162 1408.0 
139.074615 920.0 
139.112823 492.0 
139.147568 228.0 
139.227402 160.0 
139.250885 120.0 
139.347198 120.0 
139.377747 224.0 
139.469406 76.0 
139.526199 124.0 
139.598724 248.0 
139.732788 204.0 
139.768097 204.0 
139.949341 84.0 
140.042572 320.0 
140.074158 212.0 
140.114212 100.0 
140.151901 92.0 
140.29332 152.0 
140.342834 136.0 
140.465469 200.0 
140.49614 152.0 
140.663696 168.0 
140.696747 124.0 
140.746338 60.0 
140.828995 120.0 
141.053787 2568.0 
141.090103 1504.0 
141.13858 76.0 
141.195343 76.0 
141.453247 48.0 
141.64743 68.0 
141.775375 44.0 
141.808563 100.0 
141.866974 236.0 
142.055176 264.0 
142.078888 596.0 
142.102615 188.0 
142.299622 124.0 
142.620331 184.0 
142.724945 76.0 
142.791519 148.0 
142.817688 156.0 
142.991379 148.0 
143.019943 208.0 
143.038422 180.0 
143.083817 2180.0 
143.218918 100.0 
143.258072 176.0 
143.63472 156.0 
143.670502 132.0 
143.73732 60.0 
144.05188 256.0 
144.087509 252.0 
144.112213 56.0 
144.303421 128.0 
144.576126 208.0 
144.887405 168.0 
144.985657 148.0 
145.019211 56.0 
145.064697 1616.0 
145.101212 3784.0 
145.158264 100.0 
145.28299 60.0 
145.316574 40.0 
145.494186 76.0 
145.787231 76.0 
145.840103 112.0 
145.926651 160.0 
145.997009 160.0 
146.071365 500.0 
146.10257 708.0 
146.133499 60.0 
146.193649 144.0 
146.306793 56.0 
146.815216 60.0 
146.978882 184.0 
147.041 356.0 
147.079849 6868.0 
147.116257 372.0 
147.160294 36.0 
147.230316 32.0 
147.247223 60.0 
147.293121 104.0 
147.322098 44.0 
147.365585 72.0 
147.430832 44.0 
147.520386 80.0 
147.544449 120.0 
147.633911 52.0 
147.892792 208.0 
147.955734 184.0 
147.982376 52.0 
148.082581 1080.0 
148.120407 172.0 
148.166443 156.0 
148.205215 112.0 
148.222168 100.0 
149.058487 1160.0 
149.096024 2464.0 
149.219788 76.0 
149.431396 140.0 
149.475189 144.0 
149.613922 180.0 
149.691849 36.0 
149.725937 176.0 
149.855286 84.0 
149.96228 116.0 
149.97934 36.0 
150.067093 236.0 
150.097641 704.0 
150.128067 40.0 
150.447708 132.0 
150.469681 172.0 
150.701721 136.0 
151.004852 164.0 
151.038086 144.0 
151.074326 1544.0 
151.108261 468.0 
151.369507 132.0 
151.511566 52.0 
151.604675 160.0 
151.624283 208.0 
151.702728 196.0 
151.724792 144.0 
152.075668 292.0 
152.113693 288.0 
152.210602 88.0 
152.308853 72.0 
152.343246 192.0 
152.81282 140.0 
152.842346 108.0 
152.999878 232.0 
153.053116 1420.0 
153.091385 1200.0 
153.123001 216.0 
153.207474 220.0 
153.413773 212.0 
153.884995 224.0 
153.927307 60.0 
154.059158 324.0 
154.092194 216.0 
154.095825 160.0 
154.725632 36.0 
154.953491 108.0 
155.028381 192.0 
155.072739 684.0 
155.105835 1452.0 
155.253433 60.0 
155.727478 180.0 
155.861633 152.0 
156.043015 152.0 
156.048569 192.0 
156.070435 176.0 
156.093567 128.0 
156.115189 136.0 
156.182343 72.0 
156.326645 80.0 
156.346558 140.0 
157.011108 168.0 
157.058029 480.0 
157.099899 808.0 
157.359665 76.0 
157.375565 148.0 
157.525955 236.0 
157.580917 192.0 
158.028473 104.0 
158.069473 664.0 
158.103638 188.0 
158.246231 156.0 
158.301315 172.0 
158.519257 76.0 
158.601974 168.0 
158.925491 136.0 
159.079147 3056.0 
159.116882 780.0 
159.27446 144.0 
159.322189 44.0 
159.377457 208.0 
159.485535 40.0 
159.558426 88.0 
159.96347 256.0 
160.056625 164.0 
160.083374 624.0 
160.121094 120.0 
160.192627 80.0 
160.787704 112.0 
160.873535 220.0 
160.980759 172.0 
160.999786 204.0 
161.058395 2956.0 
161.095322 2368.0 
161.134338 196.0 
161.201889 164.0 
161.275177 60.0 
161.355759 128.0 
161.515396 228.0 
161.743134 88.0 
161.801361 48.0 
162.063126 828.0 
162.101212 392.0 
162.130844 208.0 
162.381668 176.0 
162.536407 32.0 
162.635391 232.0 
162.701401 168.0 
163.035858 184.0 
163.074265 2396.0 
163.110229 2616.0 
163.194305 172.0 
163.247696 68.0 
163.362152 104.0 
163.509735 220.0 
163.535187 180.0 
163.601379 104.0 
164.006409 176.0 
164.079056 316.0 
164.11232 328.0 
164.21196 72.0 
164.227341 124.0 
164.366013 28.0 
164.71579 168.0 
164.861435 32.0 
165.056 148.0 
165.089615 1940.0 
165.128494 172.0 
165.15184 68.0 
165.355042 104.0 
165.657196 84.0 
165.875015 148.0 
165.946793 124.0 
166.096588 412.0 
166.128891 180.0 
166.25032 124.0 
166.429184 124.0 
166.768295 48.0 
167.105377 2100.0 
167.244156 140.0 
167.444977 128.0 
167.761932 120.0 
167.839279 100.0 
168.035309 204.0 
168.066269 116.0 
168.107025 340.0 
168.46904 60.0 
168.67836 80.0 
168.761093 84.0 
168.926743 84.0 
169.065445 216.0 
169.092148 412.0 
169.111526 200.0 
169.175049 60.0 
169.397766 80.0 
169.892914 124.0 
170.064056 156.0 
170.105499 332.0 
170.292679 92.0 
170.332535 192.0 
170.417374 72.0 
170.703308 196.0 
170.765732 96.0 
170.846375 184.0 
171.07843 1864.0 
171.116089 876.0 
171.278503 64.0 
171.651215 140.0 
172.062393 200.0 
172.082642 360.0 
172.127701 144.0 
172.748199 68.0 
172.779587 80.0 
173.017746 48.0 
173.060272 436.0 
173.094284 1444.0 
173.130341 132.0 
173.174866 232.0 
173.638794 144.0 
173.806686 128.0 
174.064423 240.0 
174.098297 92.0 
174.136429 232.0 
174.289841 80.0 
174.926315 212.0 
175.073898 2868.0 
175.108871 616.0 
175.143646 168.0 
175.627258 132.0 
175.698486 60.0 
175.809311 92.0 
175.967697 36.0 
176.028427 68.0 
176.075317 1020.0 
176.11673 240.0 
176.196838 200.0 
176.223557 64.0 
176.768616 60.0 
176.818893 108.0 
177.001556 40.0 
177.05188 148.0 
177.088348 2788.0 
177.412247 168.0 
177.446716 64.0 
177.510345 172.0 
177.64296 80.0 
178.056244 264.0 
178.091125 500.0 
178.490234 80.0 
178.620544 176.0 
179.041092 128.0 
179.069351 3764.0 
179.106171 1424.0 
179.262222 84.0 
179.291534 68.0 
179.55014 80.0 
179.638168 36.0 
179.827621 148.0 
180.025192 92.0 
180.071991 888.0 
180.109802 288.0 
180.145386 164.0 
180.169418 204.0 
180.384262 144.0 
180.530273 132.0 
181.060181 112.0 
181.087097 496.0 
181.118149 660.0 
181.30397 40.0 
181.36026 60.0 
181.408508 68.0 
182.047104 124.0 
182.103836 232.0 
182.129349 148.0 
182.256638 100.0 
183.078278 516.0 
183.103577 660.0 
183.182159 76.0 
183.748306 124.0 
183.934525 84.0 
184.085083 164.0 
184.120285 204.0 
184.52887 48.0 
185.055191 208.0 
185.091339 480.0 
185.128265 724.0 
185.161469 200.0 
185.891357 76.0 
186.063583 192.0 
186.102249 264.0 
186.121994 440.0 
186.170975 188.0 
186.513321 156.0 
186.676453 204.0 
187.075729 708.0 
187.110718 532.0 
187.145493 388.0 
187.218018 60.0 
187.509537 76.0 
187.564056 76.0 
187.689468 196.0 
187.89949 236.0 
188.077072 156.0 
188.110214 164.0 
188.333542 160.0 
188.360855 72.0 
188.587662 56.0 
189.003357 128.0 
189.088928 1696.0 
189.126648 524.0 
189.690796 136.0 
189.72644 84.0 
190.055573 144.0 
190.091446 316.0 
190.128555 236.0 
190.547058 124.0 
191.067505 416.0 
191.10585 2956.0 
191.26207 88.0 
191.295105 68.0 
191.490616 56.0 
192.106461 608.0 
192.715469 116.0 
193.084869 2816.0 
193.12384 128.0 
193.329361 176.0 
193.379181 100.0 
193.711456 84.0 
194.086823 804.0 
195.067169 148.0 
195.09787 620.0 
195.719498 184.0 
195.858749 164.0 
196.087234 176.0 
196.115265 136.0 
197.05278 160.0 
197.088745 156.0 
197.117401 836.0 
197.500061 96.0 
197.662338 92.0 
198.068298 148.0 
198.101074 436.0 
198.561615 44.0 
199.071976 468.0 
199.110504 304.0 
199.147141 340.0 
199.727264 164.0 
200.06778 200.0 
200.116226 192.0 
200.150909 152.0 
200.352219 160.0 
200.608612 188.0 
200.765671 252.0 
200.949936 180.0 
201.090973 668.0 
201.127472 588.0 
201.164429 104.0 
201.379028 52.0 
201.590927 112.0 
201.749207 152.0 
202.015045 44.0 
202.090042 304.0 
202.12944 264.0 
202.399963 164.0 
202.856125 48.0 
202.955353 72.0 
203.069534 832.0 
203.098053 224.0 
203.141602 380.0 
203.17659 148.0 
203.449036 36.0 
203.778488 120.0 
204.076736 168.0 
204.101761 76.0 
204.141113 204.0 
204.219131 68.0 
204.879562 160.0 
204.939392 160.0 
205.083252 928.0 
205.121674 212.0 
205.158844 164.0 
205.643784 156.0 
205.977875 156.0 
206.087311 144.0 
206.918762 120.0 
207.100235 1148.0 
207.170792 156.0 
207.608063 108.0 
207.635147 36.0 
207.962234 72.0 
208.09996 172.0 
208.404495 120.0 
208.464844 36.0 
208.56543 36.0 
208.970932 168.0 
208.99971 88.0 
209.115387 4932.0 
209.238602 224.0 
209.61882 52.0 
210.1185 708.0 
210.86557 104.0 
210.888687 40.0 
211.108337 508.0 
211.168884 216.0 
211.362991 92.0 
212.110214 112.0 
212.91684 64.0 
213.085327 132.0 
213.123672 652.0 
213.15506 164.0 
215.143997 408.0 
216.009445 172.0 
216.149887 144.0 
216.348923 140.0 
216.970016 68.0 
217.085144 1520.0 
217.123535 164.0 
217.156433 360.0 
217.26329 88.0 
217.324905 76.0 
217.665421 48.0 
218.082458 436.0 
218.126694 88.0 
218.160904 176.0 
218.391327 76.0 
218.514893 112.0 
218.770935 128.0 
219.101379 540.0 
219.138199 208.0 
219.177399 64.0 
219.486908 36.0 
220.142014 144.0 
221.002228 104.0 
221.080841 612.0 
221.114685 156.0 
221.153534 356.0 
221.52034 84.0 
221.893768 76.0 
222.085175 228.0 
222.107025 140.0 
222.14772 320.0 
222.487137 104.0 
223.094009 924.0 
223.235916 44.0 
223.789398 76.0 
224.099167 368.0 
225.102005 648.0 
225.223877 76.0 
226.109436 196.0 
226.689911 112.0 
226.920715 224.0 
226.980682 60.0 
227.126129 2808.0 
227.343674 96.0 
227.370682 92.0 
227.43071 60.0 
227.565811 64.0 
227.875168 36.0 
228.129211 568.0 
228.551712 160.0 
228.828613 100.0 
229.078598 192.0 
229.118668 1204.0 
229.781036 92.0 
230.129257 192.0 
230.154556 144.0 
230.838242 100.0 
231.135971 604.0 
231.180099 176.0 
231.252731 44.0 
231.673645 36.0 
232.114456 128.0 
232.140594 184.0 
232.282974 56.0 
232.489304 92.0 
233.111862 124.0 
233.15181 424.0 
234.249802 148.0 
234.691727 160.0 
234.825912 100.0 
234.911316 64.0 
234.93573 260.0 
235.033356 168.0 
235.063873 156.0 
235.096497 1656.0 
235.356918 68.0 
235.410141 84.0 
235.428757 76.0 
235.501984 48.0 
235.650146 240.0 
235.906876 60.0 
236.101974 452.0 
236.138199 148.0 
236.169846 132.0 
236.751373 72.0 
237.111191 240.0 
237.144836 296.0 
237.370422 28.0 
237.631149 164.0 
238.122314 120.0 
238.288193 120.0 
238.826187 72.0 
238.98616 68.0 
239.087418 216.0 
239.164658 156.0 
239.497208 104.0 
239.959473 32.0 
240.00264 196.0 
240.089722 132.0 
240.11174 148.0 
240.459213 52.0 
240.613556 76.0 
241.111633 332.0 
241.611832 160.0 
243.136047 432.0 
243.602142 196.0 
243.633209 80.0 
244.141907 152.0 
244.292282 64.0 
245.148331 696.0 
245.273209 52.0 
246.003174 48.0 
246.152908 308.0 
247.129578 1360.0 
247.170425 336.0 
247.810883 192.0 
248.095291 128.0 
248.132538 364.0 
249.10347 76.0 
249.14212 496.0 
249.700684 124.0 
250.116028 72.0 
250.157303 196.0 
250.878372 148.0 
251.118027 132.0 
253.039383 172.0 
253.106598 860.0 
253.147034 96.0 
253.327576 80.0 
253.802994 48.0 
253.90448 56.0 
254.108566 188.0 
254.640808 100.0 
255.140839 300.0 
255.16832 144.0 
256.143982 492.0 
257.175293 140.0 
257.596802 48.0 
257.951508 80.0 
258.025024 68.0 
258.114563 152.0 
258.821747 92.0 
259.180511 76.0 
260.341766 172.0 
260.99411 116.0 
261.14682 388.0 
261.425171 220.0 
261.734222 80.0 
262.020874 208.0 
262.094971 176.0 
262.146545 64.0 
262.285126 192.0 
262.71402 96.0 
262.739838 48.0 
263.161591 456.0 
263.534088 76.0 
264.15271 152.0 
264.176788 152.0 
264.935028 48.0 
265.028992 132.0 
265.139496 1104.0 
266.146149 176.0 
267.153137 324.0 
268.65094 88.0 
271.118073 284.0 
271.155731 140.0 
271.749268 164.0 
272.12674 136.0 
272.254791 140.0 
273.144836 1632.0 
273.645782 32.0 
274.152435 352.0 
274.291504 76.0 
275.007263 100.0 
275.142639 148.0 
276.206757 116.0 
277.180115 120.0 
278.181763 32.0 
278.596893 64.0 
278.69989 116.0 
279.078827 100.0 
279.15921 308.0 
283.253967 68.0 
284.202759 160.0 
290.057648 116.0 
290.08139 172.0 
290.827667 160.0 
291.158295 3044.0 
291.347229 80.0 
292.006683 116.0 
292.157562 284.0 
292.615814 212.0 
292.973419 48.0 
293.171051 160.0 
298.178131 104.0 
299.19632 144.0 
300.219727 136.0 
300.471527 52.0 
303.186005 104.0 
304.848328 44.0 
307.198608 160.0 
309.165619 884.0 
309.206604 176.0 
310.168396 276.0 
311.055023 64.0 
311.170868 188.0 
311.901581 60.0 
312.179352 144.0 
312.62262 56.0 
313.320312 136.0 
314.875427 88.0 
315.187897 108.0 
316.119873 88.0 
319.199066 184.0 
322.025238 52.0 
325.671539 104.0 
327.17041 224.0 
329.432281 80.0 
330.339661 120.0 
331.19397 160.0 
339.056885 80.0 
340.829376 52.0 
341.207977 68.0 
352.121429 160.0 
353.381226 96.0 
357.245575 172.0 
360.722565 84.0 
362.550751 48.0 
367.74234 68.0 
369.094757 76.0 
373.251465 92.0 
374.200836 116.0 
377.311615 96.0 
378.274933 60.0 
381.319885 120.0 
384.018127 104.0 
385.22821 140.0 
386.248474 120.0 
388.234283 88.0 
391.228424 88.0 
393.2388 200.0 
403.264069 136.0 
403.571899 72.0 
406.688721 40.0 
411.233032 140.0 
411.26532 192.0 
412.549896 100.0 
417.260925 68.0 
417.875092 80.0 
421.732971 48.0 
425.657867 164.0 
429.258575 128.0 
431.897736 72.0 
443.108978 40.0 
447.253937 216.0 
452.611542 140.0 
460.889313 116.0 
471.456543 68.0 
483.193024 136.0 
483.276154 80.0 
484.177948 64.0 
484.243652 52.0 
503.304413 120.0 
503.336426 156.0 
504.323761 176.0 
505.321716 312.0 
505.339783 328.0 
507.59201 84.0 
507.941864 68.0 
512.041199 60.0 
521.397583 48.0 
525.372803 72.0 
536.614136 68.0 
539.897339 72.0 
547.038391 92.0 
571.64209 116.0 
575.021057 88.0 
599.361938 44.0 
620.037231 72.0 
621.912048 112.0 
623.998535 92.0 
665.527039 44.0 
674.052185 48.0 
704.531372 64.0 
711.782471 212.0 
727.222412 92.0 
729.860229 116.0 
758.237427 104.0 
762.007385 176.0 
784.667236 160.0 
791.853638 52.0 
795.700562 184.0 
797.205933 164.0 
830.501099 68.0 
860.1698 160.0 
868.320679 168.0 
883.672424 144.0 
887.469177 60.0 
887.925781 136.0 
888.803772 120.0 
891.678101 212.0 
905.041199 28.0 
909.501648 176.0 
910.486328 84.0 
913.924927 172.0 
915.995972 192.0 
918.069397 212.0 
930.462036 228.0 
930.698853 192.0 
932.880005 156.0 
937.487671 220.0 
937.761902 128.0 
940.000183 104.0 
940.714294 192.0 
943.390076 128.0 
943.659058 184.0 
946.069641 160.0 
951.605957 128.0 
952.324463 224.0 
958.180908 116.0 
959.339539 216.0 
964.87738 172.0 
967.27771 156.0 
972.96875 40.0 
973.490356 140.0 
975.795715 196.0 
977.705383 184.0 
982.540894 168.0 
982.665649 160.0 
983.707886 48.0 
984.05127 92.0 
984.800659 164.0 
986.294067 152.0 
990.342529 256.0 
993.991333 116.0 
996.976746 156.0 
1005.678589 100.0 
1006.745605 144.0 
1009.127869 116.0 
1010.544678 196.0 
1012.469055 172.0 
1015.065552 232.0 
1017.230957 52.0 
1019.169067 188.0 
1022.213989 88.0 
1022.417664 176.0 
1025.022339 188.0 
1026.539551 96.0 
1032.414795 152.0 
1032.862549 220.0 
1033.035278 192.0 
1033.700684 236.0 
1034.135864 132.0 
1034.398315 140.0 
1037.152832 128.0 
1038.614868 172.0 
1040.636353 160.0 
1041.445557 220.0 
1041.522583 68.0 
1047.762695 152.0 
1048.72937 128.0 
1052.36792 48.0 
1053.045898 76.0 
1053.34314 88.0 
1054.790649 68.0 
1058.892944 144.0 
1059.592529 140.0 
1061.238892 104.0 
1062.02356 176.0 
1062.756592 156.0 
1063.029175 148.0 
1063.45105 212.0 
1064.061279 220.0 
1065.282227 132.0 
1069.463501 196.0 
1071.690796 136.0 
1074.266113 52.0 
1074.34436 180.0 
1075.107788 232.0 
1079.805298 276.0 
1081.224976 232.0 
1081.663574 188.0 
1087.832275 156.0 
1094.828369 32.0 
1095.236694 240.0 
1095.460693 164.0 
1097.464233 196.0 
1099.377319 156.0 
1100.902222 200.0 
1101.067383 204.0 
1102.408569 76.0 
1104.451538 188.0 
1104.921265 204.0 
1105.807983 132.0 
1109.776123 136.0 
1110.38623 164.0 
1110.664795 220.0 
1111.142456 128.0 
1112.536255 76.0 
1113.153687 88.0 
1117.920166 228.0 
1119.105103 120.0 
1119.364746 212.0 
1120.097412 92.0 
1124.932129 96.0 
1125.82019 108.0 
1126.060669 212.0 
1126.802124 152.0 
1127.082764 152.0 
1127.223022 136.0 
1127.67749 232.0 
1129.235474 196.0 
1130.727417 176.0 
1133.922241 140.0 
1142.403198 200.0 
1142.773193 168.0 
1145.587402 188.0 
1147.434082 172.0 
1147.953247 160.0 
1148.364624 160.0 
1148.708618 124.0 
1148.836792 180.0 
1151.604492 192.0 
1156.818115 136.0 
1158.063965 228.0 
1158.145264 160.0 
1161.127563 60.0 
1161.283569 236.0 
1163.02063 224.0 
1163.346436 192.0 
1163.394043 176.0 
1163.604492 140.0 
1164.432983 132.0 
1165.261719 132.0 
1166.165527 108.0 
1168.110229 148.0 
1170.860229 160.0 
1171.500488 160.0 
1176.396973 104.0 
1177.489502 148.0 
1178.377563 244.0 
1180.975342 160.0 
1181.255737 184.0 
1181.399414 68.0 
1182.275269 116.0 
1183.514404 104.0 
1185.589966 40.0 
1186.967896 172.0 
1187.276489 144.0 
1187.914429 192.0 
1190.804321 180.0 
1196.401733 132.0 
1198.468018 160.0 
1198.743652 156.0 
1199.853394 160.0 
1200.24646 156.0 
1201.370728 244.0 
1202.964844 188.0 
1203.213379 96.0 
1204.919312 200.0 
1207.698364 156.0 
1208.327881 184.0 
1208.85376 160.0 
1209.338257 144.0 
1211.526489 128.0 
1212.552002 176.0 
1214.007935 88.0 
1214.091187 216.0 
1214.916626 220.0 
1214.99292 60.0 
1215.166382 192.0 
1215.915771 144.0 
1216.408691 228.0 
1217.436279 252.0 
1218.888184 140.0 
1219.527588 184.0 
1221.759766 200.0 
1222.358154 176.0 
1223.687622 196.0 
1224.704346 148.0 
1227.554932 144.0 
1229.17334 208.0 
1229.494385 104.0 
1230.778931 168.0 
1231.323608 268.0 
1233.133179 92.0 
1235.077026 216.0 
1235.377808 172.0 
1236.000488 228.0 
1236.74939 164.0 
1237.302368 192.0 
1239.109375 152.0 
1239.782104 188.0 
1240.300781 196.0 
1242.523804 120.0 
1245.79541 204.0 
1246.38562 156.0 
1248.452393 180.0 
1248.529785 64.0 
1248.986938 196.0 
1251.851562 132.0 
1253.993286 116.0 
1254.063721 172.0 
1255.142456 168.0 
1255.755981 184.0 
1255.812378 196.0 
1257.865845 48.0 
1258.416504 164.0 
1259.10144 156.0 
1259.179199 156.0 
1259.532349 152.0 
1259.588867 184.0 
1260.132812 172.0 
1261.28479 148.0 
1262.063965 192.0 
1266.556519 196.0 
1267.739746 180.0 
1271.455933 160.0 
1273.884399 244.0 
1275.092285 152.0 
1275.632568 120.0 
1276.549805 236.0 
1276.791504 48.0 
1276.955078 92.0 
1278.022217 76.0 
1278.313965 176.0 
1278.534668 160.0 
1280.663452 184.0 
1280.741821 200.0 
1282.551758 116.0 
1286.632202 144.0 
1287.653442 184.0 
1289.360962 72.0 
1289.589722 144.0 
1289.818359 212.0 
1290.647705 192.0 
1290.919434 160.0 
1292.221313 116.0 
1293.015625 228.0 
1293.910522 152.0 
1294.35437 48.0 
1294.662354 40.0 
1294.719604 120.0 
1296.876221 208.0 
1298.618652 236.0 
1298.769287 196.0 
1298.927002 192.0 
1300.929565 180.0 
1302.01355 164.0 
1304.916626 152.0 
1306.02417 132.0 
1310.084106 168.0 
1310.444458 172.0 
1311.00647 120.0 
1312.960205 168.0 
1314.02063 148.0 
1314.908203 72.0 
1316.554321 184.0 
1320.739136 152.0 
1321.332397 184.0 
1321.52771 184.0 
1324.090454 224.0 
1324.685059 200.0 
1325.59729 192.0 
1326.075562 168.0 
1327.07605 144.0 
1328.207397 160.0 
1332.577881 196.0 
1333.704224 176.0 
1334.409424 180.0 
1335.318481 148.0 
1337.879883 236.0 
1338.22937 136.0 
1339.598511 200.0 
1340.677002 152.0 
1342.565186 136.0 
1344.067993 196.0 
1344.213867 132.0 
1344.440063 172.0 
1345.294189 160.0 
1345.8125 128.0 
1346.805786 156.0 
1348.705566 168.0 
1348.997925 184.0 
1349.955811 176.0 
1350.350708 220.0 
1351.689575 224.0 
1352.487305 200.0 
1353.314575 128.0 
1355.167725 200.0 
1355.314209 172.0 
1357.058716 120.0 
1360.118042 104.0 
1361.292725 176.0 
1363.026489 172.0 
1363.849609 196.0 
1364.518555 128.0 
1364.62146 156.0 
1366.658936 152.0 
1368.543213 168.0 
1368.948242 268.0 
1369.080811 208.0 
1371.585938 168.0 
1372.079834 68.0 
1372.729614 136.0 
1372.832031 160.0 
1373.178589 200.0 
1374.587769 216.0 
1375.628418 160.0 
1377.253052 168.0 
1377.334351 132.0 
1377.777588 152.0 
1377.873535 140.0 
1378.132202 236.0 
1378.206055 220.0 
1379.418213 148.0 
1380.638184 144.0 
1381.081909 160.0 
1382.443359 212.0 
1382.576538 156.0 
1384.494019 36.0 
1384.716187 144.0 
1387.561768 140.0 
1387.791626 196.0 
1388.281006 212.0 
1388.525757 128.0 
1388.736206 140.0 
1389.705322 208.0 
1389.883423 180.0 
1390.358398 220.0 
1391.098145 168.0 
1391.315918 168.0 
1392.058472 92.0 
1392.55603 108.0 
1393.922974 180.0 
1395.424561 176.0 
1396.495361 180.0 
1399.487061 144.0 
1399.941284 276.0 
1400.626587 168.0 
1400.715942 160.0 
1401.557861 196.0 
1403.920898 80.0 
1406.121826 112.0 
1407.278931 120.0 
1407.346191 208.0 
1407.689697 164.0 
1407.846436 112.0 
1407.936157 44.0 
1408.055542 204.0 
1408.391724 132.0 
1408.496338 172.0 
1408.653198 140.0 
1409.497437 120.0 
1409.841187 92.0 
1411.014771 124.0 
1411.179321 168.0 
1412.338501 120.0 
1412.540405 232.0 
1413.348389 88.0 
1414.777954 212.0 
1416.755127 52.0 
1416.822632 172.0 
1420.143433 132.0 
1420.676025 156.0 
1421.29126 220.0 
1421.644043 132.0 
1421.861694 156.0 
1422.131836 136.0 
1422.582275 44.0 
1423.302979 112.0 
1423.543335 140.0 
1424.850342 92.0 
1425.481445 228.0 
1426.195435 140.0 
1428.970459 180.0 
1429.708008 100.0 
1430.174561 172.0 
1430.490723 196.0 
1431.431885 136.0 
1432.222778 176.0 
1432.471313 236.0 
1433.345337 64.0 
1433.649048 184.0 
1433.865234 68.0 
1435.305176 144.0 
1436.011108 148.0 
1436.142334 124.0 
1437.296631 188.0 
1437.357056 152.0 
1439.674561 52.0 
1439.923828 180.0 
1440.482788 44.0 
1440.988892 164.0 
1441.480103 112.0 
1441.978882 164.0 
1442.122559 148.0 
1442.182983 220.0 
1442.424805 80.0 
1442.83313 88.0 
1444.436401 96.0 
1450.168457 112.0 
1450.562622 164.0 
1451.59375 40.0 
1452.132202 184.0 
1452.291504 152.0 
1452.572144 56.0 
1453.118408 148.0 
1455.304443 160.0 
1455.653687 76.0 
1456.025757 128.0 
1456.65625 148.0 
1458.312744 212.0 
1458.882935 96.0 
1460.867798 172.0 
1461.727539 40.0 
1461.963501 84.0 
1462.45813 140.0 
1463.813354 64.0 
1464.39978 112.0 
1464.963501 152.0 
1465.976929 172.0 
1466.807739 144.0 
1466.891479 244.0 
1467.231445 220.0 
1467.455688 164.0 
1467.524292 176.0 
1467.745483 152.0 
1468.393677 124.0 
1469.217529 44.0 
1470.033936 172.0 
1471.682861 220.0 
1472.347168 160.0 
1472.904785 120.0 
1474.394653 156.0 
1474.455811 184.0 
1477.364624 136.0 
1481.062622 152.0 
1481.901733 112.0 
1482.65271 188.0 
1482.744629 140.0 
1483.403809 152.0 
1483.949097 160.0 
1484.093872 196.0 
1484.308594 164.0 
1488.820923 156.0 
1489.519897 192.0 
1489.773438 172.0 
1491.072021 212.0 
1491.786865 80.0 
1492.302002 156.0 
1494.101807 124.0 
1494.401855 200.0 
1494.648071 52.0 
1495.409912 64.0 
1495.964233 64.0 
1496.202881 64.0 
1496.359985 124.0 
1497.065308 156.0 
1497.820068 140.0 
1498.860229 172.0 
1499.777344 184.0 
1501.473633 124.0 
1501.558472 156.0 
1502.160034 176.0 
1502.970215 184.0 
1503.386963 160.0 
1503.564453 64.0 
1504.814941 156.0 
1505.069824 188.0 
END IONS

