BEGIN IONS
PEPMASS=734.469
CHARGE=1+
COMPOUNDNAME=Erythromycin (E-Mycin)
LIBRARYQUALITY=1
SMILES=C1[C@H](C([C@@H]([C@@H](O)[C@@]([C@H](OC([C@@H]([C@H]([C@@H]([C@@H](O[C@@H]2[C@@H]([C@@H](CC(C)O2)N(C)C)O)[C@@]1(C)O)C)O[C@@H]3C[C@]([C@@H]([C@H](O3)C)O)(OC)C)C)=O)CC)(O)C)C)=O)C
INCHIKEY=ULGZDMOVFRHVEP-IKHZKFQISA-N
INCHI=N/A
MSLEVEL=2
SOURCE_INSTRUMENT=LC-ESI-qTof
FILENAME=Plate3_61_88_GH1_01_16501.mzXML
SEQ=*..*
IONMODE=Positive
ORGANISM=GNPS-SELLECKCHEM-FDA-PART2
NAME=Erythromycin (E-Mycin) [M+H]
PI=Dorrestein
DATACOLLECTOR=Garg_Neha
PUBMED=N/A
SUBMITUSER=negarg
TAGS=
SPECTRUMID=CCMSLIB00000078217
SCANS=1123
45.027744 152.0 
45.236809 156.0 
45.309383 152.0 
45.490921 140.0 
45.535229 144.0 
45.712166 128.0 
45.972767 176.0 
46.183525 176.0 
46.363178 144.0 
46.469357 208.0 
46.610569 184.0 
46.656776 252.0 
46.723415 152.0 
46.765602 196.0 
46.959072 148.0 
47.267815 260.0 
47.397896 140.0 
47.481518 152.0 
47.642113 168.0 
47.687458 152.0 
47.95171 152.0 
47.98893 176.0 
48.08411 220.0 
48.155907 176.0 
48.238811 196.0 
48.269226 192.0 
48.291351 196.0 
48.35915 144.0 
48.515675 184.0 
48.640522 216.0 
48.963089 144.0 
49.33704 192.0 
49.360806 208.0 
49.440544 248.0 
49.455284 192.0 
49.51054 160.0 
49.572178 172.0 
49.654892 152.0 
49.949245 112.0 
49.970951 184.0 
50.464592 172.0 
50.647148 152.0 
50.716576 160.0 
50.899586 172.0 
51.004391 192.0 
51.038834 224.0 
51.060165 192.0 
51.10284 180.0 
51.192516 172.0 
51.340721 160.0 
51.470577 172.0 
51.800949 148.0 
51.962944 172.0 
52.204254 148.0 
52.315044 140.0 
52.441799 188.0 
52.495144 172.0 
52.62212 148.0 
52.877975 216.0 
52.993824 176.0 
53.163475 156.0 
53.189602 196.0 
53.258415 184.0 
53.321774 192.0 
53.714897 152.0 
53.78056 140.0 
53.986557 156.0 
54.002644 196.0 
54.028976 148.0 
54.525166 116.0 
54.567719 144.0 
54.727585 156.0 
54.835121 180.0 
55.063118 208.0 
55.16132 168.0 
55.312111 204.0 
55.365498 152.0 
55.568573 180.0 
55.669506 176.0 
55.744942 164.0 
55.877602 164.0 
55.911823 156.0 
55.975838 216.0 
56.032223 172.0 
56.109932 160.0 
56.18301 128.0 
56.288979 232.0 
56.782825 204.0 
56.97646 192.0 
57.020035 252.0 
57.220097 160.0 
57.618431 164.0 
57.645447 176.0 
57.689278 164.0 
57.802708 148.0 
57.834179 176.0 
57.852654 152.0 
57.885963 152.0 
57.979885 164.0 
58.095119 144.0 
58.127434 188.0 
58.309216 344.0 
58.490211 232.0 
58.933994 144.0 
59.287472 152.0 
59.414738 184.0 
59.450027 156.0 
59.645081 148.0 
60.043854 216.0 
60.088589 144.0 
60.130253 164.0 
60.145687 144.0 
60.403732 308.0 
60.502773 144.0 
60.634434 220.0 
60.701096 144.0 
60.910614 164.0 
61.072266 260.0 
61.085297 244.0 
61.221676 180.0 
61.24815 188.0 
61.308968 112.0 
61.42897 204.0 
61.578812 192.0 
61.839912 144.0 
61.985283 184.0 
62.112545 180.0 
62.123528 160.0 
62.134506 152.0 
62.451771 128.0 
62.61393 160.0 
62.870159 184.0 
62.948254 176.0 
63.101517 212.0 
63.648148 144.0 
63.813393 164.0 
63.931099 160.0 
64.286987 220.0 
64.487694 180.0 
64.566887 292.0 
64.766098 204.0 
64.791389 152.0 
64.806145 180.0 
64.950424 176.0 
64.979301 192.0 
65.078812 180.0 
65.196075 196.0 
65.532379 144.0 
65.654091 188.0 
65.830788 188.0 
65.895393 152.0 
65.935791 156.0 
65.981049 152.0 
66.078087 164.0 
66.205658 128.0 
66.296684 156.0 
66.455589 176.0 
66.476685 160.0 
67.021416 200.0 
67.386894 200.0 
67.617462 156.0 
68.046928 180.0 
68.176697 216.0 
68.372398 252.0 
68.425072 156.0 
68.509064 176.0 
68.532127 168.0 
68.543655 188.0 
68.675545 152.0 
68.690392 168.0 
68.890129 160.0 
69.401527 220.0 
69.605621 152.0 
69.904831 164.0 
69.989723 196.0 
70.169662 152.0 
70.623878 220.0 
70.647301 168.0 
70.719246 156.0 
70.779518 204.0 
71.183632 216.0 
71.348289 188.0 
71.732109 184.0 
71.823166 164.0 
72.162598 160.0 
72.448616 152.0 
72.704643 200.0 
72.940727 208.0 
72.952629 196.0 
72.97303 184.0 
73.001289 144.0 
73.272568 148.0 
73.42598 160.0 
73.554939 240.0 
73.584671 164.0 
73.767464 144.0 
74.075485 176.0 
74.169731 260.0 
74.536995 168.0 
74.755379 148.0 
74.789803 172.0 
75.012001 140.0 
75.108566 176.0 
75.174126 180.0 
75.739471 180.0 
76.293022 160.0 
76.376488 160.0 
76.425201 164.0 
76.468704 244.0 
76.841614 148.0 
76.871277 140.0 
77.065094 248.0 
77.101791 188.0 
77.114021 216.0 
77.133247 220.0 
77.649765 168.0 
77.841049 172.0 
77.879684 208.0 
78.115227 160.0 
78.217285 148.0 
78.314636 108.0 
78.569725 168.0 
78.691803 116.0 
79.18663 164.0 
79.532372 144.0 
79.653053 108.0 
79.82373 148.0 
79.901779 208.0 
80.031364 116.0 
80.128098 176.0 
80.202942 368.0 
80.320625 276.0 
80.37236 160.0 
80.597122 164.0 
80.731361 156.0 
81.050034 188.0 
81.153992 144.0 
81.177299 144.0 
81.284935 140.0 
81.314346 100.0 
81.491417 160.0 
81.53553 188.0 
81.600708 228.0 
81.89978 256.0 
82.069664 172.0 
82.094421 200.0 
82.200851 236.0 
82.513329 172.0 
82.535019 144.0 
82.833633 172.0 
82.907921 156.0 
82.973175 176.0 
82.989494 220.0 
83.049431 148.0 
83.10376 204.0 
83.274399 176.0 
83.517952 188.0 
83.576164 168.0 
83.922234 224.0 
84.236229 152.0 
84.262184 124.0 
84.327492 176.0 
84.45182 156.0 
84.528656 152.0 
84.67511 148.0 
84.922531 148.0 
85.016098 148.0 
85.058197 128.0 
85.252998 164.0 
85.280563 152.0 
85.4571 212.0 
85.486542 200.0 
85.608994 148.0 
85.756279 184.0 
85.878952 240.0 
86.034721 328.0 
86.081955 168.0 
86.342529 144.0 
86.364723 160.0 
86.379517 180.0 
86.647942 204.0 
86.720215 188.0 
86.835167 176.0 
86.862984 176.0 
86.951721 184.0 
87.164665 156.0 
87.199059 144.0 
87.308319 208.0 
87.530655 176.0 
87.686676 148.0 
87.820915 184.0 
88.005661 204.0 
88.078163 156.0 
88.431885 184.0 
88.710976 152.0 
88.962349 184.0 
89.003647 188.0 
89.084412 196.0 
89.114471 172.0 
89.138893 164.0 
89.167084 156.0 
89.366409 216.0 
89.471802 220.0 
90.075256 180.0 
90.158386 156.0 
90.400444 196.0 
90.453438 172.0 
90.47274 180.0 
90.612511 176.0 
90.701576 180.0 
91.309151 144.0 
91.371925 180.0 
91.436623 172.0 
91.451843 168.0 
91.568275 212.0 
91.600365 228.0 
91.647995 144.0 
91.880592 152.0 
91.981735 192.0 
92.033279 140.0 
92.061928 140.0 
92.326653 188.0 
92.361984 164.0 
92.41172 204.0 
92.778351 136.0 
92.894501 244.0 
93.024986 164.0 
93.328537 144.0 
93.461258 208.0 
93.557487 148.0 
93.800209 172.0 
93.840691 168.0 
93.904327 204.0 
94.226692 172.0 
94.354248 152.0 
94.383247 212.0 
94.731613 292.0 
94.863388 252.0 
94.932686 156.0 
95.059273 176.0 
95.232056 140.0 
95.467216 140.0 
95.576149 180.0 
95.659142 168.0 
96.094421 160.0 
96.223236 172.0 
96.424431 156.0 
96.704109 160.0 
96.819618 164.0 
96.856834 216.0 
96.91169 164.0 
97.049728 176.0 
97.065521 404.0 
97.441422 184.0 
97.557373 188.0 
97.588829 180.0 
97.612427 328.0 
97.667488 248.0 
97.708801 164.0 
97.789482 148.0 
97.943054 160.0 
97.962753 228.0 
98.03566 136.0 
98.059303 212.0 
98.097252 5488.0 
98.428207 160.0 
98.596115 168.0 
99.087608 356.0 
99.103615 364.0 
99.134399 200.0 
99.235489 244.0 
99.444099 196.0 
99.517227 184.0 
99.562897 160.0 
99.676125 212.0 
99.998291 204.0 
100.077011 796.0 
100.09584 176.0 
100.205383 184.0 
100.302254 144.0 
100.664146 140.0 
100.710602 168.0 
100.9879 172.0 
101.276123 208.0 
101.46048 156.0 
101.807602 180.0 
101.895981 184.0 
101.983528 324.0 
102.058777 144.0 
102.088943 216.0 
102.17543 176.0 
102.501602 156.0 
102.521759 212.0 
103.252571 172.0 
103.592613 152.0 
103.720268 172.0 
103.75676 176.0 
103.904808 196.0 
104.349586 148.0 
104.522469 188.0 
104.618126 156.0 
104.777786 220.0 
104.842697 236.0 
104.937981 208.0 
105.176659 224.0 
105.219917 212.0 
105.331848 140.0 
105.409477 200.0 
105.427872 156.0 
105.442177 196.0 
105.601646 164.0 
105.716217 168.0 
105.949631 148.0 
106.023399 172.0 
106.037743 196.0 
106.205574 196.0 
106.34539 164.0 
106.585663 184.0 
106.997017 156.0 
107.060844 160.0 
107.227722 236.0 
107.246269 208.0 
107.264816 164.0 
107.493744 164.0 
107.565369 228.0 
107.739449 248.0 
107.887619 172.0 
108.016449 176.0 
108.16246 164.0 
108.202698 188.0 
108.275169 208.0 
108.307106 124.0 
108.387032 156.0 
108.432037 156.0 
108.797569 136.0 
108.999161 144.0 
109.063393 304.0 
109.275696 204.0 
109.398483 212.0 
109.488014 212.0 
109.625511 168.0 
109.798538 172.0 
110.069824 164.0 
110.324715 156.0 
110.506668 152.0 
110.717628 164.0 
110.921318 236.0 
110.946472 224.0 
111.704567 156.0 
111.780304 232.0 
112.005569 196.0 
112.140419 140.0 
112.317535 172.0 
112.66584 140.0 
112.778427 256.0 
113.060692 2068.0 
113.116264 148.0 
113.160721 228.0 
113.238037 180.0 
113.389496 160.0 
113.658966 168.0 
113.701912 220.0 
113.885971 192.0 
114.065613 192.0 
114.092552 980.0 
114.248116 196.0 
114.315414 160.0 
114.626801 176.0 
114.836044 148.0 
114.894966 164.0 
114.922699 164.0 
114.969643 164.0 
115.016594 152.0 
115.07605 2932.0 
115.411819 152.0 
115.529449 188.0 
115.563683 212.0 
115.602196 148.0 
115.782021 304.0 
115.80986 156.0 
115.882698 176.0 
116.021584 332.0 
116.071571 9400.0 
116.10788 14776.0 
116.3395 192.0 
116.473038 236.0 
116.562874 172.0 
116.694992 196.0 
116.840233 184.0 
116.872505 180.0 
116.909081 96.0 
116.990875 196.0 
117.042549 148.0 
117.073097 352.0 
117.110336 1356.0 
117.204697 200.0 
117.277367 200.0 
117.428291 164.0 
117.678604 160.0 
117.810349 208.0 
117.847076 160.0 
117.933517 152.0 
118.073212 156.0 
118.119469 172.0 
118.197807 116.0 
118.24929 160.0 
118.281754 160.0 
118.303406 140.0 
118.476646 180.0 
118.827858 160.0 
119.173073 208.0 
119.714287 168.0 
119.762611 168.0 
119.921661 212.0 
119.93692 224.0 
120.262405 124.0 
120.338318 152.0 
121.117607 148.0 
121.283363 180.0 
121.539948 200.0 
121.719727 204.0 
122.005562 168.0 
122.370773 140.0 
122.49189 140.0 
122.659363 184.0 
122.679199 152.0 
122.859467 172.0 
123.081543 2296.0 
123.328171 188.0 
123.655502 184.0 
123.741837 196.0 
123.759552 152.0 
124.086723 196.0 
124.267105 148.0 
124.471306 212.0 
124.982552 156.0 
125.029282 184.0 
125.091774 152.0 
125.109406 184.0 
125.259407 136.0 
125.278656 176.0 
125.485916 168.0 
125.566193 156.0 
125.630875 160.0 
125.780632 148.0 
126.107071 248.0 
126.190529 176.0 
126.314438 192.0 
126.399452 216.0 
126.428543 148.0 
126.473305 152.0 
126.930328 192.0 
127.075859 5388.0 
127.096786 344.0 
127.263504 156.0 
127.469055 196.0 
127.58593 156.0 
127.60392 164.0 
127.619659 152.0 
127.718605 188.0 
127.862602 156.0 
128.079956 664.0 
128.108246 124.0 
128.637955 160.0 
128.89769 196.0 
129.130539 164.0 
129.159943 180.0 
129.200653 156.0 
129.580994 164.0 
129.766846 172.0 
129.903885 160.0 
130.334274 180.0 
130.429108 132.0 
130.654861 184.0 
130.841476 144.0 
130.865204 180.0 
130.962158 140.0 
131.105698 184.0 
131.126205 196.0 
131.235825 220.0 
131.62294 224.0 
132.053146 164.0 
132.110321 180.0 
132.26593 220.0 
132.650757 164.0 
132.747055 160.0 
132.786041 144.0 
133.353134 140.0 
133.601471 228.0 
133.898392 148.0 
133.985931 164.0 
134.071182 148.0 
134.366318 200.0 
134.634079 184.0 
134.948502 180.0 
135.383362 200.0 
135.452835 148.0 
135.55246 232.0 
135.648468 132.0 
135.683731 284.0 
135.839951 164.0 
135.856186 152.0 
136.032547 208.0 
136.220642 152.0 
136.399567 184.0 
136.42746 192.0 
136.799667 200.0 
137.058182 156.0 
137.097778 164.0 
137.368256 156.0 
137.503586 176.0 
137.557281 176.0 
137.851562 152.0 
138.099365 172.0 
138.265472 172.0 
138.338043 196.0 
138.647354 192.0 
138.75972 176.0 
139.003662 156.0 
139.456909 164.0 
139.708511 164.0 
139.821457 148.0 
139.901489 168.0 
140.052185 164.0 
140.109909 828.0 
140.424591 184.0 
140.762054 176.0 
141.000656 168.0 
141.090469 152.0 
141.11116 144.0 
141.784012 188.0 
141.800598 176.0 
141.833771 208.0 
141.895416 196.0 
142.122787 244.0 
143.002365 156.0 
143.12384 140.0 
143.254761 176.0 
143.564621 244.0 
143.874802 180.0 
144.027634 140.0 
144.139908 292.0 
144.682846 168.0 
144.761856 200.0 
144.79538 140.0 
144.831314 180.0 
144.903168 168.0 
144.9487 144.0 
145.471542 268.0 
146.280548 132.0 
146.609207 172.0 
146.927475 164.0 
147.043304 172.0 
147.106064 184.0 
147.275085 164.0 
147.463547 176.0 
147.562653 156.0 
148.18631 188.0 
148.747284 152.0 
148.817688 164.0 
149.137024 148.0 
149.415863 192.0 
149.435028 172.0 
149.483688 148.0 
149.573746 208.0 
149.814819 140.0 
149.965897 196.0 
150.046341 164.0 
150.378082 176.0 
150.712646 156.0 
151.073196 160.0 
151.113617 172.0 
151.30452 180.0 
151.826431 172.0 
151.956436 148.0 
152.180237 160.0 
152.658936 236.0 
153.092041 156.0 
153.130219 144.0 
153.510971 172.0 
153.634293 144.0 
153.678696 236.0 
153.947281 148.0 
153.954742 120.0 
154.066315 208.0 
154.098419 172.0 
154.823181 192.0 
154.942078 188.0 
154.965729 220.0 
155.601776 168.0 
155.719604 200.0 
155.898636 112.0 
155.959427 164.0 
155.974518 168.0 
156.039032 188.0 
156.10611 188.0 
156.409698 212.0 
156.449524 160.0 
157.099945 180.0 
157.167313 176.0 
157.279602 340.0 
157.332031 148.0 
157.451736 136.0 
157.469818 176.0 
157.537262 156.0 
157.566788 140.0 
157.624664 96.0 
157.67749 172.0 
157.711365 140.0 
157.744659 136.0 
157.785385 148.0 
157.80986 156.0 
157.84137 320.0 
157.895813 280.0 
157.941696 164.0 
157.959381 372.0 
157.999252 344.0 
158.049484 296.0 
158.081894 204.0 
158.118805 231944.0 
158.250473 140.0 
158.325699 204.0 
158.357529 128.0 
158.379227 116.0 
158.411102 160.0 
158.452301 148.0 
158.49707 152.0 
158.52861 308.0 
158.6241 364.0 
158.81044 124.0 
158.875885 168.0 
158.894226 128.0 
158.964981 220.0 
159.071915 168.0 
159.121613 17336.0 
159.219437 136.0 
159.402924 112.0 
159.600174 124.0 
159.753494 220.0 
159.987717 184.0 
160.122498 1684.0 
160.171112 140.0 
160.212662 252.0 
160.284683 268.0 
160.392456 152.0 
160.43782 184.0 
160.796982 124.0 
161.106049 164.0 
161.134903 208.0 
162.212433 192.0 
163.111023 184.0 
165.086945 180.0 
167.149368 184.0 
167.719879 152.0 
168.160751 116.0 
169.087418 224.0 
170.082687 224.0 
171.096558 348.0 
174.108719 152.0 
174.266327 192.0 
174.416122 184.0 
175.107895 144.0 
175.561401 184.0 
176.126999 1456.0 
177.128738 576.0 
178.135956 172.0 
178.309402 148.0 
178.843994 144.0 
179.10228 164.0 
179.128906 188.0 
181.121613 172.0 
181.640579 112.0 
181.99855 188.0 
182.928772 144.0 
183.1035 352.0 
183.462143 140.0 
184.342041 180.0 
186.075546 300.0 
186.273788 144.0 
187.152649 148.0 
187.465469 144.0 
188.846878 164.0 
188.912537 148.0 
189.125961 152.0 
189.391556 208.0 
189.677231 140.0 
191.101822 156.0 
191.13855 112.0 
192.148773 144.0 
193.024338 140.0 
193.121964 864.0 
195.136368 444.0 
195.164948 144.0 
196.016693 216.0 
199.092194 188.0 
199.150024 160.0 
201.298843 176.0 
201.943176 156.0 
203.110138 164.0 
204.129715 176.0 
205.153061 112.0 
206.187958 176.0 
208.006729 144.0 
211.132858 168.0 
211.344025 172.0 
212.204239 152.0 
212.569717 176.0 
212.767075 148.0 
213.072021 140.0 
213.127228 160.0 
217.951355 168.0 
218.104187 164.0 
218.433502 160.0 
219.134155 148.0 
221.115524 252.0 
223.136398 136.0 
223.17543 132.0 
223.772293 156.0 
224.117783 196.0 
225.051361 144.0 
225.152893 160.0 
227.440323 180.0 
229.615646 172.0 
230.019943 164.0 
230.083344 144.0 
230.479004 184.0 
232.334946 208.0 
233.153793 2964.0 
233.781235 144.0 
233.823837 140.0 
234.160233 184.0 
235.158752 252.0 
236.69339 184.0 
238.611023 140.0 
239.138657 252.0 
239.743759 172.0 
240.12912 172.0 
240.851364 144.0 
241.157242 168.0 
241.438583 164.0 
241.497345 148.0 
241.667496 160.0 
242.527985 148.0 
242.571793 164.0 
243.176392 156.0 
244.687363 156.0 
245.194733 288.0 
246.195114 156.0 
247.162537 140.0 
247.198502 172.0 
247.578781 156.0 
247.613235 164.0 
248.393677 296.0 
248.798492 176.0 
249.052841 140.0 
250.064072 160.0 
250.153397 156.0 
250.597443 156.0 
251.166168 148.0 
251.644562 220.0 
251.875824 120.0 
253.358704 144.0 
254.633835 176.0 
255.396637 148.0 
257.1203 212.0 
257.461884 252.0 
262.351868 144.0 
262.609802 184.0 
263.200775 292.0 
263.303711 228.0 
266.046631 148.0 
267.414734 156.0 
268.134491 144.0 
269.191467 172.0 
270.173248 168.0 
271.170471 260.0 
271.403473 184.0 
271.498566 144.0 
271.521515 140.0 
272.185944 276.0 
273.147339 156.0 
273.18454 164.0 
273.213135 196.0 
273.391357 144.0 
273.477783 160.0 
274.193939 340.0 
274.458069 156.0 
276.165405 156.0 
276.49295 152.0 
276.774323 156.0 
276.979675 168.0 
277.20163 208.0 
277.436951 148.0 
277.9245 180.0 
279.180115 180.0 
279.456207 148.0 
280.445251 144.0 
281.673157 156.0 
281.873596 180.0 
282.174255 164.0 
282.602051 144.0 
283.365906 144.0 
284.184906 468.0 
284.358459 152.0 
285.191406 196.0 
285.467102 144.0 
285.692444 176.0 
286.201233 276.0 
286.281464 144.0 
287.198151 304.0 
288.373138 196.0 
288.456085 148.0 
289.178375 1044.0 
289.9198 196.0 
290.182587 384.0 
290.418152 148.0 
290.543671 164.0 
291.074738 172.0 
291.183929 220.0 
291.521545 168.0 
292.667877 156.0 
294.215729 188.0 
294.728027 172.0 
296.750305 148.0 
298.999329 148.0 
299.166046 172.0 
300.589478 140.0 
301.045135 164.0 
302.251526 172.0 
302.351898 156.0 
302.83313 148.0 
302.995941 184.0 
303.259277 144.0 
303.417023 120.0 
304.067383 176.0 
304.095154 144.0 
306.781921 152.0 
307.18924 736.0 
307.830261 140.0 
307.900787 152.0 
308.124054 172.0 
308.149994 160.0 
308.197784 156.0 
308.5784 144.0 
309.196045 216.0 
310.409637 140.0 
310.735809 192.0 
312.144287 140.0 
312.548523 148.0 
312.844452 180.0 
312.953583 156.0 
315.062622 152.0 
315.444275 140.0 
315.801422 188.0 
316.212372 9784.0 
316.282623 120.0 
317.214508 2088.0 
317.749695 144.0 
317.790924 168.0 
318.214966 232.0 
318.498749 184.0 
318.999756 204.0 
319.367371 192.0 
319.536743 164.0 
320.918671 156.0 
321.157593 156.0 
321.400177 220.0 
321.460846 156.0 
321.596436 148.0 
322.046326 216.0 
322.162262 168.0 
322.678833 172.0 
323.446411 148.0 
324.723511 144.0 
325.203156 1012.0 
325.318817 136.0 
325.505829 152.0 
326.20816 300.0 
328.058716 156.0 
328.212982 272.0 
328.316315 188.0 
328.377625 164.0 
328.594055 188.0 
328.631134 216.0 
329.030762 152.0 
329.211304 336.0 
329.589355 176.0 
329.800171 144.0 
330.414917 148.0 
330.50177 168.0 
331.283783 148.0 
332.600067 140.0 
332.781586 176.0 
333.843445 140.0 
334.226868 548.0 
334.457458 144.0 
334.723236 164.0 
335.161224 144.0 
336.05661 108.0 
336.188629 144.0 
336.349213 236.0 
336.414917 172.0 
337.18927 200.0 
337.320862 208.0 
338.154816 172.0 
339.697418 152.0 
339.924866 144.0 
340.148529 216.0 
341.297668 120.0 
341.556091 140.0 
342.225677 860.0 
342.5336 144.0 
343.110107 140.0 
343.224396 116.0 
343.826111 104.0 
344.126404 136.0 
344.252228 188.0 
344.40271 152.0 
345.248871 152.0 
345.909515 136.0 
346.2435 236.0 
346.773315 140.0 
346.966064 172.0 
347.221283 552.0 
347.381409 140.0 
347.589172 148.0 
348.215454 164.0 
348.995239 148.0 
349.241241 132.0 
350.152618 128.0 
350.757812 160.0 
352.913849 116.0 
353.491669 140.0 
354.18631 108.0 
355.033234 164.0 
355.898132 148.0 
356.082153 204.0 
356.747223 156.0 
357.510742 208.0 
357.992584 148.0 
358.607849 140.0 
358.874329 148.0 
359.362488 160.0 
360.242371 136.0 
360.822479 176.0 
360.852722 140.0 
361.111542 164.0 
361.340607 236.0 
362.878296 148.0 
363.162689 184.0 
363.701752 124.0 
365.230896 1168.0 
365.552338 144.0 
366.235168 428.0 
367.238953 156.0 
367.892517 176.0 
368.270538 192.0 
368.392792 152.0 
368.465363 288.0 
368.883423 152.0 
368.992462 152.0 
369.915802 100.0 
370.033417 140.0 
370.523102 112.0 
370.561951 176.0 
370.588776 180.0 
370.759796 208.0 
371.129211 148.0 
371.356934 188.0 
371.635498 160.0 
372.297058 164.0 
372.752838 156.0 
373.052643 152.0 
373.394836 144.0 
373.55484 148.0 
373.677643 140.0 
374.626556 160.0 
375.088959 156.0 
375.285583 164.0 
375.783966 148.0 
376.879639 212.0 
377.734039 152.0 
378.566162 176.0 
378.820343 140.0 
380.295258 144.0 
380.361237 144.0 
380.402527 132.0 
380.628693 148.0 
381.110748 160.0 
381.262299 184.0 
382.063293 140.0 
382.932434 108.0 
383.240387 1320.0 
383.882233 144.0 
384.242096 604.0 
384.375336 152.0 
385.068604 144.0 
385.193604 168.0 
385.744568 140.0 
386.273865 144.0 
386.706787 204.0 
386.875092 252.0 
386.978088 136.0 
387.10611 212.0 
387.717224 144.0 
387.909271 144.0 
388.446503 160.0 
389.443481 208.0 
389.907104 160.0 
390.500763 140.0 
391.197205 148.0 
391.910065 168.0 
392.195526 100.0 
393.06546 164.0 
393.258728 144.0 
394.124756 148.0 
395.010895 144.0 
395.578979 148.0 
395.662109 156.0 
396.263397 136.0 
397.025146 256.0 
397.306763 152.0 
397.672852 188.0 
398.037048 144.0 
398.128387 168.0 
398.173126 136.0 
398.418335 164.0 
398.513702 188.0 
399.284882 308.0 
399.332581 140.0 
399.372375 116.0 
399.694611 156.0 
400.403198 140.0 
400.717865 140.0 
401.249237 368.0 
401.375641 132.0 
402.033722 180.0 
402.248047 192.0 
402.313202 256.0 
402.424896 144.0 
402.834259 136.0 
403.679565 152.0 
403.883545 188.0 
405.046692 116.0 
405.773682 164.0 
406.162659 144.0 
406.315094 144.0 
406.443481 152.0 
406.973328 188.0 
407.431152 192.0 
407.652435 164.0 
407.74939 124.0 
408.106415 136.0 
408.269928 1068.0 
408.519501 128.0 
408.655457 100.0 
408.976807 140.0 
409.27594 408.0 
409.458435 184.0 
410.038086 160.0 
410.279175 160.0 
410.365112 168.0 
410.676758 184.0 
410.998352 188.0 
411.490753 148.0 
411.963257 144.0 
412.333618 152.0 
412.884827 140.0 
413.083008 160.0 
413.339966 100.0 
413.414764 184.0 
413.961273 148.0 
414.021942 196.0 
414.141235 120.0 
414.381042 184.0 
414.783722 188.0 
415.663788 176.0 
415.754578 224.0 
415.927582 212.0 
417.052704 148.0 
417.162445 184.0 
417.231567 196.0 
417.758209 176.0 
418.02771 156.0 
418.329956 144.0 
418.362061 128.0 
418.556427 152.0 
418.806366 148.0 
418.853821 184.0 
419.531677 244.0 
419.813019 168.0 
420.318848 140.0 
420.559601 152.0 
421.580627 348.0 
421.986847 96.0 
422.576324 188.0 
422.619263 184.0 
422.729736 172.0 
423.988922 96.0 
424.384552 168.0 
424.625092 220.0 
424.913635 192.0 
425.27066 152.0 
425.480011 152.0 
426.383667 348.0 
426.4823 116.0 
426.555237 136.0 
426.671417 148.0 
426.93866 192.0 
427.1073 144.0 
428.548157 140.0 
428.717102 224.0 
429.162262 192.0 
429.257111 160.0 
429.558197 156.0 
429.831177 168.0 
430.102875 124.0 
430.38858 132.0 
430.618958 168.0 
431.365143 116.0 
432.297424 160.0 
432.554047 144.0 
432.847992 148.0 
433.01059 164.0 
434.14502 156.0 
434.227966 204.0 
435.111816 204.0 
435.801239 148.0 
435.880188 168.0 
436.923798 156.0 
437.081909 148.0 
437.169281 156.0 
437.348236 140.0 
437.969391 180.0 
439.043915 156.0 
439.522919 136.0 
439.661346 172.0 
439.726562 180.0 
440.126801 128.0 
440.245819 144.0 
440.452728 140.0 
440.554871 140.0 
441.102295 140.0 
441.750458 204.0 
441.79068 164.0 
441.917816 204.0 
442.355377 136.0 
442.445129 156.0 
442.587494 148.0 
442.725677 172.0 
443.115234 180.0 
443.492371 148.0 
443.542664 280.0 
443.94516 192.0 
444.28833 192.0 
444.511475 144.0 
445.301178 140.0 
445.729187 172.0 
446.086426 200.0 
446.22937 172.0 
446.713013 232.0 
446.994873 144.0 
447.748413 328.0 
447.786316 148.0 
447.883209 140.0 
448.266571 172.0 
448.586884 164.0 
448.658569 192.0 
448.869385 144.0 
449.375519 144.0 
449.586517 188.0 
449.810211 168.0 
449.871582 192.0 
450.346436 168.0 
451.335327 140.0 
451.632111 112.0 
451.683899 180.0 
452.30835 144.0 
452.359161 164.0 
452.440002 124.0 
453.112946 280.0 
453.691467 148.0 
453.946289 164.0 
454.075195 160.0 
454.264648 160.0 
454.838898 140.0 
455.178741 160.0 
455.671234 156.0 
456.743835 168.0 
457.074341 144.0 
458.200073 128.0 
458.356018 184.0 
458.431885 204.0 
458.884552 152.0 
458.931458 184.0 
459.17453 144.0 
459.319519 180.0 
459.418793 148.0 
460.88205 144.0 
461.283783 148.0 
461.965942 212.0 
463.213654 144.0 
463.252197 164.0 
463.653351 156.0 
463.920715 160.0 
464.120392 172.0 
464.298187 792.0 
464.488831 144.0 
464.939514 168.0 
465.301941 892.0 
465.607605 112.0 
465.821747 236.0 
466.212708 152.0 
466.311554 144.0 
467.313507 216.0 
467.537262 164.0 
467.748169 176.0 
467.941895 196.0 
468.738708 148.0 
468.96283 160.0 
469.348328 160.0 
469.72171 168.0 
470.38623 200.0 
470.420746 140.0 
470.463257 152.0 
470.779114 160.0 
471.004333 108.0 
471.188141 184.0 
471.245605 180.0 
471.370911 152.0 
471.672699 180.0 
471.850677 172.0 
472.071198 168.0 
472.296112 172.0 
473.070648 156.0 
473.100952 180.0 
473.243835 148.0 
473.326111 156.0 
473.451691 156.0 
474.014832 192.0 
474.167786 136.0 
474.417358 156.0 
474.790802 176.0 
474.890564 252.0 
474.925262 156.0 
475.064056 216.0 
475.181915 120.0 
475.41983 152.0 
476.253418 160.0 
476.514069 152.0 
476.887787 140.0 
477.041229 196.0 
477.345642 176.0 
477.387726 204.0 
478.371704 168.0 
478.797729 172.0 
479.978668 160.0 
480.083344 168.0 
480.707153 176.0 
482.308441 1208.0 
482.469238 100.0 
482.91333 216.0 
483.022705 144.0 
483.30481 260.0 
483.801605 148.0 
484.283417 140.0 
484.642517 140.0 
484.778229 140.0 
485.372406 268.0 
486.372742 108.0 
487.094025 124.0 
487.257416 148.0 
487.441956 164.0 
487.604553 180.0 
487.960602 152.0 
488.226868 152.0 
488.479553 152.0 
488.734711 188.0 
488.935669 108.0 
489.47345 144.0 
489.694366 184.0 
489.910217 192.0 
491.960815 160.0 
492.075592 144.0 
493.020996 120.0 
493.300873 96.0 
493.8508 116.0 
494.064362 164.0 
494.375519 136.0 
494.790894 164.0 
495.015961 140.0 
495.069092 148.0 
495.148804 140.0 
495.190521 112.0 
495.383575 160.0 
495.512054 144.0 
495.557983 180.0 
495.887207 144.0 
495.950531 152.0 
496.150238 192.0 
496.393524 224.0 
496.575226 132.0 
497.066223 184.0 
497.374573 168.0 
498.550232 208.0 
499.629364 116.0 
499.801056 156.0 
500.014648 152.0 
500.214935 204.0 
500.248779 180.0 
500.319916 1424.0 
500.720001 332.0 
501.201752 148.0 
501.325775 248.0 
501.419861 192.0 
501.475494 160.0 
501.506683 168.0 
502.139801 164.0 
502.328827 272.0 
502.425262 280.0 
502.506317 96.0 
502.681854 196.0 
503.236115 136.0 
503.572937 180.0 
503.950653 96.0 
504.032593 148.0 
504.182648 100.0 
504.580353 244.0 
505.623322 200.0 
505.933411 192.0 
505.964752 144.0 
506.009521 228.0 
506.26712 152.0 
506.380249 152.0 
506.479279 200.0 
507.438721 168.0 
507.546326 184.0 
507.728241 120.0 
508.522827 124.0 
509.301025 168.0 
509.548096 156.0 
509.824158 128.0 
509.921082 188.0 
510.397461 144.0 
511.058899 140.0 
511.200592 232.0 
511.333282 160.0 
511.574249 112.0 
511.907104 112.0 
512.310364 312.0 
512.751953 184.0 
513.419189 192.0 
513.554443 144.0 
514.153015 160.0 
514.321533 160.0 
514.411804 168.0 
515.216492 148.0 
515.563538 172.0 
515.618591 180.0 
515.9198 204.0 
516.522034 152.0 
516.609009 140.0 
517.037842 152.0 
517.300354 152.0 
517.517639 156.0 
517.730469 140.0 
517.807495 176.0 
518.349426 164.0 
519.174377 296.0 
519.434631 180.0 
519.542786 220.0 
519.953979 124.0 
519.989258 140.0 
520.074463 140.0 
520.168579 152.0 
520.629211 164.0 
520.905396 144.0 
521.096191 240.0 
521.132507 168.0 
521.605164 168.0 
521.682434 140.0 
521.723328 204.0 
521.876099 196.0 
521.962463 160.0 
522.064392 144.0 
522.234985 276.0 
522.34314 22812.0 
522.447388 372.0 
522.634094 160.0 
522.863953 148.0 
522.923279 192.0 
522.987915 148.0 
523.038635 220.0 
523.10968 188.0 
523.172546 104.0 
523.268188 100.0 
523.346008 6024.0 
523.461426 168.0 
523.706116 132.0 
523.745667 96.0 
524.34314 1360.0 
524.680908 176.0 
525.041077 132.0 
525.106323 112.0 
525.165833 176.0 
525.244934 104.0 
525.339355 808.0 
525.642029 140.0 
525.818298 164.0 
525.915405 156.0 
525.997314 124.0 
526.290649 184.0 
526.370422 96.0 
526.731445 164.0 
527.106079 168.0 
527.1922 108.0 
527.484009 156.0 
527.587219 148.0 
528.194153 156.0 
528.573914 160.0 
528.622314 172.0 
529.026306 180.0 
529.379578 188.0 
530.304993 164.0 
530.859497 100.0 
531.208252 152.0 
531.334412 116.0 
531.382629 152.0 
531.442261 140.0 
532.959412 120.0 
533.044739 152.0 
533.872192 176.0 
533.936584 140.0 
534.033142 164.0 
534.309143 148.0 
534.396545 152.0 
534.860657 104.0 
535.571289 96.0 
536.050781 132.0 
536.409058 168.0 
536.552002 156.0 
536.639587 168.0 
537.4375 140.0 
537.500244 120.0 
537.774658 124.0 
537.880554 292.0 
537.993896 188.0 
538.182434 124.0 
538.300232 132.0 
538.578674 164.0 
539.359314 192.0 
539.547852 112.0 
539.668396 188.0 
539.985901 236.0 
540.019836 272.0 
540.105652 224.0 
540.217407 312.0 
540.354248 17336.0 
540.440186 164.0 
540.527588 140.0 
540.713989 128.0 
540.879517 180.0 
540.92627 116.0 
541.018921 132.0 
541.118713 180.0 
541.19043 200.0 
541.355103 5040.0 
541.529907 156.0 
541.579468 100.0 
541.778809 204.0 
541.866821 156.0 
542.162109 108.0 
542.192993 104.0 
542.3573 1072.0 
542.823364 108.0 
543.356445 228.0 
543.700439 176.0 
543.738892 272.0 
544.096558 132.0 
544.214722 160.0 
544.330811 136.0 
544.504883 184.0 
544.632935 348.0 
544.860107 152.0 
544.978027 164.0 
545.153015 140.0 
545.305359 240.0 
545.365906 116.0 
545.815674 96.0 
545.991638 96.0 
546.042847 128.0 
546.359802 176.0 
546.425293 132.0 
546.798279 172.0 
547.28241 164.0 
547.732727 172.0 
547.822632 156.0 
548.572876 204.0 
548.950562 180.0 
549.104431 140.0 
549.260742 140.0 
549.930237 172.0 
549.986267 188.0 
550.133179 144.0 
550.411072 184.0 
550.612915 200.0 
551.074341 144.0 
551.761353 152.0 
551.84082 156.0 
552.046448 164.0 
552.257019 164.0 
552.402039 188.0 
552.541077 104.0 
552.604797 176.0 
553.18335 104.0 
553.311768 140.0 
553.360413 164.0 
553.846863 108.0 
554.00946 148.0 
554.148254 156.0 
554.574707 152.0 
554.760681 136.0 
554.90741 192.0 
555.113831 164.0 
555.207581 236.0 
555.361877 148.0 
555.493713 152.0 
555.866943 176.0 
556.070496 124.0 
556.386963 184.0 
556.453979 100.0 
556.522461 96.0 
556.768799 208.0 
556.876526 120.0 
556.992737 248.0 
557.258301 128.0 
557.327881 204.0 
557.399658 160.0 
557.466736 204.0 
557.764343 160.0 
557.841614 140.0 
557.902649 112.0 
557.967529 128.0 
558.0224 128.0 
558.082458 128.0 
558.195435 264.0 
558.236633 240.0 
558.279358 104.0 
558.364807 68680.0 
558.548767 112.0 
558.643127 100.0 
558.72168 240.0 
558.756653 180.0 
558.833252 128.0 
558.900574 104.0 
559.001831 172.0 
559.09552 164.0 
559.150085 328.0 
559.367615 17620.0 
559.575745 252.0 
559.656921 420.0 
559.711975 244.0 
559.809143 132.0 
559.965759 152.0 
560.23822 100.0 
560.369629 4088.0 
560.774963 168.0 
560.839294 96.0 
560.915466 148.0 
561.005066 216.0 
561.061035 132.0 
561.154114 148.0 
561.368286 476.0 
561.518982 148.0 
561.793701 156.0 
561.929688 132.0 
562.033203 176.0 
562.101746 120.0 
562.235107 260.0 
562.374207 256.0 
562.608643 152.0 
562.682922 104.0 
562.755188 124.0 
562.842224 188.0 
562.882812 152.0 
563.309204 144.0 
563.364563 188.0 
563.574036 168.0 
563.627747 124.0 
563.779053 100.0 
563.911133 172.0 
563.961975 204.0 
564.027222 192.0 
564.221558 140.0 
564.650269 212.0 
565.474304 200.0 
565.64386 148.0 
565.996216 160.0 
566.12207 184.0 
566.164673 144.0 
566.211853 120.0 
566.718872 292.0 
566.76355 180.0 
567.349243 144.0 
567.444031 140.0 
567.723328 152.0 
567.927734 160.0 
567.987549 124.0 
568.06189 144.0 
568.133972 100.0 
568.35144 276.0 
568.38446 132.0 
568.59491 200.0 
568.667786 136.0 
568.927246 140.0 
569.190125 156.0 
569.437073 268.0 
569.562134 144.0 
569.770264 108.0 
569.812317 168.0 
569.913208 156.0 
570.018982 128.0 
570.21167 148.0 
570.525757 220.0 
570.780396 184.0 
570.879944 232.0 
570.958069 100.0 
571.088806 128.0 
571.474243 180.0 
571.797363 104.0 
571.855286 164.0 
572.08429 108.0 
572.144531 236.0 
572.35498 140.0 
572.39386 160.0 
572.474304 108.0 
572.720337 160.0 
572.788635 184.0 
573.027283 172.0 
573.080261 100.0 
573.120789 152.0 
573.137329 228.0 
573.210083 144.0 
573.290588 144.0 
573.602966 140.0 
573.779846 172.0 
573.825562 252.0 
573.991882 160.0 
574.152527 152.0 
574.357117 540.0 
574.438416 124.0 
574.485474 124.0 
574.530884 148.0 
574.574524 140.0 
574.626831 168.0 
574.6745 120.0 
574.724243 132.0 
574.758118 200.0 
574.833069 132.0 
574.927979 360.0 
574.987122 164.0 
575.043762 208.0 
575.098389 252.0 
575.15033 232.0 
575.22229 184.0 
575.299255 164.0 
575.362427 512.0 
575.471863 328.0 
575.52594 132.0 
575.598328 444.0 
575.639038 488.0 
575.660461 372.0 
575.696838 244.0 
575.756836 200.0 
575.817261 240.0 
575.86615 176.0 
575.944519 320.0 
575.999939 208.0 
576.08905 612.0 
576.224792 380.0 
576.27887 744.0 
576.376953 194436.0 
576.499451 228.0 
576.67218 176.0 
576.732544 216.0 
576.830872 192.0 
576.882935 288.0 
576.961792 300.0 
577.028198 116.0 
577.099854 416.0 
577.166931 1812.0 
577.223511 312.0 
577.274597 572.0 
577.379456 95416.0 
577.547729 452.0 
577.593079 228.0 
577.642273 196.0 
577.684204 184.0 
577.838074 280.0 
577.887207 136.0 
577.956604 132.0 
578.011108 208.0 
578.178345 168.0 
578.222168 100.0 
578.255798 392.0 
578.381653 14412.0 
578.582703 136.0 
578.620422 120.0 
578.636353 100.0 
578.735535 292.0 
579.076904 164.0 
579.14801 128.0 
579.186768 144.0 
579.253662 248.0 
579.385437 3152.0 
579.692017 124.0 
579.915039 176.0 
579.983948 340.0 
580.036987 284.0 
580.106995 108.0 
580.161926 136.0 
580.217224 216.0 
580.268494 140.0 
580.309265 188.0 
580.390625 376.0 
580.516663 128.0 
580.564392 184.0 
580.603577 236.0 
580.645874 160.0 
580.677734 344.0 
580.731262 284.0 
580.814697 96.0 
580.917175 212.0 
581.003418 228.0 
581.097107 100.0 
581.273376 136.0 
581.343201 220.0 
581.404907 96.0 
581.448547 184.0 
581.553284 172.0 
581.588806 180.0 
581.66156 164.0 
581.750427 120.0 
581.824646 288.0 
582.051697 96.0 
582.135742 204.0 
582.356628 192.0 
582.646606 196.0 
582.813904 140.0 
583.376892 112.0 
583.489258 108.0 
583.680054 220.0 
583.877319 100.0 
584.078308 164.0 
585.849976 108.0 
586.112183 120.0 
587.200867 144.0 
588.257935 132.0 
588.486877 188.0 
588.659363 144.0 
589.842529 156.0 
590.622864 168.0 
590.816345 196.0 
591.4422 144.0 
592.024231 96.0 
592.089355 140.0 
592.532715 212.0 
594.075684 96.0 
594.396851 156.0 
595.918335 128.0 
596.487061 124.0 
597.689026 152.0 
597.918518 168.0 
599.069153 140.0 
599.461853 100.0 
599.697754 172.0 
603.407654 140.0 
603.86731 164.0 
604.238342 104.0 
604.77594 152.0 
604.885071 148.0 
605.229919 100.0 
605.462097 140.0 
605.761597 140.0 
606.736755 172.0 
607.403687 148.0 
608.360596 156.0 
608.974365 152.0 
610.741821 140.0 
611.029114 172.0 
612.806458 140.0 
614.357117 144.0 
615.711853 144.0 
616.428162 180.0 
616.947144 160.0 
617.498901 132.0 
617.604797 144.0 
617.879272 108.0 
619.728516 140.0 
620.991089 156.0 
621.156311 176.0 
621.320007 160.0 
621.369629 216.0 
623.440186 144.0 
624.399658 148.0 
625.593872 144.0 
625.797974 140.0 
626.902222 128.0 
627.637146 164.0 
629.288025 184.0 
629.412903 152.0 
629.662537 164.0 
630.012512 128.0 
630.512085 96.0 
631.444458 128.0 
631.571838 184.0 
631.61554 140.0 
631.695862 284.0 
632.671875 124.0 
632.837891 160.0 
633.579163 192.0 
634.431091 140.0 
634.688599 120.0 
634.934998 112.0 
636.103088 116.0 
636.33667 100.0 
639.187378 164.0 
639.897095 164.0 
640.404053 408.0 
641.402039 104.0 
641.821777 180.0 
642.93512 188.0 
643.602905 228.0 
644.572754 192.0 
644.756287 144.0 
645.169128 144.0 
645.209595 148.0 
645.902344 144.0 
646.00354 144.0 
646.347595 156.0 
646.420349 136.0 
647.116943 172.0 
647.489624 164.0 
647.582825 152.0 
648.104553 140.0 
648.199524 108.0 
648.251526 140.0 
649.054199 104.0 
649.686401 148.0 
649.838623 212.0 
650.259766 168.0 
650.394775 120.0 
650.483093 180.0 
651.041626 172.0 
651.249817 140.0 
651.897644 132.0 
652.869568 148.0 
652.937195 152.0 
653.33313 148.0 
654.127808 196.0 
654.707886 112.0 
655.023071 132.0 
656.359253 156.0 
658.134949 148.0 
658.42157 384.0 
658.622803 148.0 
659.253601 172.0 
659.402466 556.0 
660.517883 100.0 
660.608521 176.0 
661.425781 96.0 
662.993164 152.0 
663.878418 120.0 
664.512268 204.0 
664.691833 176.0 
664.818237 128.0 
664.945068 104.0 
665.415588 232.0 
665.975281 140.0 
666.129395 180.0 
666.632935 168.0 
666.843628 152.0 
668.059326 112.0 
668.412109 164.0 
668.479004 156.0 
668.767212 172.0 
668.803223 220.0 
668.854675 172.0 
669.396484 172.0 
669.534302 152.0 
669.637329 200.0 
669.678528 144.0 
670.937134 160.0 
671.260803 168.0 
671.668091 144.0 
671.746826 136.0 
673.732971 156.0 
674.189819 140.0 
674.620972 124.0 
674.885498 168.0 
675.546814 156.0 
675.868225 140.0 
676.781677 128.0 
676.903442 176.0 
677.727051 164.0 
677.81543 148.0 
678.364502 168.0 
678.482788 108.0 
678.976318 152.0 
679.912659 132.0 
680.230164 160.0 
680.447449 132.0 
681.353638 160.0 
681.43335 116.0 
682.445068 148.0 
683.743286 164.0 
683.894531 108.0 
684.130737 148.0 
684.42688 324.0 
684.505615 168.0 
684.953491 152.0 
684.989929 164.0 
685.250427 148.0 
685.431274 136.0 
685.995667 140.0 
686.050293 160.0 
686.485779 184.0 
686.794739 200.0 
687.732666 144.0 
688.468811 152.0 
689.320251 156.0 
690.50177 148.0 
690.920227 156.0 
692.014038 140.0 
693.381226 160.0 
693.765747 112.0 
695.01886 108.0 
695.164246 152.0 
695.468628 152.0 
696.416809 148.0 
696.711426 108.0 
697.441345 116.0 
697.496155 164.0 
697.731934 136.0 
697.912537 152.0 
698.027161 140.0 
698.445679 8120.0 
698.625549 160.0 
699.260193 112.0 
699.450562 4152.0 
699.552917 136.0 
699.711853 144.0 
700.23053 156.0 
700.352783 128.0 
700.451904 1152.0 
700.587463 112.0 
700.745239 128.0 
700.929382 100.0 
701.465942 212.0 
701.556702 104.0 
702.214905 136.0 
702.44043 1644.0 
702.571228 116.0 
702.677979 172.0 
703.085876 272.0 
703.15155 124.0 
703.447144 880.0 
703.514404 268.0 
704.018738 144.0 
704.198303 156.0 
704.453125 148.0 
704.718384 156.0 
704.905334 96.0 
705.131592 140.0 
705.632263 120.0 
706.45282 132.0 
706.754883 136.0 
706.801575 116.0 
707.10083 148.0 
707.201233 112.0 
707.397278 220.0 
707.604553 104.0 
707.766846 200.0 
708.075012 168.0 
708.228577 152.0 
708.546448 140.0 
708.80072 140.0 
709.558105 108.0 
710.035889 176.0 
710.370056 152.0 
711.180176 148.0 
711.925354 140.0 
712.54364 176.0 
712.949097 184.0 
713.434143 152.0 
713.924805 160.0 
714.05249 96.0 
714.654297 104.0 
714.740417 160.0 
714.974365 204.0 
715.053955 112.0 
715.104553 152.0 
715.180237 128.0 
715.475891 116.0 
715.683228 148.0 
716.023621 140.0 
716.059448 116.0 
716.176514 224.0 
716.339355 288.0 
716.457275 27572.0 
716.604858 120.0 
716.647034 396.0 
716.755249 124.0 
716.824097 104.0 
716.895081 104.0 
717.010132 144.0 
717.373596 200.0 
717.461182 13652.0 
717.589539 100.0 
717.912109 216.0 
718.069092 148.0 
718.144836 232.0 
718.291626 156.0 
718.461487 2060.0 
719.467468 1160.0 
719.895874 132.0 
719.976501 112.0 
720.491943 204.0 
720.824036 196.0 
721.177063 112.0 
721.259766 136.0 
721.543823 292.0 
721.885071 184.0 
722.04718 240.0 
722.175903 172.0 
722.219055 152.0 
722.40918 140.0 
722.488525 116.0 
722.890747 140.0 
723.094727 104.0 
723.416382 132.0 
723.600525 184.0 
723.693665 156.0 
725.123108 316.0 
725.328552 176.0 
725.373108 172.0 
725.775696 164.0 
725.976318 140.0 
726.279541 112.0 
726.324951 156.0 
726.384888 140.0 
726.478516 136.0 
726.58252 136.0 
726.750916 108.0 
726.829041 444.0 
727.325867 236.0 
727.395447 272.0 
727.513428 100.0 
727.818115 188.0 
728.000732 248.0 
728.266418 124.0 
728.332397 224.0 
728.537415 248.0 
728.682678 144.0 
728.914062 200.0 
728.976562 96.0 
729.187988 144.0 
729.260925 192.0 
729.501221 264.0 
729.544312 148.0 
729.664612 124.0 
729.764771 160.0 
729.885559 160.0 
730.130859 116.0 
730.244141 196.0 
730.362671 144.0 
730.492126 108.0 
730.651978 96.0 
730.728088 388.0 
730.826721 164.0 
730.889465 240.0 
730.950012 252.0 
731.003723 356.0 
731.064087 172.0 
731.112061 140.0 
731.185547 264.0 
731.260559 240.0 
731.348999 188.0 
731.402466 120.0 
731.460938 156.0 
731.547546 240.0 
731.595703 288.0 
731.659485 360.0 
731.749451 172.0 
731.846375 116.0 
731.970154 244.0 
732.029907 136.0 
732.120361 140.0 
732.177612 184.0 
732.253479 244.0 
732.298889 196.0 
732.353699 176.0 
732.450439 224.0 
732.504333 368.0 
732.554077 156.0 
732.67218 176.0 
732.745239 136.0 
732.832275 132.0 
732.919922 312.0 
732.958984 196.0 
733.082092 188.0 
733.133789 292.0 
733.194946 160.0 
733.317993 224.0 
733.397217 200.0 
733.467163 248.0 
733.548523 188.0 
733.650879 168.0 
733.706238 292.0 
733.720276 156.0 
733.765869 556.0 
733.819763 236.0 
733.895508 312.0 
733.938477 260.0 
734.009521 188.0 
734.052795 384.0 
734.09021 272.0 
734.125916 392.0 
734.176514 216.0 
734.22406 336.0 
734.239136 544.0 
734.285095 316.0 
734.379211 708.0 
734.471191 195648.0 
734.660828 144.0 
734.762451 228.0 
734.835693 324.0 
734.892273 400.0 
734.953918 392.0 
735.003784 556.0 
735.069153 680.0 
735.139587 172.0 
735.288269 420.0 
735.365601 2312.0 
735.473511 127020.0 
735.633301 204.0 
735.740601 152.0 
735.798645 240.0 
735.911621 156.0 
736.005859 212.0 
736.09082 228.0 
736.166809 256.0 
736.204468 140.0 
736.213928 440.0 
736.25769 252.0 
736.300171 364.0 
736.363403 288.0 
736.474548 26788.0 
736.64386 132.0 
736.748779 216.0 
736.813965 284.0 
736.860107 304.0 
737.025452 248.0 
737.085876 184.0 
737.158691 232.0 
737.215515 180.0 
737.275696 156.0 
737.320129 164.0 
737.478943 5556.0 
737.574158 276.0 
737.711182 144.0 
737.765564 128.0 
737.83728 136.0 
737.957642 116.0 
738.052612 220.0 
738.155396 168.0 
738.277588 196.0 
738.47168 924.0 
738.75354 144.0 
738.922485 388.0 
738.977234 332.0 
739.017334 256.0 
739.116333 256.0 
739.168335 116.0 
739.230103 284.0 
739.281494 328.0 
739.375854 412.0 
739.489746 268.0 
739.546448 260.0 
739.581787 260.0 
739.669983 260.0 
739.746704 184.0 
739.866699 132.0 
739.917542 116.0 
740.076965 236.0 
740.144043 140.0 
740.204285 180.0 
740.468872 212.0 
740.574158 128.0 
740.703979 148.0 
740.840454 180.0 
740.951782 132.0 
741.025146 132.0 
741.343567 176.0 
741.389038 248.0 
741.957703 204.0 
742.746521 164.0 
742.953491 104.0 
743.130371 116.0 
743.326538 120.0 
744.740906 204.0 
745.319336 152.0 
750.752136 152.0 
752.776794 148.0 
758.435242 168.0 
759.455261 160.0 
760.93335 160.0 
789.014282 104.0 
808.598633 144.0 
815.815674 144.0 
834.623657 140.0 
837.750793 160.0 
844.889893 188.0 
847.346619 112.0 
897.683044 104.0 
901.429871 140.0 
911.280518 184.0 
928.176636 124.0 
943.790283 96.0 
966.87793 100.0 
971.378418 172.0 
993.353394 100.0 
1005.687866 140.0 
1022.990417 124.0 
1023.741211 132.0 
1027.491821 184.0 
1067.914917 144.0 
1078.428467 124.0 
1113.403809 164.0 
1131.882446 228.0 
1133.791626 180.0 
1188.093628 152.0 
1190.663086 108.0 
1266.610107 160.0 
1268.098022 196.0 
1270.416748 204.0 
1284.330444 164.0 
1298.642578 180.0 
1309.711548 196.0 
1316.808716 140.0 
1327.911011 232.0 
1329.978882 188.0 
1332.760254 160.0 
1334.911865 156.0 
1335.850098 244.0 
1337.691162 188.0 
1352.25293 144.0 
1354.639893 176.0 
1364.076782 148.0 
1366.981812 144.0 
1386.447998 248.0 
1387.330078 152.0 
1392.464722 180.0 
1393.029297 208.0 
1406.708618 180.0 
1410.802368 176.0 
1421.640381 220.0 
1422.00061 204.0 
1424.823975 172.0 
1428.327026 160.0 
1430.275879 196.0 
1435.300903 152.0 
1437.767578 188.0 
1444.197021 160.0 
1445.044312 140.0 
1445.104858 152.0 
1447.784424 140.0 
1450.959229 152.0 
1460.869751 188.0 
1464.835693 148.0 
1465.346191 140.0 
1467.152344 152.0 
1467.411621 164.0 
1470.394165 236.0 
1472.104126 172.0 
1473.494263 236.0 
1479.842285 212.0 
1483.573364 180.0 
1484.511719 164.0 
1487.385742 244.0 
1487.539307 176.0 
1499.792725 140.0 
1499.969971 152.0 
1500.286011 148.0 
1500.933716 188.0 
1504.436401 260.0 
1504.505859 184.0 
1505.401489 196.0 
1510.401978 172.0 
1511.18335 196.0 
1517.293945 184.0 
1518.464844 144.0 
1526.868042 160.0 
1527.894897 164.0 
1530.299683 196.0 
1531.701538 236.0 
1533.064941 144.0 
1534.811035 156.0 
1540.531738 140.0 
1540.773926 216.0 
1541.672485 176.0 
1547.038086 148.0 
1551.291748 200.0 
1554.530884 176.0 
1556.496338 296.0 
1557.160889 156.0 
1557.396484 176.0 
1557.742065 160.0 
1564.174927 244.0 
1565.197876 140.0 
1571.779663 252.0 
1573.231812 140.0 
1573.287109 204.0 
1574.661011 160.0 
1577.141968 140.0 
1584.493408 148.0 
1585.999023 160.0 
1587.156494 140.0 
1588.806152 168.0 
1589.171143 148.0 
1589.345581 188.0 
1590.647217 184.0 
1591.274292 180.0 
1594.523193 180.0 
1596.407349 176.0 
1597.656128 180.0 
1598.45166 168.0 
1598.53125 208.0 
1598.809814 144.0 
1599.963989 188.0 
1600.099243 148.0 
1603.68396 168.0 
1605.581421 228.0 
1606.857666 272.0 
1607.889526 192.0 
1608.21521 128.0 
1610.505737 152.0 
1610.609619 164.0 
1612.062988 244.0 
1612.71106 252.0 
1614.728882 120.0 
1615.613647 196.0 
1616.09375 192.0 
1618.158691 164.0 
1619.672241 284.0 
1621.803589 176.0 
1623.703735 188.0 
1624.367188 220.0 
1628.784302 180.0 
1629.788452 176.0 
1630.865356 160.0 
1634.065918 208.0 
1635.747803 260.0 
1636.303223 160.0 
1636.464233 168.0 
1636.657471 180.0 
1639.549438 140.0 
1641.621216 172.0 
1641.742188 160.0 
1644.985596 152.0 
1645.286743 172.0 
1646.342041 176.0 
1646.487427 180.0 
1646.875122 172.0 
1648.280762 164.0 
1649.533447 196.0 
1649.961914 140.0 
1650.98877 156.0 
1651.490234 180.0 
1656.176636 156.0 
1657.715942 168.0 
1657.878052 148.0 
1661.851318 164.0 
1663.855957 192.0 
1665.147095 188.0 
1666.999268 208.0 
1667.21875 188.0 
1668.73877 192.0 
1670.186279 184.0 
1670.243164 168.0 
1671.951782 192.0 
1672.700562 156.0 
1675.167969 140.0 
1675.91748 156.0 
1678.900879 184.0 
1683.228394 156.0 
1683.862793 168.0 
1685.053345 188.0 
1685.651855 176.0 
1685.954224 180.0 
1687.883423 172.0 
1689.314697 144.0 
1689.903809 208.0 
1691.213135 164.0 
1691.483154 176.0 
1692.211792 212.0 
1692.5802 188.0 
1693.333618 164.0 
1695.144165 144.0 
1701.870483 136.0 
1702.681519 196.0 
1704.508301 204.0 
1705.443726 232.0 
1706.528931 208.0 
1712.569092 144.0 
1715.205811 168.0 
1716.458862 188.0 
1719.277344 200.0 
1719.782837 212.0 
1720.24585 184.0 
1724.970825 192.0 
1725.56604 224.0 
1727.120728 148.0 
1727.286133 188.0 
1728.403076 152.0 
1728.940918 208.0 
1729.793457 144.0 
1730.08313 156.0 
1730.223877 172.0 
1732.849243 156.0 
1733.926514 140.0 
1734.216553 156.0 
1734.498413 140.0 
1734.655884 172.0 
1735.717163 192.0 
1736.015625 160.0 
1736.164917 224.0 
1736.571289 228.0 
1743.212769 148.0 
1744.160278 188.0 
1744.492798 144.0 
1745.714966 164.0 
1746.031006 152.0 
1746.796143 168.0 
1747.844482 196.0 
1749.500732 216.0 
1751.09082 180.0 
1755.349609 148.0 
1755.474609 204.0 
1757.718506 164.0 
1759.684937 244.0 
1760.353149 308.0 
1762.996094 152.0 
1763.388916 156.0 
1764.057617 164.0 
1764.333496 144.0 
1766.173096 208.0 
1767.427979 140.0 
1768.564697 252.0 
1769.844116 148.0 
1770.751465 172.0 
1770.836304 172.0 
1771.228882 140.0 
1771.681152 208.0 
1772.979858 200.0 
1773.418579 152.0 
1773.574951 172.0 
1777.231323 164.0 
1783.168335 144.0 
1783.73999 244.0 
1783.992065 140.0 
1784.13501 176.0 
1784.883301 184.0 
1785.404663 168.0 
1786.119629 148.0 
1786.582275 244.0 
1786.952393 192.0 
1788.113647 224.0 
1790.454102 168.0 
1790.732056 172.0 
1792.03772 200.0 
1792.518066 172.0 
1797.206177 148.0 
1797.940308 240.0 
1798.480469 164.0 
1801.645264 200.0 
1804.926392 180.0 
1806.516357 144.0 
1806.930908 176.0 
1808.564209 160.0 
1809.673096 148.0 
1810.731567 208.0 
1810.901001 152.0 
1811.674194 224.0 
1815.938965 168.0 
1818.005493 176.0 
1818.506226 180.0 
1818.841675 240.0 
1819.524902 208.0 
1821.9198 152.0 
1823.151733 360.0 
1823.53418 204.0 
1825.736206 196.0 
1826.202881 128.0 
1829.122437 160.0 
1831.639526 200.0 
1832.171021 196.0 
1832.384033 224.0 
1834.062744 140.0 
1835.29895 152.0 
1835.52063 160.0 
1836.407471 156.0 
1836.80835 168.0 
1837.047241 180.0 
1837.704102 164.0 
1838.557495 212.0 
1838.736694 156.0 
1839.765015 192.0 
1840.520752 172.0 
1842.946533 144.0 
1843.091797 152.0 
1843.211426 152.0 
1844.570312 208.0 
1845.809937 236.0 
1846.981689 188.0 
1847.623169 156.0 
1847.925049 204.0 
1848.658569 180.0 
1849.30896 200.0 
1850.169922 152.0 
1850.721436 188.0 
1854.705078 180.0 
1854.765015 164.0 
1857.800659 188.0 
1858.152344 236.0 
1860.514038 152.0 
1860.942139 176.0 
1861.619995 144.0 
1862.203979 164.0 
1863.561279 148.0 
1864.257324 148.0 
1864.876099 208.0 
1865.787231 160.0 
1867.197388 172.0 
1867.421021 180.0 
1868.909302 232.0 
1870.931763 164.0 
1871.732544 168.0 
1872.697021 248.0 
1874.282104 248.0 
1874.838501 200.0 
1876.083496 172.0 
1877.040405 172.0 
1877.937378 184.0 
1878.247803 148.0 
1880.741455 164.0 
1882.148682 168.0 
1882.960449 180.0 
1883.288574 212.0 
1883.642822 156.0 
1884.290039 204.0 
1884.584473 208.0 
1886.866089 144.0 
1887.84314 140.0 
1887.993774 188.0 
1888.785889 148.0 
1888.94165 224.0 
1889.036743 168.0 
1891.338501 236.0 
1891.693359 140.0 
1892.351318 204.0 
1892.637085 140.0 
1892.957397 152.0 
1893.191284 144.0 
1895.313477 176.0 
1895.651489 156.0 
1898.251953 140.0 
1898.642212 212.0 
1902.241821 244.0 
1902.581543 200.0 
1904.179199 192.0 
1904.352905 188.0 
1905.002075 176.0 
1906.472778 196.0 
1907.695679 160.0 
1908.715454 172.0 
1909.854736 148.0 
1911.246704 220.0 
1911.716553 144.0 
1912.630371 208.0 
1912.839355 140.0 
1914.075562 148.0 
1915.45166 176.0 
1915.678101 184.0 
1917.778076 140.0 
1918.179077 224.0 
1921.300903 176.0 
1921.74585 184.0 
1922.891724 196.0 
1923.692017 156.0 
1925.13269 228.0 
1926.11084 152.0 
1927.106812 140.0 
1927.64856 140.0 
1929.842407 156.0 
1930.839355 196.0 
1931.451538 176.0 
1931.579102 96.0 
1932.405151 160.0 
1932.755127 208.0 
1933.63147 136.0 
1934.619263 148.0 
1935.766235 160.0 
1936.615723 176.0 
1936.74707 168.0 
1937.236084 184.0 
1942.681519 176.0 
1945.568604 196.0 
1947.860596 176.0 
1948.414062 220.0 
1948.923584 164.0 
1949.213623 180.0 
1950.567017 168.0 
1951.762695 192.0 
1954.084717 208.0 
1954.48291 168.0 
1954.718262 144.0 
1955.126587 156.0 
1956.636963 148.0 
1956.980347 184.0 
1957.869751 164.0 
1958.318848 228.0 
1959.208496 156.0 
1960.283447 196.0 
1960.71521 196.0 
1961.578979 148.0 
1962.249023 140.0 
1962.557617 220.0 
1963.580566 192.0 
1964.594849 152.0 
1966.908936 192.0 
1969.396851 152.0 
1970.436157 164.0 
1970.550781 172.0 
1970.854492 156.0 
1971.322754 148.0 
1972.065186 144.0 
1972.339111 156.0 
1972.931396 204.0 
1973.214355 140.0 
1973.285034 148.0 
1973.488403 156.0 
1973.674072 216.0 
1973.930542 196.0 
1974.22229 212.0 
1975.00061 184.0 
1982.596924 176.0 
1982.685547 188.0 
1986.72876 192.0 
1987.243408 164.0 
1988.272705 144.0 
1989.657349 152.0 
1991.229126 184.0 
1991.495483 164.0 
1992.081787 192.0 
1998.536255 208.0 
1999.328125 160.0 
1999.84436 224.0 
2002.844971 148.0 
2003.058716 176.0 
END IONS

