BEGIN IONS
TITLE=Scan Number: 1
PEPMASS=273.0
CHARGE=1+
COMPOUNDNAME=Naringenin
LIBRARYQUALITY=3
SMILES=O=C1C2=C(C=C(C=C2OC(C1)C3=CC=C(C=C3)O)O)O
INCHIKEY=FTVWIRXFELQLPI-UHFFFAOYSA-N
INCHI=InChI=1S/C15H12O5/c16-9-3-1-8(2-4-9)13-7-12(19)15-11(18)5-10(17)6-14(15)20-13/h1-6,13,16-18H,7H2
MSLEVEL=2
SOURCE_INSTRUMENT=DI-ESI-Ion Trap
FILENAME=f.rsilva/gnps_Naringenin_pos_amp0.5V_MSMS_273.mgf;
SEQ=*..*
NOTES=
IONMODE=Positive
ORGANISM=GNPS-LIBRARY
NAME=Naringenin M+H
SPECTRUMID=CCMSLIB00000077217
ACTIVATION=CID
INSTRUMENT=ion trap
SCANS=1
91.087997 19657.0 
111.008003 25606.0 
119.022003 134328.0 
119.022003 134328.0 
119.027 134328.0 
121.100998 39185.0 
121.100998 39185.0 
121.100998 39185.0 
123.012001 16859.0 
124.043999 24674.0 
147.011993 2304512.0 
147.011993 2304512.0 
147.011993 2304512.0 
147.011993 2304512.0 
147.014008 2304512.0 
150.970993 40497.0 
150.970993 40497.0 
150.983002 40497.0 
152.977005 3008765.0 
152.977005 3008765.0 
152.977005 3008765.0 
152.977005 3008765.0 
152.977005 3008765.0 
163.919006 16048.0 
170.992004 138927.0 
179.007996 186016.0 
179.007996 186016.0 
179.007996 186016.0 
179.011002 186016.0 
189.011002 57017.0 
207.016998 107204.0 
207.016998 107204.0 
207.016998 107204.0 
207.016998 107204.0 
207.029007 107204.0 
208.199005 12820.0 
212.218002 14190.0 
231.033997 189386.0 
231.033997 189386.0 
231.033997 189386.0 
231.033997 189386.0 
231.044006 189386.0 
244.919006 12180.0 
255.102997 16082.0 
255.987 15976.0 
256.290985 24341.0 
272.098999 22553.0 
273.027008 686470.0 
END IONS

