BEGIN IONS
PEPMASS=268.103
CHARGE=1+
COMPOUNDNAME=MLS001066352-01!Adenine 9-beta;-D-arabinofuranoside
LIBRARYQUALITY=1
SMILES=Nc1ncnc2n(cnc12)[C@@H]3O[C@H](CO)[C@@H](O)[C@@H]3O
INCHIKEY=OIRDTQYFTABQOQ-UHTZMRCNSA-N
INCHI=N/A
MSLEVEL=2
SOURCE_INSTRUMENT=LC-ESI-qTof
FILENAME=p3-D05_GD5_01_18262.mzXML
SEQ=*..*
IONMODE=Positive
ORGANISM=GNPS-NIH-SMALLMOLECULEPHARMACOLOGICALLYACTIVE
NAME=MLS001066352-01!Adenine 9-beta;-D-arabinofuranoside M+H
PI=Dorrestein
DATACOLLECTOR=VP/LMS
PUBMED=N/A
SUBMITUSER=vphelan
TAGS=
SPECTRUMID=CCMSLIB00000084979
SCANS=189
45.115276 56.0 
47.579891 116.0 
65.568306 196.0 
70.551018 68.0 
71.869492 172.0 
74.714989 36.0 
77.773628 180.0 
92.027328 152.0 
93.030556 180.0 
95.385445 256.0 
96.045563 172.0 
96.935135 240.0 
98.981873 200.0 
104.665146 200.0 
105.837212 144.0 
107.388809 132.0 
107.469269 176.0 
107.729408 136.0 
110.863022 160.0 
112.943214 208.0 
116.170532 144.0 
118.031418 100.0 
118.923988 148.0 
119.034271 428.0 
120.037895 136.0 
124.330063 148.0 
125.255005 36.0 
129.931137 72.0 
130.062759 172.0 
133.41861 180.0 
135.646347 172.0 
136.061569 3048.0 
136.115005 52.0 
136.319427 56.0 
137.060684 316.0 
137.497833 60.0 
138.067886 120.0 
144.986115 52.0 
148.785294 36.0 
198.928558 164.0 
202.076569 144.0 
202.917755 128.0 
213.723999 184.0 
214.915741 200.0 
216.942551 156.0 
230.906372 124.0 
263.842072 136.0 
270.298462 36.0 
290.875488 108.0 
341.218079 96.0 
537.221069 156.0 
888.435852 228.0 
1224.22937 208.0 
1360.326294 200.0 
1383.592896 156.0 
1417.648315 176.0 
1438.331665 144.0 
1503.849609 72.0 
END IONS

