BEGIN IONS
TITLE=Scan Number: 90
PEPMASS=582.0
CHARGE=1+
COMPOUNDNAME=Streptomycin
LIBRARYQUALITY=3
SMILES=C[C@H]1[C@@]([C@H]([C@@H](O1)O[C@@H]2[C@H]([C@@H]([C@H]([C@@H]([C@H]2O)O)N=C(N)N)O)N=C(N)N)O[C@H]3[C@H]([C@@H]([C@H]([C@@H](O3)CO)O)O)NC)(C=O)O
INCHIKEY=UCSJYZPVAKXKNQ-HZYVHMACSA-N
INCHI="InChI=1S/C21H39N7O12/c1-5-21(36,4-30)16(40-17-9(26-2)13(34)10(31)6(3-29)38-17)18(37-5)39-15-8(28-20(24)25)11(32)7(27-19(22)23)12(33)14(15)35/h4-18,26,29,31-36H,3H2,1-2H3,(H4,22,23,27)(H4,24,25,28)/t5-,6-,7+,8-,9-,10-,11+,12-,13-,14+,15+,16-,17-,18-,21+/m0/s1"
MSLEVEL=2
SOURCE_INSTRUMENT=DI-ESI-Ion Trap
FILENAME=Streptomycin_IT_582mz.mzXML
SEQ=*..*
NOTES=
IONMODE=Positive
ORGANISM=GNPS-LIBRARY
NAME=Streptomycin M+H
SPECTRUMID=CCMSLIB00000075309
ACTIVATION=CID
INSTRUMENT=ion trap
SCANS=90
164.031906 15.593108 
165.045975 4.597616 
166.031967 9.65926 
166.953629 310.459351 
167.928802 1312.773926 
169.004852 186.889908 
170.05687 51.807098 
171.090912 1.165647 
171.854706 26.813408 
173.966354 531.743652 
174.959366 311.209137 
175.956268 3685.456055 
176.77066 8.107333 
178.006256 19.254116 
178.990997 459.942535 
180.025894 27.107254 
181.207825 8.361243 
181.881973 61.763763 
183.034225 24.825867 
184.068268 62.267838 
184.98671 392.335449 
185.956863 3744.191162 
187.064957 105.363838 
187.99437 49.827629 
189.045242 41.624226 
189.886139 48.054516 
190.988449 134.633713 
191.982574 516.522339 
192.948746 264.378204 
193.545456 1.69888 
194.098984 48.687603 
195.314987 3.403328 
195.923309 84.105812 
197.03035 8.419189 
197.940826 76.865967 
199.012115 115.195686 
199.959183 219.719376 
202.037064 17.326038 
203.007629 5522.384766 
203.992325 8572.341797 
204.978897 23.141047 
206.014114 43.646648 
206.91832 11.35183 
208.081055 66.834183 
209.010681 203.93959 
210.071838 472.459137 
210.965012 781.204895 
211.988693 94.259636 
213.153519 18.942909 
213.985718 398.335785 
215.014771 24.178364 
216.034805 34.65871 
216.982681 1509.155029 
217.958374 931.883606 
220.111526 29.885033 
221.019547 12729.981445 
222.049469 31.2967 
223.0 1.551011 
224.005188 79.960175 
225.22905 13.353391 
226.131851 79.347672 
227.000778 168.974686 
227.979828 1528.974731 
228.984024 1851.749634 
230.007828 96.875572 
231.099579 276.533539 
232.012909 363.443909 
233.057907 23.530085 
234.019196 17.724913 
235.101974 55.555271 
236.050232 183.746094 
237.0 1.387952 
238.106354 36.521042 
239.139252 17.671797 
239.962677 140.01268 
241.046875 17.210699 
241.999405 93.037018 
243.046097 118.90181 
244.019379 780.248474 
245.06131 1427.627319 
246.015106 43910.429688 
247.008896 217.326599 
248.069855 58.287045 
249.025284 1179.295532 
250.113724 20.865969 
251.108063 17.000122 
252.07486 70.161514 
253.128387 16.135191 
253.983597 124.205093 
255.073883 5.341712 
256.005615 202.339142 
256.983704 178.773483 
257.980804 419.178955 
259.032532 25.631142 
260.08963 29.215988 
261.115509 65.756393 
262.101654 26.13822 
263.048828 83207.945312 
263.991638 140.710266 
265.10556 16.892616 
266.003052 301.084167 
266.968292 24.008804 
268.026703 85.411774 
268.990265 59.444939 
270.001587 273.709045 
270.970764 165.322739 
272.009033 73.072647 
272.998383 49.375069 
273.998779 3068.419434 
275.028778 39.718639 
275.992004 423.345276 
277.055664 18.483955 
278.019379 43.42326 
279.069824 23.898752 
280.103058 12.656796 
281.181824 1.340261 
282.101776 21.187273 
283.067017 41.516457 
284.012177 1259.279907 
285.004303 129.639359 
286.024933 377.226501 
287.043213 845.315125 
288.050293 1908.587524 
289.107178 6.065078 
290.182495 30.336824 
291.042053 13586.577148 
292.089874 21.675348 
293.223206 17.666893 
294.048645 320.152405 
294.975983 152.238724 
296.166412 32.594959 
297.098328 9.814714 
299.13092 65.605507 
300.024567 213.793289 
301.114594 476.567902 
302.039246 6959.835449 
303.057373 681.00238 
304.121735 201.480576 
305.08374 336.51358 
306.133453 17.657532 
307.382141 25.149544 
308.159729 32.942593 
309.128784 18.427689 
310.11084 78.536804 
311.083618 101.822685 
312.045898 1410.894287 
313.084747 283.311218 
314.040863 4.461452 
315.257996 9.519287 
316.094543 19.2918 
317.104187 54.005802 
318.125275 110.439575 
319.167847 123.136749 
320.022125 7971.152832 
321.051941 200.824631 
322.160004 18.339931 
323.084869 29.941725 
324.247986 8.225758 
325.033051 36.472004 
326.084595 48.069603 
327.058472 233.814636 
328.070679 231.960007 
329.068573 329.670044 
330.057861 5615.031738 
331.082947 44.778553 
332.041199 2.587227 
333.0784 10.522578 
335.169098 12.31465 
336.03183 78.849373 
337.035217 176.621506 
338.031433 876.433899 
338.909088 1.034443 
340.169434 57.054626 
341.196686 17.523598 
342.107666 36.926781 
343.117249 118.17836 
344.092255 78.274773 
345.072815 484.035217 
346.079102 370.15686 
347.09668 2231.065674 
348.081726 1098.176636 
348.909088 1.210693 
351.143494 16.395914 
352.363647 1.012187 
353.151062 43.323219 
354.089172 302.736389 
355.064117 260.598236 
356.077972 15.316788 
358.10141 6.794755 
358.950165 4.216579 
360.14975 8.00716 
361.102325 77.855698 
362.036163 100.428642 
363.096497 1035.195312 
364.272736 1.030406 
365.110046 6453.220703 
366.115601 53.405251 
367.336456 9.841141 
368.126007 22.446793 
369.275208 23.397163 
371.139709 245.490356 
372.053589 1144.539307 
373.079346 1685.843018 
374.407288 3.085836 
375.139923 3.949501 
377.1409 3.043133 
378.180817 22.534636 
379.0961 477.045441 
380.088928 107.747017 
382.160645 35.881802 
383.165375 21.006844 
384.153259 136.083176 
385.078644 61.950722 
386.222412 48.112129 
387.172943 18.350208 
388.133301 9.898862 
389.10144 435.144684 
390.091888 34091.777344 
391.108307 72.346077 
392.135223 10.071923 
393.197754 5.325674 
396.210785 19.614862 
398.0 1.368353 
400.095001 45.313942 
401.039764 13.522373 
402.139984 41.569386 
403.146637 38.044678 
404.195526 100.110153 
405.078674 189.168457 
406.034363 27.769556 
407.129364 52720.675781 
408.087982 92.197037 
409.136993 22.677029 
410.220276 39.402779 
411.959076 15.44083 
412.502838 3.170795 
413.144653 13.666876 
414.22168 76.777061 
415.355927 7.948185 
416.147095 12.808645 
417.951904 5.398978 
419.181519 12.407886 
420.095886 120.118385 
421.250427 138.783524 
422.245605 14.494303 
423.264832 20.815432 
424.139008 6.904798 
425.052063 10.717549 
425.594818 4.244186 
426.22052 23.397888 
427.029266 70.172569 
427.545471 1.047086 
428.119385 422.575867 
429.263092 41.046265 
431.119446 343.011353 
432.053833 2.734965 
433.175964 12.411212 
436.134735 7.299895 
437.191864 25.22084 
438.278656 111.307625 
439.290863 12.71103 
440.150665 4.028682 
442.213684 17.453686 
443.315826 18.822376 
444.189606 54.71048 
445.146606 1766.771484 
446.10498 3538.687744 
447.131927 425.584991 
447.727295 1.364649 
448.317688 3.060893 
450.426666 7.016868 
451.086914 48.948284 
452.174011 74.077179 
456.214569 32.118557 
457.174072 6.666304 
460.210236 120.273239 
461.296997 18.193699 
462.223663 135.051239 
463.108612 715.304138 
464.045654 9.375129 
466.164734 24.407791 
467.273682 21.632706 
468.128693 42.394188 
469.096893 371.18866 
470.105499 325.565094 
471.187103 21.351057 
473.301575 12.623415 
474.228729 65.387444 
475.136597 4.425797 
476.142517 21.763588 
478.291748 205.23465 
480.164459 623.153625 
481.394196 3.015443 
484.290314 21.858833 
485.226471 81.881653 
486.231873 138.717758 
487.155487 3483.327393 
488.105438 2926.650879 
489.077728 15.874039 
490.234467 32.726215 
491.211792 25.595217 
492.510437 11.098797 
493.22467 2.362362 
494.047913 10.550771 
497.280518 5.163633 
498.075623 44.702278 
498.961151 3.021864 
500.35733 5.154075 
501.428772 13.683875 
502.192322 415.527222 
503.213837 261.5047 
504.212891 1836.886597 
505.144226 16669.951172 
506.116089 790.57135 
507.3573 7.347293 
509.24054 24.179987 
510.272736 1.105712 
511.200104 58.475494 
512.363098 19.008024 
513.400635 2.812426 
514.909119 1.126188 
516.134155 57.929501 
516.901672 16.856909 
517.681213 2.596958 
518.278564 4.123662 
519.609741 15.8531 
520.191162 702.777771 
521.292236 25.743746 
522.188049 17577.728516 
523.181519 6903.267578 
524.474731 12.787222 
525.292114 103.955208 
526.239868 30.559448 
528.226135 89.426064 
529.194092 186.599518 
530.139465 685.17572 
531.313843 10.163849 
532.760132 40.897552 
534.213013 56.177429 
535.366882 4.882379 
536.316833 3.141119 
538.336487 48.937965 
539.598022 693.227905 
540.186768 102322.40625 
541.124817 161.55806 
543.478455 2.533684 
546.188965 170.524673 
547.194763 6144.003906 
548.172485 3465.185303 
549.247925 47.583679 
550.183411 19.052685 
551.283997 89.536095 
562.415405 2.784027 
562.930542 10.980428 
563.442749 87.166077 
564.240479 32612.677734 
565.182312 80257.25 
566.269287 194.929901 
614.225647 9.519065 
701.636353 1.028953 
715.090942 1.265393 
795.090942 1.03354 
869.433655 8.930138 
898.818176 1.152809 
934.511414 2.675984 
1069.276855 6.82464 
1141.636353 1.285394 
END IONS

