BEGIN IONS
PEPMASS=268.118
CHARGE=1+
COMPOUNDNAME=Citrinin
LIBRARYQUALITY=3
SMILES=N/A
INCHIKEY=CQIUKKVOEOPUDV-IYSWYEEDSA-N
INCHI=InChI=1S/C13H14O5/c1-5-7(3)18-4-8-9(5)6(2)11(14)10(12(8)15)13(16)17/h4-5,7,15H,1-3H3,(H,16,17)/t5-,7-/m1/s1
MSLEVEL=2
SOURCE_INSTRUMENT=N/A-ESI-QFT
FILENAME=library_mgf.mgf
SEQ=*..*
IONMODE=positive
ORGANISM=MONA
NAME=Citrinin [M+NH4]+
PI=MoNA
DATACOLLECTOR=MoNA:VF-NPL-QEHF027303
PUBMED=N/A
SUBMITUSER=mwang87
TAGS=
SPECTRUMID=CCMSLIB00004720884
SCANS=27303
50.937889 0.093017 
51.66106 0.085888 
51.940262 14.622484 
52.035278 0.099794 
52.455147 0.091292 
52.741646 0.087605 
52.792961 0.103674 
52.940395 1.053238 
53.002529 1.009937 
53.038864 1.602877 
53.527496 0.09036 
54.630913 0.094843 
54.855434 0.082277 
54.937794 0.111353 
55.018124 2.345439 
55.054485 27.621456 
55.210468 0.101761 
56.049732 2.744839 
56.057823 0.411026 
56.139202 0.087028 
56.965038 100.0 
57.03373 2.367456 
57.070118 22.925301 
57.071617 0.316192 
57.126236 0.090373 
57.395695 0.087019 
57.93504 1.410757 
58.065353 6.026354 
58.46426 0.089433 
58.932877 1.778953 
58.960964 0.171136 
58.997971 0.169538 
59.049335 2.681504 
59.870659 0.085305 
59.930408 0.797065 
59.966694 0.233854 
60.044502 0.099172 
60.244968 0.085585 
60.471371 0.090694 
60.710869 0.101312 
60.95784 2.742882 
61.010826 37.42617 
61.766045 0.081365 
61.927929 0.254919 
62.01865 48.784473 
62.293762 0.085115 
62.92923 0.578049 
63.006561 0.703319 
63.021965 0.185221 
63.026482 0.271732 
63.942425 0.095582 
63.997849 6.257585 
64.014389 0.966584 
64.440277 0.090134 
65.038673 0.826047 
65.066414 0.084333 
66.937714 0.086695 
67.01812 0.093555 
67.054306 14.357188 
67.46907 0.082971 
67.934921 3.643038 
68.049484 0.967174 
68.05761 0.224356 
68.396751 0.085904 
68.476593 0.098964 
68.821785 0.090531 
68.942719 3.077745 
68.997131 1.108842 
69.033485 1.956594 
69.069901 15.531277 
69.57901 0.099362 
69.961006 1.379931 
70.06514 5.482922 
70.073334 0.345309 
70.214294 0.0952 
70.773674 0.080845 
70.980476 2.299231 
71.012695 0.33722 
71.04911 4.29318 
71.085518 4.565522 
71.951866 1.141987 
72.08075 0.697103 
72.126701 0.096147 
72.512047 0.084022 
72.959618 0.134114 
73.028297 0.203042 
73.046783 0.118523 
73.064804 0.121783 
73.509697 0.127763 
73.659325 0.09533 
74.062141 0.090612 
74.975395 1.872941 
75.597946 0.102892 
75.655579 0.104719 
75.984016 0.091351 
76.515358 0.116705 
76.591156 0.086304 
76.998276 0.928019 
77.008324 1.944435 
77.90789 0.094608 
78.356842 0.081538 
78.708488 0.094462 
78.760986 0.096712 
79.021172 37.444447 
79.054199 11.853006 
79.58062 0.091478 
80.024582 0.110826 
80.05748 0.172788 
80.517769 0.101328 
81.016968 0.898721 
81.06987 13.895048 
82.065117 1.872398 
82.073074 0.290431 
82.515144 2.650344 
83.01265 0.491918 
83.049072 2.750315 
83.085464 5.025763 
83.440849 0.097422 
83.522942 0.375768 
83.92971 1.483185 
84.044357 0.361108 
84.080818 1.102278 
84.937576 1.077894 
84.959625 3.404243 
85.028458 0.141792 
85.064743 0.865544 
85.101067 0.491062 
85.52034 0.094451 
85.923836 0.098907 
85.945358 0.35154 
86.00351 6.297794 
86.059959 0.894474 
86.09639 2.228957 
86.300858 0.090961 
87.001511 0.134866 
87.043983 0.850218 
87.525505 1.247227 
88.075607 0.584159 
88.936844 0.412933 
88.991013 0.365932 
89.008148 0.089121 
89.059669 7.775957 
89.522903 1.156394 
90.314949 0.087453 
90.530792 0.120505 
91.023636 0.098257 
91.054199 22.322165 
91.057281 3.337968 
91.160957 0.091644 
91.520355 0.545744 
92.057472 1.837042 
92.361954 0.096823 
92.98597 0.3654 
93.069847 8.524517 
93.88633 0.102648 
94.040985 0.235588 
94.065094 0.264065 
94.073013 0.212638 
94.533302 1.23474 
95.008789 1.548689 
95.018906 0.482211 
95.049088 6.536359 
95.085472 10.230119 
95.687157 0.091322 
96.080711 2.328865 
96.530701 2.444523 
96.983521 0.136594 
97.064896 0.63858 
97.088585 0.107563 
97.101006 0.332859 
97.538376 0.09788 
97.984818 0.08505 
97.991173 0.113645 
98.096466 0.145676 
98.527931 0.135368 
98.975227 0.418206 
98.984116 88.958588 
98.988037 0.863795 
99.488159 1.710175 
100.075516 0.142598 
100.988197 0.101197 
101.541107 2.625848 
101.940178 0.366706 
102.530846 0.108479 
102.94812 6.12229 
102.953613 0.099166 
102.970207 0.123132 
103.054131 3.17041 
103.538559 3.269867 
103.922081 0.102929 
104.546318 0.202435 
105.033478 0.486653 
105.044769 0.60781 
105.069885 11.150663 
105.535881 0.10484 
106.065125 0.101905 
106.07325 0.439158 
106.543633 0.162081 
107.000038 0.387083 
107.049019 3.14142 
107.085442 5.428414 
108.056732 0.099361 
108.080635 0.780444 
108.389351 0.127237 
108.493385 7.120152 
108.548904 4.682255 
109.064705 2.888368 
109.101082 3.211306 
109.402786 0.101818 
109.491302 0.266909 
110.059441 0.093477 
110.071198 1.357433 
110.096298 2.62286 
110.54628 2.264033 
110.91111 0.097958 
111.044128 0.100524 
111.08049 0.109512 
111.554573 0.118033 
112.111931 0.717658 
113.551804 0.120313 
113.656769 0.082874 
114.994286 0.09073 
115.054123 4.353847 
115.556793 2.770213 
116.001511 0.267532 
116.005325 0.595675 
116.057556 0.138788 
116.062012 0.827465 
116.564781 0.111901 
116.965897 0.222857 
116.985733 1.29969 
116.994598 1.372563 
117.069771 4.408381 
117.498657 0.631356 
117.554131 3.517736 
117.935051 0.118862 
118.296638 0.101411 
118.561813 0.28816 
118.942993 1.06516 
118.947403 0.111052 
119.001366 0.441095 
119.049149 1.815773 
119.085526 13.077686 
119.551613 0.135494 
119.950836 4.754973 
120.080872 0.122012 
120.088844 1.459258 
120.559464 0.102286 
120.958649 0.973739 
120.980339 0.125386 
121.028564 0.11994 
121.064751 3.48101 
121.088341 0.104022 
121.101112 1.072724 
122.096436 0.241109 
122.564529 3.102155 
122.866997 0.101895 
122.940842 0.100662 
123.043938 0.220576 
123.066254 0.110439 
123.080269 1.688269 
123.116653 0.116661 
123.134857 0.09184 
123.566994 0.103704 
123.938705 0.379103 
124.11216 0.918719 
124.192421 0.086138 
124.438889 0.082516 
124.56208 1.377119 
125.059776 0.1831 
127.308319 0.082532 
127.567284 0.301634 
127.574852 0.306844 
128.00174 0.495417 
128.06189 3.386076 
128.633606 0.085186 
128.963699 3.910468 
128.985519 0.471007 
129.069809 5.919943 
129.572372 4.528371 
130.073212 0.685318 
130.459259 0.093767 
130.580231 0.361696 
130.943115 0.124473 
130.962799 0.245255 
130.981552 0.790647 
131.000732 0.114962 
131.019028 0.14994 
131.04895 1.515718 
131.077454 0.09121 
131.085434 2.660279 
131.271927 0.10165 
131.569794 1.658991 
131.951019 0.11669 
131.961243 4.989066 
132.056885 1.21776 
132.577591 0.115228 
132.958786 0.397704 
133.00441 0.21576 
133.034561 0.622528 
133.064636 4.064309 
133.100922 0.632659 
134.012283 0.450313 
134.096283 0.131171 
134.978653 3.834125 
134.99614 0.292833 
135.043991 1.65884 
135.080276 1.781155 
136.212143 0.105355 
136.580154 2.564554 
137.011719 10.821397 
137.059525 3.596472 
137.096161 1.098374 
138.012589 0.277468 
138.099503 0.095842 
138.127823 0.342603 
138.577682 0.946467 
139.074966 0.092452 
139.585419 0.878164 
140.984741 0.13159 
141.017044 0.079003 
141.022064 0.176818 
141.069809 1.579953 
141.373993 0.10502 
141.590454 0.135524 
142.01799 0.169262 
142.07785 0.19666 
142.979843 0.253491 
143.587799 0.477056 
144.056625 0.248419 
144.443588 0.089662 
144.841568 0.10885 
144.947037 2.325433 
144.958603 12.948775 
145.016846 0.110907 
145.064621 3.236636 
145.100647 0.323153 
145.585571 0.292629 
145.95842 0.648334 
146.012299 2.280913 
146.072845 0.281499 
146.94574 0.647945 
146.956543 1.760033 
146.974228 26.094748 
146.996185 0.357465 
147.04393 2.670897 
147.080292 7.078454 
147.590897 0.124754 
147.974426 7.084705 
148.083572 0.918383 
148.598373 2.070679 
148.973114 0.969608 
149.011963 0.358562 
149.059677 0.973289 
149.095764 0.777429 
149.971848 9.78334 
150.323746 0.089658 
150.595917 1.068844 
151.027359 0.101791 
151.038849 0.682828 
151.07518 1.130521 
152.062164 0.354519 
152.143051 0.128459 
152.989288 5.05024 
153.069626 0.662822 
153.991852 0.12107 
154.072708 0.114471 
154.078018 0.156527 
155.022141 6.27218 
155.03772 0.518939 
155.085587 0.689606 
156.032898 1.031416 
156.595795 0.134491 
157.064606 0.928194 
157.603531 2.875655 
158.072937 0.138851 
158.095657 0.107872 
158.105118 0.10364 
158.190231 0.11481 
159.032761 1.316539 
159.080368 1.409519 
160.027908 1.084022 
160.05191 0.535002 
160.989716 0.109254 
161.059586 5.350028 
161.09584 0.404818 
161.194275 0.09285 
162.969101 0.598669 
163.027267 1.501805 
163.039169 0.12456 
163.075409 0.338939 
164.014008 0.112477 
164.611465 0.145287 
164.930695 1.510574 
164.967224 1.440478 
165.054031 0.334393 
165.069672 1.740765 
165.09111 0.592956 
165.56041 0.110748 
165.806717 0.091866 
165.993973 0.213417 
166.608765 0.254213 
167.055054 0.539798 
167.085327 0.106768 
167.982147 0.224251 
168.056656 0.616681 
168.093582 0.108834 
168.764496 0.131377 
169.04895 0.52641 
169.064743 0.161771 
169.100204 0.112697 
170.048615 1.849169 
171.032867 0.130968 
171.080688 0.134631 
172.952164 1.587442 
173.048447 0.525318 
173.059647 3.035628 
173.998856 0.61553 
174.04364 0.507043 
174.067642 0.587335 
175.027557 0.095912 
175.039291 0.330833 
175.075211 5.024153 
175.655746 0.086072 
175.998428 0.232335 
176.941315 0.153261 
177.021713 0.25335 
177.054413 0.562833 
177.090836 0.975651 
178.077499 1.128129 
178.946167 0.662681 
178.964188 0.890788 
179.070236 0.229127 
179.085236 0.109925 
179.954163 2.436024 
180.925461 1.091177 
181.017441 0.273331 
181.052872 0.09246 
181.06456 1.449726 
182.024887 0.716215 
182.072464 0.134651 
182.952255 0.159491 
183.032867 0.834169 
183.080475 0.38544 
184.004166 1.906206 
184.064468 2.785007 
185.011734 0.727957 
185.048553 0.113168 
185.060089 0.11958 
186.043961 0.124037 
186.192032 0.105044 
187.007507 0.1204 
187.027786 0.486936 
187.07489 0.731052 
188.059204 1.425524 
188.647491 1.985501 
188.967194 0.107499 
189.054153 0.246993 
189.09079 0.3861 
189.148941 0.108005 
190.963257 0.387461 
191.000626 0.236618 
191.022446 0.74897 
191.037445 0.120645 
191.069824 0.113169 
191.106461 2.145594 
191.955063 0.117219 
192.00914 11.386698 
192.07338 0.103974 
192.110245 0.118728 
193.013199 0.120208 
193.051666 0.096885 
193.100937 0.190157 
194.008942 0.10571 
194.951584 1.635498 
195.032776 1.744827 
195.080338 2.23291 
195.913467 0.129861 
196.088257 1.406292 
196.920364 2.685516 
197.012497 1.136126 
197.048492 1.458308 
197.05925 0.230229 
197.653107 3.089713 
197.928528 0.18414 
198.01947 0.733008 
198.067719 0.542229 
198.080109 2.289753 
198.15477 0.295 
198.936264 1.278383 
199.027573 0.592347 
199.064499 0.274848 
199.075027 0.119567 
199.775009 0.104653 
199.93634 0.127005 
199.985962 0.084458 
200.040894 0.18866 
201.042953 0.325851 
201.091019 0.686849 
202.074936 1.847961 
202.383163 0.113674 
203.033295 0.124881 
203.07019 0.338024 
203.625229 0.12292 
203.645462 0.124259 
204.037064 0.337819 
204.077744 0.097862 
205.016983 0.385601 
205.085556 1.00803 
205.988571 0.114676 
206.088974 1.841048 
206.658295 1.165178 
206.977554 4.196047 
207.032715 7.529617 
207.080002 0.09688 
207.091415 0.492401 
207.978699 0.338649 
208.036453 0.222594 
208.990585 0.10467 
209.011887 2.602646 
209.048141 3.099404 
209.059555 0.620837 
209.095764 0.889224 
210.008667 0.338948 
210.019791 36.381927 
210.06778 0.334892 
210.080902 0.414372 
211.005966 0.128941 
211.02356 1.946929 
211.075211 6.455965 
211.11116 0.175042 
212.035599 0.112797 
212.081894 0.50458 
212.095505 2.011668 
213.005814 0.116107 
213.043152 1.16314 
214.930695 0.135061 
214.985779 2.441835 
216.029556 0.121931 
216.074463 0.203816 
216.090652 1.593578 
217.05011 0.093439 
219.047379 0.117839 
219.060623 0.124566 
219.101425 8.243698 
219.707672 0.644826 
220.104568 0.342799 
221.049271 0.123305 
222.067703 0.10427 
223.027267 2.63301 
223.07486 2.294482 
223.999237 0.133374 
224.035339 0.792441 
224.056335 0.100979 
224.082993 7.617964 
224.094772 0.641111 
225.043274 13.632595 
225.090332 1.895596 
226.014267 0.133144 
226.046661 0.330393 
226.063751 0.211692 
226.077667 0.497333 
226.11113 1.497929 
227.022522 5.00756 
227.058914 3.635475 
227.070084 0.126244 
228.030197 4.665779 
228.126648 0.104099 
229.001205 3.819791 
229.073822 0.096965 
230.105942 0.659309 
231.049469 0.107057 
232.996307 1.07636 
233.080658 0.364254 
234.06926 0.361496 
234.084 3.520571 
235.074692 0.139938 
235.085876 0.620526 
235.796188 0.097695 
237.056595 2.559506 
237.090866 3.67474 
238.096878 0.644003 
238.111298 0.442471 
238.967041 0.361663 
239.070099 5.148302 
239.085007 2.626331 
239.10614 2.588932 
240.076202 0.230885 
240.09201 0.281605 
240.126984 2.049349 
240.946869 6.903786 
241.037994 0.220086 
241.085754 1.545619 
241.948959 0.130601 
242.142502 0.482588 
242.944016 0.17209 
243.016968 5.829268 
243.054016 1.654421 
244.092636 0.090461 
244.121643 0.956491 
245.033035 0.154263 
246.137711 0.222029 
247.011368 0.582541 
248.990585 0.31741 
250.13118 0.114381 
250.347 0.091354 
251.069931 3.832854 
251.106094 1.132499 
252.029175 0.118459 
252.077499 4.628641 
252.09227 1.112295 
252.126984 0.822221 
253.085342 4.320715 
254.092911 0.38162 
254.142456 0.560001 
256.12265 0.122066 
256.941376 0.573612 
258.136963 0.791203 
258.957489 7.075605 
259.95697 0.642559 
260.152893 1.561981 
260.954559 0.112891 
261.027344 1.043697 
263.80249 0.107497 
265.085541 3.218746 
266.089752 1.021934 
266.140808 0.116773 
266.99881 1.180931 
267.065277 2.496793 
267.10141 26.037588 
268.088287 1.864926 
268.104889 4.611888 
268.157379 0.115569 
268.978302 35.425377 
268.994537 2.023673 
269.080414 0.367738 
269.095306 1.532882 
269.977997 8.11431 
270.135193 0.100301 
270.958435 1.539916 
270.975372 5.43349 
271.974396 0.11872 
273.021118 0.421866 
274.952179 1.745076 
276.163666 0.122847 
276.968231 0.148843 
280.15741 0.58867 
282.174255 0.29638 
291.070831 0.157015 
292.158997 0.256264 
293.161987 0.087105 
294.173309 4.191199 
END IONS

