BEGIN IONS
TITLE=Scan Number: 45
PEPMASS=485.0
CHARGE=1+
COMPOUNDNAME=Kanamycin A
LIBRARYQUALITY=3
SMILES=O([C@@H]2[C@@H](O)[C@H](O[C@H]1O[C@H](CN)[C@@H](O)[C@H](O)[C@H]1O)[C@@H](N)C[C@H]2N)[C@H]3O[C@@H]([C@@H](O)[C@H](N)[C@H]3O)CO
INCHIKEY=SBUJHOSQTJFQJX-NOAMYHISSA-N
INCHI="InChI=1S/C18H36N4O11/c19-2-6-10(25)12(27)13(28)18(30-6)33-16-5(21)1-4(20)15(14(16)29)32-17-11(26)8(22)9(24)7(3-23)31-17/h4-18,23-29H,1-3,19-22H2/t4-,5+,6-,7-,8+,9-,10-,11-,12+,13-,14-,15+,16-,17-,18-/m1/s1"
MSLEVEL=2
SOURCE_INSTRUMENT=DI-ESI-Ion Trap
FILENAME=Kanamycin_A_IT_485mz.mzXML
SEQ=*..*
NOTES=
IONMODE=Positive
ORGANISM=GNPS-LIBRARY
NAME=Kanamycin A M+H
SPECTRUMID=CCMSLIB00000075307
ACTIVATION=CID
INSTRUMENT=ion trap
SCANS=45
140.098251 11.847944 
144.025452 175.048813 
144.968399 1288.854248 
145.947586 102.436989 
149.92308 7.207336 
150.971527 176.669113 
152.029053 63.662357 
159.000397 15.876234 
161.975662 2696.452148 
162.980484 28391.970703 
163.540161 78.107529 
164.117249 46.283245 
164.636368 1.490452 
169.120987 230.889374 
169.899506 19.262852 
173.031525 16.274052 
173.91568 13.721959 
180.064728 197.060547 
186.081207 78.139 
186.95195 2449.62207 
188.107162 9.033356 
203.166931 20.687965 
203.977112 783.653442 
204.954987 10189.954102 
205.681747 4.531175 
207.137695 4.996303 
209.102295 11.839706 
210.136002 14.063612 
221.078049 20.163528 
222.016022 318.068298 
222.997482 12.514516 
227.039917 20.066055 
229.189331 6.506953 
233.200623 25.768303 
239.35965 5.720972 
240.187347 43.387867 
246.113678 68.73098 
251.048538 72.343117 
252.105469 123.445328 
253.224716 8.065014 
262.199646 12.667119 
262.959076 614.100159 
264.13092 327.660187 
269.283661 57.49255 
270.032837 122.392609 
271.122498 110.016426 
281.01712 174.420471 
287.0961 351.834045 
288.183411 76.3442 
288.85965 139.443695 
294.17627 8.231665 
305.040924 1617.676147 
306.018463 327.009125 
307.247437 401.372803 
312.256989 107.302818 
323.060059 2719.250732 
324.060944 56844.703125 
324.97467 120.537193 
325.771973 3.669788 
329.003967 22.176979 
330.200562 123.329575 
348.075714 6425.331055 
348.727264 2.5378 
366.04718 10078.43457 
366.909088 1.284096 
390.144775 25.280325 
396.142029 22.482128 
402.189301 155.013779 
413.077484 238.068512 
414.064941 105.697685 
431.142212 176.209015 
432.097687 2323.187256 
448.940002 11.493801 
449.482819 80.702637 
450.160034 4245.452148 
467.137848 484.306488 
468.098877 2024.853394 
END IONS

