BEGIN IONS
TITLE=Scan Number: 2227
PEPMASS=529.20898
CHARGE=1+
COMPOUNDNAME=Asperhenamate_120258
LIBRARYQUALITY=2
SMILES=C1=CC=C(C=C1)CC(COC(=O)C(CC2=CC=CC=C2)NC(=O)C3=CC=CC=C3)NC(=O)C4=CC=CC=C4
INCHIKEY=CVULDJMCSSACEO-UHFFFAOYSA-N
INCHI=N/A
MSLEVEL=2
SOURCE_INSTRUMENT=LC-ESI-qTof
FILENAME=P1_C1_conc_GA1_01_2407.mzXML
SEQ=*..*
NOTES=
IONMODE=Positive
ORGANISM=GNPS-LIBRARY
NAME=Asperhenamate_120258 M+Na
SPECTRUMID=CCMSLIB00000478095
ACTIVATION=CID
INSTRUMENT=ion trap
SCANS=2227
105.033821 2840.0 
115.053406 848.0 
117.070244 2640.0 
118.072739 432.0 
122.059471 1144.0 
123.065247 348.0 
144.993561 448.0 
149.028748 468.0 
160.007401 372.0 
163.004105 844.0 
164.007355 268.0 
181.016708 612.0 
191.017899 268.0 
204.033447 1004.0 
205.002258 436.0 
209.061386 552.0 
237.057892 264.0 
238.121902 21432.0 
239.124222 5600.0 
240.130463 584.0 
253.050507 360.0 
254.050659 408.0 
260.100128 2308.0 
261.100922 588.0 
264.067291 3368.0 
265.071777 1140.0 
266.066925 396.0 
276.066406 348.0 
282.080627 1472.0 
283.083649 832.0 
286.076385 404.0 
292.094208 16608.0 
293.097198 2144.0 
294.084869 344.0 
300.090027 1384.0 
308.057312 320.0 
326.067596 612.0 
401.153961 324.0 
526.198669 956.0 
526.700195 3484.0 
527.200439 1200.0 
527.363342 272.0 
527.695129 484.0 
528.845825 272.0 
529.209045 66976.0 
529.376282 400.0 
530.211548 19488.0 
530.319519 480.0 
530.4328 256.0 
531.214233 3900.0 
532.212463 992.0 
545.182678 328.0 
546.170532 300.0 
577.161377 1456.0 
578.166321 728.0 
579.16217 400.0 
814.278625 2800.0 
815.279724 2636.0 
816.291321 936.0 
817.276062 332.0 
818.282043 300.0 
END IONS

