BEGIN IONS
PEPMASS=180.104
CHARGE=1+
COMPOUNDNAME=MLS002153813-01!Fusaric acid536-69-6
LIBRARYQUALITY=1
SMILES=CCCCc1ccc(nc1)C(=O)O
INCHIKEY=DGMPVYSXXIOGJY-UHFFFAOYSA-N
INCHI=N/A
MSLEVEL=2
SOURCE_INSTRUMENT=LC-ESI-qTof
FILENAME=p4-E05_GE5_01_18377.mzXML
SEQ=*..*
IONMODE=Positive
ORGANISM=GNPS-NIH-SMALLMOLECULEPHARMACOLOGICALLYACTIVE
NAME=MLS002153813-01!Fusaric acid536-69-6 M+H
PI=Dorrestein
DATACOLLECTOR=VP/LMS
PUBMED=N/A
SUBMITUSER=vphelan
TAGS=
SPECTRUMID=CCMSLIB00000085704
SCANS=1286
45.401814 168.0 
46.539413 184.0 
46.852234 140.0 
46.996758 128.0 
47.686966 200.0 
47.886471 152.0 
48.30056 144.0 
48.486095 212.0 
48.680321 132.0 
48.996063 160.0 
49.21085 192.0 
49.282085 128.0 
49.505898 168.0 
49.566135 160.0 
49.824303 256.0 
50.539143 208.0 
52.294525 144.0 
52.659309 140.0 
52.699757 144.0 
53.258961 76.0 
53.446503 156.0 
54.552208 148.0 
54.853989 196.0 
55.341526 96.0 
55.725681 196.0 
56.53389 148.0 
56.601254 132.0 
56.644688 200.0 
56.728607 192.0 
56.944683 220.0 
57.471577 144.0 
60.34174 204.0 
60.770771 140.0 
60.888748 160.0 
61.07526 132.0 
61.316597 84.0 
61.605267 212.0 
61.813217 144.0 
62.844013 196.0 
63.014534 232.0 
63.338844 184.0 
64.799728 48.0 
65.136627 60.0 
65.675873 144.0 
66.053856 164.0 
66.215714 152.0 
66.865143 84.0 
67.181252 160.0 
67.336327 180.0 
68.708649 160.0 
68.891899 76.0 
70.848358 156.0 
71.064636 200.0 
71.14856 268.0 
71.526802 60.0 
71.573936 160.0 
71.835175 172.0 
71.91111 156.0 
72.942665 100.0 
73.225121 172.0 
74.108307 60.0 
74.363823 156.0 
74.542435 152.0 
74.972664 60.0 
75.174431 212.0 
75.210678 172.0 
75.45771 124.0 
76.798355 124.0 
76.864655 232.0 
78.254654 72.0 
78.485474 152.0 
79.254379 212.0 
79.392647 104.0 
79.687317 212.0 
79.809959 148.0 
80.119644 172.0 
80.183792 152.0 
80.987816 196.0 
81.411087 136.0 
81.588974 72.0 
81.626732 148.0 
82.060684 120.0 
82.613327 220.0 
82.734581 156.0 
82.935654 136.0 
83.27314 148.0 
83.509422 52.0 
83.536705 176.0 
83.62587 196.0 
83.669556 224.0 
84.76181 156.0 
86.317291 188.0 
86.448631 136.0 
86.691223 180.0 
87.506676 220.0 
87.722786 136.0 
88.032516 180.0 
88.355881 132.0 
88.595512 176.0 
88.842979 216.0 
89.036316 132.0 
89.489502 180.0 
90.028809 220.0 
90.308525 132.0 
91.052727 608.0 
91.349907 72.0 
91.422211 88.0 
91.711708 204.0 
91.728859 184.0 
92.048874 1828.0 
92.156364 192.0 
92.192665 104.0 
92.418312 48.0 
92.506348 44.0 
92.759209 108.0 
93.055344 636.0 
93.077698 160.0 
93.273659 92.0 
94.068436 164.0 
94.293297 156.0 
94.68605 196.0 
94.751907 180.0 
95.069908 188.0 
95.293221 184.0 
95.547913 48.0 
96.59552 152.0 
97.96772 148.0 
98.255554 180.0 
98.273315 164.0 
99.35952 172.0 
100.075035 128.0 
100.847069 56.0 
100.907036 56.0 
101.199158 176.0 
101.640129 140.0 
101.95742 192.0 
102.991013 140.0 
103.377174 168.0 
104.047905 416.0 
104.092766 204.0 
105.055359 728.0 
105.46389 116.0 
105.586563 120.0 
105.840317 152.0 
106.064285 888.0 
106.123085 40.0 
106.693855 64.0 
107.084732 528.0 
107.64991 132.0 
107.701546 164.0 
107.842049 76.0 
108.086082 152.0 
109.762421 224.0 
111.981789 160.0 
112.959084 172.0 
113.338058 164.0 
113.603081 44.0 
113.628532 200.0 
113.690071 40.0 
114.595932 84.0 
114.97123 152.0 
115.05394 2136.0 
115.297989 80.0 
115.349289 176.0 
115.441223 136.0 
115.965752 156.0 
116.055229 168.0 
116.193054 100.0 
116.515099 160.0 
116.766594 156.0 
116.938721 216.0 
117.061638 404.0 
117.281189 200.0 
117.395454 72.0 
117.423492 96.0 
117.775307 112.0 
118.063995 4488.0 
118.218529 36.0 
118.333252 48.0 
118.714615 68.0 
119.072182 3260.0 
119.22261 84.0 
120.07386 188.0 
120.093491 120.0 
120.128395 68.0 
120.148026 52.0 
122.617126 84.0 
123.045067 188.0 
123.564453 148.0 
127.462082 104.0 
128.173157 104.0 
130.070679 200.0 
130.607162 192.0 
131.085037 92.0 
131.623383 112.0 
131.669067 172.0 
132.079758 1648.0 
132.178848 56.0 
132.378006 168.0 
132.666702 40.0 
133.087555 344.0 
134.096893 3900.0 
134.133347 48.0 
134.310913 52.0 
135.098557 236.0 
135.126389 128.0 
136.071899 168.0 
147.268127 156.0 
150.957474 84.0 
152.106049 3188.0 
152.991531 168.0 
153.111389 456.0 
153.328995 136.0 
153.987732 56.0 
154.116196 56.0 
154.304047 68.0 
156.017181 232.0 
178.462097 48.0 
179.143417 200.0 
226.004456 132.0 
229.039658 176.0 
284.175049 116.0 
350.008362 96.0 
412.186462 120.0 
619.963806 48.0 
815.816467 32.0 
868.498474 48.0 
887.790833 176.0 
903.534058 152.0 
914.834656 152.0 
931.78064 32.0 
942.938171 44.0 
945.990417 112.0 
948.66748 112.0 
966.423645 132.0 
967.952515 116.0 
971.96936 176.0 
972.087219 236.0 
994.398682 72.0 
1002.524292 212.0 
1003.211365 72.0 
1007.603821 64.0 
1012.848206 80.0 
1018.264954 228.0 
1022.066528 92.0 
1025.129395 180.0 
1026.901855 188.0 
1042.439819 256.0 
1054.478516 140.0 
1062.216187 232.0 
1064.344971 188.0 
1068.088501 80.0 
1070.951416 120.0 
1084.130493 140.0 
1088.913208 180.0 
1089.241699 184.0 
1106.301636 48.0 
1114.020874 128.0 
1118.502808 200.0 
1124.007935 168.0 
1130.001465 80.0 
1138.628662 244.0 
1148.091187 128.0 
1170.992188 184.0 
1178.701172 196.0 
1197.891479 140.0 
1205.315186 224.0 
1208.198364 188.0 
1217.604736 248.0 
1223.452637 156.0 
1223.626709 144.0 
1230.372192 204.0 
1236.072021 184.0 
1237.737915 248.0 
1239.369995 200.0 
1241.09436 176.0 
1241.788574 232.0 
1248.671631 204.0 
1255.270508 164.0 
1256.36377 176.0 
1256.427246 112.0 
1269.902954 116.0 
1270.25769 180.0 
1272.074219 136.0 
1273.039917 156.0 
1273.316895 140.0 
1279.168701 196.0 
1284.648804 204.0 
1285.019775 64.0 
1286.347168 196.0 
1288.346802 172.0 
1298.912964 152.0 
1300.986938 164.0 
1301.898804 136.0 
1319.71936 156.0 
1326.292847 136.0 
1337.777466 248.0 
1341.806274 148.0 
1363.326782 132.0 
1370.678345 244.0 
1371.570068 188.0 
1377.170532 188.0 
1379.727417 156.0 
1379.963989 168.0 
1392.227661 192.0 
1392.591675 128.0 
1395.452637 212.0 
1397.349243 172.0 
1404.150391 172.0 
1413.391357 120.0 
1413.780518 68.0 
1419.788818 196.0 
1421.386719 216.0 
1427.674438 236.0 
1433.531372 172.0 
1442.195557 96.0 
1444.479126 108.0 
1452.774292 84.0 
1466.171997 244.0 
1469.199219 184.0 
1476.302734 196.0 
1476.371582 168.0 
1485.885254 72.0 
1486.844482 48.0 
1494.128906 120.0 
1496.499512 220.0 
1499.187866 224.0 
1500.189819 172.0 
END IONS

