BEGIN IONS
TITLE=Scan Number: 2930
PEPMASS=592.40002
CHARGE=1+
COMPOUNDNAME=BE-43547C
LIBRARYQUALITY=3
SMILES=O=C(CNC(C(O)(C)C1=O)=O)NC(/C=C/C(N(C)CC(OC(CCCCCCCCCCCCC(C)C)C1C)=O)=O)=C
INCHIKEY=KVYJAWXEQAHJFZ-FMQUCBEESA-N
INCHI=InChI=1S/C32H53N3O7/c1-23(2)17-15-13-11-9-7-8-10-12-14-16-18-26-25(4)30(39)32(5,41)31(40)33-21-27(36)34-24(3)19-20-28(37)35(6)22-29(38)42-26/h19-20,23,25-26,41H,3,7-18,21-22H2,1-2,4-6H3,(H,33,40)(H,34,36)/b20-19+
MSLEVEL=2
SOURCE_INSTRUMENT=LC-ESI-qTof
FILENAME=f.thomast/BE-43547/BE43547C_40eV.mzML;
SEQ=*..*
NOTES=
IONMODE=Positive
ORGANISM=GNPS-LIBRARY
NAME=BE-43547C M+H
SPECTRUMID=CCMSLIB00000839190
ACTIVATION=CID
INSTRUMENT=ion trap
SCANS=2930
44.940784 100.0 
44.946033 160.0 
44.994694 124.0 
45.030212 148.0 
45.06575 152.0 
45.118427 116.0 
45.155315 124.0 
45.363754 132.0 
45.879005 56.0 
45.900246 132.0 
45.999939 152.0 
46.067802 88.0 
46.11972 132.0 
46.188988 184.0 
46.25832 148.0 
46.520103 132.0 
46.530807 108.0 
46.621815 104.0 
47.00647 116.0 
47.037811 136.0 
47.16568 60.0 
47.183174 140.0 
47.26133 148.0 
47.268085 72.0 
47.319328 84.0 
47.415142 132.0 
47.505665 84.0 
47.512424 84.0 
47.747913 60.0 
47.963593 144.0 
47.990765 104.0 
48.022736 168.0 
48.047844 68.0 
48.177067 52.0 
48.224705 112.0 
48.238323 112.0 
48.442833 128.0 
48.464668 160.0 
48.70388 88.0 
48.947773 160.0 
49.223934 100.0 
49.317532 112.0 
49.471889 116.0 
49.632015 104.0 
49.795162 152.0 
49.868538 96.0 
50.503391 144.0 
50.775505 140.0 
50.978321 148.0 
51.262951 92.0 
51.341602 128.0 
51.562458 52.0 
51.583561 148.0 
51.603287 108.0 
51.617363 176.0 
51.62582 152.0 
51.742836 144.0 
51.806328 152.0 
51.857151 164.0 
51.916492 84.0 
51.953232 96.0 
51.974434 104.0 
52.052223 80.0 
52.131462 220.0 
52.281658 168.0 
52.293011 116.0 
52.302933 152.0 
52.61541 100.0 
52.641014 104.0 
52.685139 68.0 
52.784817 88.0 
52.823288 100.0 
52.853214 160.0 
53.356239 92.0 
53.367687 172.0 
53.465168 52.0 
53.635918 124.0 
53.920654 120.0 
54.063301 152.0 
54.086369 184.0 
54.271133 124.0 
54.279793 172.0 
54.337608 108.0 
54.480816 88.0 
54.6213 116.0 
54.756168 96.0 
54.876656 228.0 
54.921711 136.0 
54.979874 60.0 
54.988575 164.0 
55.016224 80.0 
55.053734 136.0 
55.062771 112.0 
55.221489 148.0 
55.45927 156.0 
55.51186 132.0 
55.546951 52.0 
55.552792 76.0 
55.729767 164.0 
55.745888 72.0 
55.783955 104.0 
55.845478 140.0 
56.018532 164.0 
56.046421 164.0 
56.057583 164.0 
56.074345 52.0 
56.287457 88.0 
56.321102 156.0 
56.43615 96.0 
56.534889 124.0 
56.654377 148.0 
56.667675 80.0 
56.673569 152.0 
56.794689 120.0 
56.810947 116.0 
56.973652 112.0 
57.000294 144.0 
57.032871 124.0 
57.040283 88.0 
57.070061 656.0 
57.184029 108.0 
57.308674 64.0 
57.359142 120.0 
57.440861 100.0 
57.473553 156.0 
57.658047 136.0 
57.672939 132.0 
57.756386 52.0 
57.862217 204.0 
57.898026 168.0 
58.067543 140.0 
58.074242 100.0 
58.084694 160.0 
58.125946 104.0 
58.147488 112.0 
58.157948 156.0 
58.201328 148.0 
58.382496 108.0 
58.580444 116.0 
58.588684 120.0 
58.645004 96.0 
58.77422 104.0 
58.78022 188.0 
58.840385 116.0 
58.921635 168.0 
58.950253 88.0 
59.02705 164.0 
59.04884 96.0 
59.057182 188.0 
59.227596 184.0 
59.309124 136.0 
59.493519 96.0 
59.641827 180.0 
59.691826 100.0 
59.700916 112.0 
59.706982 92.0 
59.831287 128.0 
60.044613 144.0 
60.191338 52.0 
60.247635 80.0 
60.398411 104.0 
60.421276 88.0 
60.467026 52.0 
60.531071 104.0 
60.58448 108.0 
60.66235 112.0 
60.859531 120.0 
60.91769 72.0 
60.928391 148.0 
61.03252 136.0 
61.340836 168.0 
61.351597 100.0 
61.399216 140.0 
61.440701 192.0 
61.785507 104.0 
61.816338 124.0 
61.861065 88.0 
61.936661 104.0 
62.11581 96.0 
62.121986 132.0 
62.145168 156.0 
62.196217 56.0 
62.251892 100.0 
62.270458 112.0 
62.337002 188.0 
62.422188 164.0 
62.482635 128.0 
62.597385 156.0 
62.606041 136.0 
62.662575 120.0 
62.891674 124.0 
62.995209 124.0 
63.012321 172.0 
63.021679 80.0 
63.034142 56.0 
63.139149 92.0 
63.164314 144.0 
63.19149 52.0 
63.246143 120.0 
63.497379 96.0 
63.534889 80.0 
63.570843 100.0 
63.639656 92.0 
63.672523 60.0 
63.769554 152.0 
63.80246 76.0 
63.814983 104.0 
63.821251 92.0 
63.932518 140.0 
64.006241 116.0 
64.097267 120.0 
64.105118 120.0 
64.175789 128.0 
64.241791 88.0 
64.263794 100.0 
64.395897 172.0 
64.450989 140.0 
64.513992 84.0 
64.592773 80.0 
64.712593 136.0 
64.764679 68.0 
64.816742 164.0 
64.868858 140.0 
64.955757 140.0 
65.03801 312.0 
65.046059 192.0 
65.09967 68.0 
65.191467 80.0 
65.2659 108.0 
65.375259 100.0 
65.491058 76.0 
65.743622 120.0 
66.042183 108.0 
66.523445 92.0 
66.550629 104.0 
66.67067 80.0 
66.787598 120.0 
66.826073 88.0 
66.895004 204.0 
66.973625 152.0 
67.005722 176.0 
67.017448 984.0 
67.029808 140.0 
67.042656 104.0 
67.053802 4980.0 
67.071564 112.0 
67.142258 60.0 
67.272453 140.0 
67.306236 128.0 
67.315895 104.0 
67.531662 112.0 
67.642899 124.0 
67.718727 104.0 
68.003021 180.0 
68.015968 152.0 
68.022438 132.0 
68.049049 28996.0 
68.064491 156.0 
68.07695 120.0 
68.096855 124.0 
68.109818 64.0 
68.123695 152.0 
68.137329 88.0 
68.202087 108.0 
68.234467 164.0 
68.334938 152.0 
68.346283 152.0 
68.386833 92.0 
68.484177 68.0 
68.503639 108.0 
68.560471 60.0 
68.571823 112.0 
68.667664 116.0 
68.697174 124.0 
68.721298 128.0 
68.820503 92.0 
68.833504 144.0 
68.936058 76.0 
68.996323 52.0 
69.009338 92.0 
69.019104 136.0 
69.032806 1744.0 
69.051903 1672.0 
69.069679 20256.0 
69.084396 112.0 
69.097351 56.0 
69.11364 92.0 
69.167435 144.0 
69.175613 64.0 
69.187012 124.0 
69.227806 88.0 
69.271858 120.0 
69.289833 60.0 
69.309395 156.0 
69.453156 68.0 
69.500542 128.0 
69.528336 108.0 
69.541435 56.0 
69.615021 152.0 
69.634666 88.0 
69.840996 144.0 
69.850845 76.0 
69.888535 100.0 
69.937721 120.0 
69.949196 148.0 
70.026321 68.0 
70.034508 144.0 
70.054405 132.0 
70.065193 1604.0 
70.07177 1332.0 
70.134674 56.0 
70.170799 80.0 
70.30719 144.0 
70.517822 120.0 
70.542549 52.0 
70.567238 108.0 
70.672707 96.0 
70.745262 96.0 
70.798035 164.0 
70.814552 100.0 
70.893784 84.0 
70.928444 168.0 
71.017662 136.0 
71.034195 92.0 
71.048798 1672.0 
71.065575 244.0 
71.085167 13460.0 
71.170265 116.0 
71.184669 136.0 
71.312119 152.0 
71.393295 108.0 
71.439705 80.0 
71.467865 164.0 
71.509331 84.0 
71.5541 128.0 
71.577339 76.0 
71.603889 64.0 
71.632095 80.0 
71.670258 164.0 
71.759949 100.0 
71.939468 88.0 
71.957756 112.0 
72.050873 240.0 
72.079269 436.0 
72.088379 832.0 
72.202484 156.0 
72.21582 144.0 
72.325844 140.0 
72.365891 88.0 
72.374214 148.0 
72.409264 96.0 
72.689888 64.0 
72.736694 100.0 
72.795235 116.0 
72.818657 136.0 
72.843765 112.0 
73.004517 160.0 
73.01123 124.0 
73.029037 108.0 
73.053131 96.0 
73.063965 448.0 
73.090965 112.0 
73.155411 80.0 
73.162094 184.0 
73.182228 192.0 
73.244316 152.0 
73.329933 128.0 
73.393761 152.0 
73.408905 64.0 
73.524879 56.0 
73.585411 96.0 
73.602234 108.0 
73.610657 64.0 
73.726791 68.0 
73.856483 120.0 
73.910439 64.0 
73.918877 52.0 
74.059166 2200.0 
74.144943 140.0 
74.229393 140.0 
74.241173 132.0 
74.357857 132.0 
74.383232 80.0 
74.555855 60.0 
74.567703 60.0 
74.579536 124.0 
74.765945 96.0 
74.932198 148.0 
74.952591 64.0 
74.962746 192.0 
74.986549 68.0 
75.04599 76.0 
75.056168 124.0 
75.064682 76.0 
75.45253 132.0 
75.4832 128.0 
75.524086 152.0 
75.6008 120.0 
75.716789 128.0 
75.797012 100.0 
75.844276 128.0 
75.890953 84.0 
75.954155 156.0 
75.991768 96.0 
76.038094 652.0 
76.096062 180.0 
76.130295 124.0 
76.16111 60.0 
76.323776 72.0 
76.363159 160.0 
76.464302 128.0 
76.520897 128.0 
76.52948 132.0 
76.584396 72.0 
76.611847 116.0 
76.618721 84.0 
76.658188 144.0 
76.69883 92.0 
76.711426 124.0 
76.814987 56.0 
76.850616 108.0 
76.864365 136.0 
76.897049 76.0 
76.933159 96.0 
77.036369 212.0 
77.055298 248.0 
77.069084 136.0 
77.091476 100.0 
77.155205 88.0 
77.270645 116.0 
77.493179 76.0 
77.5467 84.0 
77.697006 100.0 
77.703911 128.0 
77.807663 128.0 
77.869957 108.0 
77.895927 72.0 
77.908035 88.0 
77.934006 76.0 
77.946129 68.0 
78.020561 160.0 
78.035393 352.0 
78.152267 128.0 
78.188667 168.0 
78.421211 96.0 
78.525459 52.0 
78.613045 156.0 
78.622772 132.0 
78.635941 180.0 
78.739311 140.0 
78.845505 92.0 
78.854218 84.0 
78.895996 144.0 
79.017113 188.0 
79.054001 2408.0 
79.063644 220.0 
79.092957 108.0 
79.103439 52.0 
79.140038 152.0 
79.318077 144.0 
79.405434 108.0 
79.704544 64.0 
79.758797 164.0 
79.97261 124.0 
80.021721 112.0 
80.049065 17568.0 
80.077888 56.0 
80.084869 200.0 
80.1007 60.0 
80.114716 140.0 
80.251671 172.0 
80.25872 84.0 
80.358887 92.0 
80.466141 144.0 
80.483734 140.0 
80.527725 108.0 
80.633354 88.0 
80.707329 96.0 
80.758415 128.0 
80.918854 152.0 
80.991203 116.0 
81.007111 52.0 
81.032768 516.0 
81.052414 1084.0 
81.069313 29144.0 
81.100647 164.0 
81.113037 56.0 
81.231392 100.0 
81.259674 104.0 
81.272049 104.0 
81.365784 68.0 
81.468391 124.0 
81.542534 96.0 
81.564003 112.0 
81.900841 124.0 
81.977165 156.0 
82.053535 120.0 
82.064789 6532.0 
82.071739 2924.0 
82.124611 88.0 
82.151253 152.0 
82.386063 76.0 
82.473274 160.0 
82.565926 84.0 
82.603363 60.0 
82.610497 52.0 
82.628281 164.0 
82.655006 256.0 
82.785225 124.0 
82.810234 64.0 
82.835205 92.0 
82.876259 92.0 
82.888741 144.0 
82.913742 116.0 
82.96196 124.0 
82.969109 120.0 
83.0121 736.0 
83.019485 284.0 
83.037003 112.0 
83.048897 1372.0 
83.065353 324.0 
83.085175 42796.0 
83.108498 88.0 
83.117439 92.0 
83.13385 188.0 
83.172508 212.0 
83.186447 112.0 
83.212219 84.0 
83.237282 52.0 
83.3339 92.0 
83.455688 68.0 
83.473572 168.0 
83.487915 124.0 
83.563179 168.0 
83.604446 52.0 
83.846642 200.0 
83.889763 104.0 
83.922096 112.0 
83.993973 100.0 
84.004761 76.0 
84.043961 3940.0 
84.088272 2152.0 
84.188705 176.0 
84.279976 92.0 
84.456505 64.0 
84.676506 68.0 
84.723412 128.0 
84.849815 104.0 
84.976318 72.0 
84.998001 96.0 
85.026604 448.0 
85.037766 144.0 
85.046814 104.0 
85.064697 3428.0 
85.088409 136.0 
85.1008 14556.0 
85.117363 88.0 
85.158951 212.0 
85.180717 56.0 
85.225945 112.0 
85.349091 112.0 
85.369011 164.0 
85.378098 60.0 
85.428833 92.0 
85.457825 128.0 
85.523094 124.0 
85.530342 148.0 
85.590218 100.0 
85.597488 56.0 
85.65554 104.0 
85.729958 124.0 
86.022354 868.0 
86.059677 1160.0 
86.104103 1196.0 
86.115318 108.0 
86.255493 144.0 
86.284637 132.0 
86.293747 124.0 
86.379387 120.0 
86.41584 108.0 
86.470543 108.0 
86.594574 144.0 
87.04406 592.0 
87.060547 88.0 
87.076965 348.0 
87.183189 60.0 
87.243629 52.0 
87.260086 112.0 
87.26738 336.0 
87.291245 72.0 
87.414024 144.0 
87.448868 116.0 
87.597466 132.0 
87.652565 52.0 
87.689262 100.0 
88.039146 6632.0 
88.088203 80.0 
88.167343 140.0 
88.360817 68.0 
88.401375 68.0 
88.412407 160.0 
88.480667 80.0 
88.663361 132.0 
88.698479 64.0 
88.715103 56.0 
88.824097 84.0 
88.874008 88.0 
88.951675 68.0 
89.038002 212.0 
89.059746 992.0 
89.084877 116.0 
89.09597 168.0 
89.134857 108.0 
89.242279 108.0 
89.294151 132.0 
89.338638 96.0 
89.436913 84.0 
89.61319 68.0 
89.626945 96.0 
89.646591 116.0 
89.717171 88.0 
89.724579 140.0 
89.744469 176.0 
89.770187 132.0 
89.789009 136.0 
89.819984 128.0 
89.838745 148.0 
89.846237 180.0 
89.85183 140.0 
89.879753 148.0 
89.891823 208.0 
89.908585 96.0 
89.917877 108.0 
89.925323 92.0 
89.933762 140.0 
89.943916 104.0 
89.95134 160.0 
89.973633 320.0 
89.986679 176.0 
89.994133 116.0 
90.010872 132.0 
90.021088 212.0 
90.029961 292.0 
90.040115 132.0 
90.055084 535824.0 
90.068336 376.0 
90.076622 180.0 
90.105278 216.0 
90.115105 88.0 
90.123085 96.0 
90.132759 104.0 
90.147797 152.0 
90.156052 116.0 
90.175995 168.0 
90.194145 164.0 
90.243088 72.0 
90.262215 124.0 
90.269562 144.0 
90.287697 196.0 
90.301361 72.0 
90.332481 80.0 
90.344124 256.0 
90.361496 1120.0 
90.391029 104.0 
90.481064 76.0 
90.547508 64.0 
90.568024 100.0 
90.61248 112.0 
90.680046 64.0 
90.687492 116.0 
90.732315 124.0 
90.742592 136.0 
90.755684 84.0 
90.813057 60.0 
90.82711 96.0 
91.029205 80.0 
91.057808 15904.0 
91.153114 52.0 
91.177452 64.0 
91.227997 100.0 
91.242981 108.0 
91.364777 116.0 
91.406021 96.0 
91.41729 64.0 
91.458527 92.0 
91.537308 108.0 
91.545769 148.0 
91.571152 108.0 
91.582932 120.0 
91.593613 80.0 
91.628464 84.0 
91.640518 124.0 
91.654892 88.0 
91.66404 92.0 
91.684952 68.0 
91.693787 124.0 
91.725037 68.0 
91.811417 176.0 
91.845367 96.0 
91.858414 112.0 
91.880997 52.0 
92.04081 116.0 
92.05912 1588.0 
92.095406 52.0 
92.149956 152.0 
92.166924 72.0 
92.187622 96.0 
92.204582 60.0 
92.338333 52.0 
92.44313 92.0 
92.483238 140.0 
92.498726 88.0 
92.557014 152.0 
92.574028 60.0 
92.61174 128.0 
92.638161 140.0 
92.668381 80.0 
92.762779 104.0 
92.777893 96.0 
92.925308 52.0 
93.006592 76.0 
93.019821 108.0 
93.043884 140.0 
93.057663 80.0 
93.07 7024.0 
93.097397 68.0 
93.131462 56.0 
93.159851 60.0 
93.169289 140.0 
93.366257 104.0 
93.489456 128.0 
93.497032 160.0 
93.658287 100.0 
93.701477 80.0 
93.832962 116.0 
93.918472 88.0 
94.042023 152.0 
94.065399 1288.0 
94.25515 92.0 
94.29512 144.0 
94.384636 156.0 
94.449425 140.0 
94.476105 148.0 
94.491371 100.0 
94.741234 172.0 
94.748886 100.0 
94.90358 68.0 
94.968521 108.0 
94.981895 120.0 
95.012474 128.0 
95.048172 1344.0 
95.063217 100.0 
95.074898 392.0 
95.085419 44676.0 
95.113792 212.0 
95.190338 88.0 
95.211395 64.0 
95.2286 112.0 
95.243668 144.0 
95.257309 108.0 
95.315964 100.0 
95.324303 124.0 
95.349213 72.0 
95.383659 128.0 
95.446861 168.0 
95.502441 120.0 
95.512047 76.0 
95.55851 128.0 
95.573372 88.0 
95.630898 88.0 
95.652763 84.0 
95.665421 80.0 
95.67308 128.0 
95.703766 132.0 
95.717186 176.0 
95.730629 132.0 
95.740242 68.0 
95.76001 196.0 
95.774757 148.0 
95.797791 152.0 
95.813171 64.0 
95.826393 196.0 
95.84771 112.0 
95.855362 216.0 
95.873756 116.0 
95.892395 144.0 
95.908836 96.0 
95.928368 96.0 
95.941025 168.0 
95.949455 260.0 
95.966309 152.0 
95.979912 136.0 
95.986946 120.0 
95.993622 456.0 
96.000259 132.0 
96.009155 464.0 
96.031342 472.0 
96.045013 598524.0 
96.061966 196.0 
96.078751 204.0 
96.090332 912.0 
96.104073 120.0 
96.124374 92.0 
96.137291 68.0 
96.155144 80.0 
96.170242 96.0 
96.176689 116.0 
96.185585 280.0 
96.202026 104.0 
96.218216 144.0 
96.227669 68.0 
96.237228 196.0 
96.245964 124.0 
96.263298 120.0 
96.278305 176.0 
96.331848 164.0 
96.34269 768.0 
96.361092 7348.0 
96.372536 140.0 
96.379784 60.0 
96.388535 148.0 
96.455498 176.0 
96.462837 120.0 
96.483437 56.0 
96.493881 76.0 
96.508118 120.0 
96.572861 100.0 
96.584442 60.0 
96.593185 60.0 
96.622192 88.0 
96.646133 52.0 
96.661545 68.0 
96.709755 64.0 
96.742531 80.0 
96.75602 120.0 
96.769501 200.0 
96.79821 88.0 
96.829849 120.0 
96.84713 100.0 
96.862167 56.0 
96.883377 104.0 
96.902687 80.0 
96.912346 64.0 
96.923904 120.0 
96.96273 288.0 
96.998787 128.0 
97.012726 152.0 
97.03083 492.0 
97.047821 37440.0 
97.063988 3984.0 
97.101158 59056.0 
97.123764 120.0 
97.139252 68.0 
97.149178 136.0 
97.169296 108.0 
97.185585 52.0 
97.200172 136.0 
97.232117 136.0 
97.253464 52.0 
97.260132 92.0 
97.271721 136.0 
97.279488 56.0 
97.360718 108.0 
97.420723 72.0 
97.431755 80.0 
97.488441 200.0 
97.505882 140.0 
97.542709 56.0 
97.55587 140.0 
97.614349 148.0 
97.632362 84.0 
97.64537 92.0 
97.665443 188.0 
97.685501 200.0 
97.695015 192.0 
97.703995 208.0 
97.726006 256.0 
97.7444 136.0 
97.752342 172.0 
97.777534 108.0 
97.791374 132.0 
97.799103 100.0 
97.815849 56.0 
97.831497 60.0 
97.849098 68.0 
97.878036 108.0 
97.8955 100.0 
97.934288 152.0 
98.049202 1864.0 
98.059525 13736.0 
98.082993 612.0 
98.104156 4564.0 
98.124588 84.0 
98.147903 80.0 
98.206184 100.0 
98.275352 72.0 
98.309212 96.0 
98.338387 76.0 
98.351982 112.0 
98.381165 96.0 
98.412277 132.0 
98.451202 84.0 
98.573837 56.0 
98.628357 64.0 
98.667892 148.0 
98.714058 80.0 
98.745239 68.0 
98.769287 92.0 
98.817329 128.0 
98.846581 100.0 
98.868034 84.0 
98.905075 108.0 
98.930428 104.0 
98.967506 72.0 
99.045174 668.0 
99.06353 932.0 
99.080513 1516.0 
99.095787 76.0 
99.099106 108.0 
99.116577 3056.0 
99.164627 108.0 
99.287666 212.0 
99.361969 68.0 
99.391289 80.0 
99.410812 152.0 
99.422554 136.0 
99.508606 144.0 
99.547752 72.0 
99.559479 116.0 
99.637779 64.0 
99.651466 108.0 
99.667152 60.0 
99.747414 96.0 
99.804222 96.0 
99.855164 84.0 
99.878693 64.0 
99.933563 88.0 
100.038895 13616.0 
100.064941 100.0 
100.076622 404.0 
100.085899 272.0 
100.120972 468.0 
100.137558 64.0 
100.212143 56.0 
100.326004 124.0 
100.471436 52.0 
100.496956 136.0 
100.546127 84.0 
100.555939 148.0 
100.58152 88.0 
100.638565 96.0 
100.973251 160.0 
100.994934 128.0 
101.022842 1432.0 
101.042358 936.0 
101.05938 12228.0 
101.086388 208.0 
101.094162 116.0 
101.115219 56.0 
101.194107 60.0 
101.218208 96.0 
101.239471 76.0 
101.336166 116.0 
101.482323 60.0 
101.615936 92.0 
101.628563 52.0 
101.745232 56.0 
101.82238 68.0 
101.858002 72.0 
102.029068 100.0 
102.055145 24244.0 
102.098457 116.0 
102.12735 56.0 
102.176903 56.0 
102.22049 116.0 
102.266113 64.0 
102.301811 72.0 
102.325623 52.0 
102.341461 116.0 
102.444656 92.0 
102.457184 64.0 
102.537956 112.0 
102.563797 56.0 
102.6035 104.0 
102.623352 136.0 
102.663109 84.0 
102.681 60.0 
102.758499 96.0 
102.776413 52.0 
102.83606 60.0 
102.85791 108.0 
102.883766 100.0 
102.959381 76.0 
103.007133 80.0 
103.042801 120.0 
103.058487 1084.0 
103.071953 236.0 
103.16642 84.0 
103.178337 196.0 
103.307884 80.0 
103.327827 60.0 
103.386971 112.0 
103.597107 56.0 
103.63501 100.0 
103.658989 68.0 
103.768814 92.0 
103.908669 156.0 
103.950691 60.0 
104.044655 112.0 
104.068291 308.0 
104.140724 52.0 
104.182739 72.0 
104.358948 76.0 
104.366943 136.0 
104.447128 52.0 
104.63356 116.0 
104.661659 80.0 
104.691734 152.0 
104.822235 52.0 
104.834259 100.0 
104.996956 96.0 
105.045029 516.0 
105.070068 2084.0 
105.185921 96.0 
105.232201 64.0 
105.415321 96.0 
105.433434 128.0 
105.475761 52.0 
105.536156 120.0 
105.558342 60.0 
105.574455 72.0 
105.604691 56.0 
105.622795 132.0 
105.737717 88.0 
105.880913 140.0 
105.969734 88.0 
106.030907 168.0 
106.066406 252.0 
106.073761 356.0 
106.139397 52.0 
106.295013 52.0 
106.515488 80.0 
106.55394 80.0 
106.616806 128.0 
106.669334 140.0 
106.705795 124.0 
106.857773 128.0 
106.878036 160.0 
106.926727 80.0 
106.981491 64.0 
107.028107 160.0 
107.035408 148.0 
107.046387 108.0 
107.060974 2172.0 
107.085312 13892.0 
107.129601 72.0 
107.147881 56.0 
107.186417 128.0 
107.233124 116.0 
107.338776 52.0 
107.361099 100.0 
107.383476 60.0 
107.440376 60.0 
107.45256 80.0 
107.511536 56.0 
107.659996 92.0 
107.71492 160.0 
107.784134 132.0 
107.871712 88.0 
107.888031 52.0 
107.900223 112.0 
107.973557 128.0 
107.991905 108.0 
108.017952 148.0 
108.044548 32292.0 
108.067886 816.0 
108.080429 716.0 
108.089119 1532.0 
108.147644 72.0 
108.210083 64.0 
108.220261 124.0 
108.252892 144.0 
108.310074 52.0 
108.344742 108.0 
108.377403 104.0 
108.399834 192.0 
108.495834 124.0 
108.504013 92.0 
108.560966 60.0 
108.577591 52.0 
108.627411 76.0 
108.689995 68.0 
108.732903 120.0 
108.76973 92.0 
108.947731 92.0 
108.994797 136.0 
109.048302 1932.0 
109.064674 4636.0 
109.086464 192.0 
109.101562 32336.0 
109.1894 72.0 
109.197601 64.0 
109.280701 72.0 
109.324661 120.0 
109.349258 152.0 
109.373901 68.0 
109.468239 112.0 
109.484673 76.0 
109.509308 52.0 
109.566757 76.0 
109.591362 164.0 
109.620155 52.0 
109.747467 84.0 
109.800888 72.0 
109.821411 144.0 
109.893387 56.0 
109.918022 128.0 
109.966736 96.0 
109.977661 108.0 
110.059669 3284.0 
110.087524 172.0 
110.104721 2916.0 
110.123695 200.0 
110.181351 104.0 
110.234863 124.0 
110.251358 72.0 
110.455307 64.0 
110.469711 108.0 
110.508896 72.0 
110.675934 76.0 
110.688309 76.0 
110.744026 68.0 
110.820404 52.0 
110.839684 100.0 
110.857544 92.0 
110.92157 76.0 
110.956467 276.0 
110.96492 124.0 
110.993813 248.0 
111.045273 684.0 
111.054596 660.0 
111.064522 256.0 
111.080643 16824.0 
111.117294 43268.0 
111.145653 172.0 
111.177818 64.0 
111.200562 68.0 
111.23571 80.0 
111.312744 52.0 
111.361916 72.0 
111.477806 132.0 
111.48613 52.0 
111.527527 68.0 
111.558571 124.0 
111.792732 144.0 
111.879868 64.0 
111.941338 84.0 
112.023041 52.0 
112.039864 784.0 
112.05204 232.0 
112.061028 128.0 
112.076607 1524.0 
112.083748 1900.0 
112.102928 52.0 
112.121353 3208.0 
112.149673 72.0 
112.172493 140.0 
112.220268 128.0 
112.299248 72.0 
112.334557 120.0 
112.376152 68.0 
112.384476 52.0 
112.398987 144.0 
112.613258 72.0 
112.667358 84.0 
112.790184 140.0 
112.821457 64.0 
112.836021 92.0 
112.848541 60.0 
112.942291 72.0 
112.991661 236.0 
113.04232 140.0 
113.059662 5024.0 
113.075783 316.0 
113.096123 1512.0 
113.107063 1340.0 
113.133316 2440.0 
113.186234 124.0 
113.230064 84.0 
113.265549 68.0 
113.399155 72.0 
113.445084 116.0 
113.455528 100.0 
113.501503 72.0 
113.520279 128.0 
113.612259 64.0 
113.64151 96.0 
113.74398 72.0 
113.761948 100.0 
113.768257 160.0 
113.778542 212.0 
113.80674 52.0 
113.873665 100.0 
113.890419 76.0 
113.90062 60.0 
114.009735 84.0 
114.055 68948.0 
114.078392 272.0 
114.091835 1508.0 
114.122009 60.0 
114.136162 208.0 
114.247208 80.0 
114.290482 84.0 
114.325607 128.0 
114.345009 60.0 
114.365974 76.0 
114.374359 80.0 
114.384834 104.0 
114.411377 56.0 
114.420517 56.0 
114.466667 60.0 
114.516998 116.0 
114.556892 68.0 
114.650253 84.0 
114.691261 64.0 
114.714378 52.0 
114.741623 184.0 
114.840401 104.0 
114.866158 80.0 
115.025406 92.0 
115.037033 220.0 
115.058525 4040.0 
115.074951 1372.0 
115.113228 280.0 
115.326332 148.0 
115.360031 152.0 
115.395866 80.0 
115.463257 160.0 
115.47805 56.0 
115.558128 80.0 
115.581306 96.0 
115.591812 252.0 
115.634048 52.0 
115.81221 116.0 
115.835724 60.0 
115.853455 60.0 
115.864845 172.0 
115.881699 76.0 
115.973747 180.0 
116.031174 116.0 
116.059258 372.0 
116.069946 456.0 
116.14492 52.0 
116.170265 76.0 
116.189255 160.0 
116.246353 112.0 
116.259048 88.0 
116.402855 120.0 
116.807343 56.0 
116.826393 104.0 
116.873024 120.0 
117.049042 124.0 
117.065071 352.0 
117.448265 76.0 
117.58429 128.0 
117.635033 120.0 
117.745926 228.0 
117.786415 68.0 
117.797028 132.0 
117.816154 248.0 
117.903488 92.0 
117.986542 92.0 
118.049545 1544.0 
118.066429 96.0 
118.097343 76.0 
118.233742 140.0 
118.376671 80.0 
118.51754 60.0 
118.575165 108.0 
118.643509 100.0 
118.654198 80.0 
118.667015 84.0 
118.746063 88.0 
118.835838 72.0 
118.919228 68.0 
119.049469 228.0 
119.062103 184.0 
119.085205 4832.0 
119.107452 140.0 
119.235939 56.0 
119.345146 96.0 
119.400856 92.0 
119.413734 56.0 
119.497292 104.0 
119.589478 140.0 
119.686035 56.0 
119.767502 272.0 
119.776123 128.0 
119.967209 108.0 
119.990852 80.0 
120.023048 144.0 
120.043976 212.0 
120.070312 160.0 
120.089043 584.0 
120.360588 124.0 
120.401482 84.0 
120.858086 80.0 
120.866722 64.0 
120.901192 120.0 
120.918442 120.0 
121.050049 60.0 
121.063843 884.0 
121.075409 3356.0 
121.100807 15728.0 
121.153625 64.0 
121.466812 52.0 
121.538109 116.0 
121.670036 76.0 
122.023102 816.0 
122.03801 140.0 
122.059013 1224.0 
122.084 2388.0 
122.105247 1244.0 
122.174538 108.0 
122.221924 152.0 
122.282913 180.0 
122.295959 76.0 
122.47168 76.0 
122.832184 104.0 
122.866943 132.0 
122.877808 148.0 
122.895218 104.0 
122.903908 108.0 
122.929558 76.0 
122.941864 180.0 
123.001762 96.0 
123.021332 108.0 
123.033257 96.0 
123.04277 332.0 
123.055214 464.0 
123.080139 8236.0 
123.091743 63184.0 
123.116745 22944.0 
123.14167 196.0 
123.163651 180.0 
123.219322 160.0 
123.23893 112.0 
123.256378 56.0 
123.297684 212.0 
123.312943 160.0 
123.349983 100.0 
123.369591 96.0 
123.406631 72.0 
123.441483 84.0 
123.472008 52.0 
123.54081 56.0 
123.589706 52.0 
123.60714 56.0 
123.642029 52.0 
123.735794 76.0 
123.836166 56.0 
123.9431 92.0 
123.990471 112.0 
124.039024 1304.0 
124.067116 304.0 
124.075882 1892.0 
124.095001 4788.0 
124.120392 2408.0 
124.229271 72.0 
124.242386 64.0 
124.264259 52.0 
124.351685 100.0 
124.386658 128.0 
124.450096 120.0 
124.478569 60.0 
124.537628 88.0 
124.55072 200.0 
124.574837 88.0 
124.600655 144.0 
124.630806 84.0 
124.688698 52.0 
124.725891 112.0 
124.809135 96.0 
124.859528 92.0 
124.911705 60.0 
124.974854 164.0 
124.988831 128.0 
125.040863 216.0 
125.070862 44004.0 
125.095924 12556.0 
125.13237 16876.0 
125.170898 64.0 
125.18293 128.0 
125.197182 152.0 
125.215569 132.0 
125.246391 124.0 
125.280876 148.0 
125.300362 80.0 
125.337692 64.0 
125.348663 72.0 
125.370605 96.0 
125.381615 52.0 
125.526573 52.0 
125.615143 124.0 
125.640846 56.0 
125.812325 96.0 
125.843132 80.0 
125.900307 132.0 
125.913551 56.0 
125.939949 72.0 
125.990555 100.0 
126.027969 108.0 
126.055397 796.0 
126.073883 2724.0 
126.099579 2288.0 
126.11824 120.0 
126.13662 1692.0 
126.149063 164.0 
126.195343 92.0 
126.318718 132.0 
126.47525 136.0 
126.519409 52.0 
126.715752 120.0 
126.786423 76.0 
126.820343 88.0 
126.830589 80.0 
126.840424 104.0 
126.861488 108.0 
126.881386 80.0 
126.907898 76.0 
126.92556 92.0 
126.985184 180.0 
127.037827 720.0 
127.050133 904.0 
127.074799 2436.0 
127.111435 988.0 
127.147278 1184.0 
127.429749 144.0 
127.445251 144.0 
127.912827 68.0 
127.997086 120.0 
128.033707 2096.0 
128.070053 1464.0 
128.11293 120.0 
128.151703 228.0 
128.16391 96.0 
128.290146 56.0 
128.363419 112.0 
128.410095 84.0 
128.496765 100.0 
128.536758 136.0 
128.579025 100.0 
128.719177 64.0 
128.868256 96.0 
128.910553 112.0 
128.923935 72.0 
128.966202 148.0 
129.043976 88.0 
129.053696 848.0 
129.067795 608.0 
129.094986 128.0 
129.108795 88.0 
129.125839 340.0 
129.238052 116.0 
129.420929 88.0 
129.557007 184.0 
129.699936 88.0 
129.727966 96.0 
129.833984 72.0 
129.912201 68.0 
129.943481 80.0 
129.970322 72.0 
129.992676 80.0 
130.019455 220.0 
130.050064 42788.0 
130.085754 372.0 
130.133804 124.0 
130.240952 96.0 
130.270081 56.0 
130.386444 128.0 
130.424561 60.0 
130.478317 56.0 
130.507401 108.0 
130.520844 92.0 
130.567902 100.0 
130.729294 80.0 
130.785339 100.0 
130.81897 124.0 
130.895264 72.0 
130.913208 84.0 
131.03215 92.0 
131.053406 2244.0 
131.085159 196.0 
131.134308 172.0 
131.162384 64.0 
131.205719 68.0 
131.306122 156.0 
131.41626 144.0 
131.555695 84.0 
131.809967 100.0 
131.830231 92.0 
131.850525 60.0 
131.904541 104.0 
131.915833 56.0 
131.954117 60.0 
131.969879 68.0 
132.003677 76.0 
132.065887 6028.0 
132.084732 232.0 
132.100555 88.0 
132.165909 124.0 
132.251602 108.0 
132.330551 84.0 
132.529129 124.0 
132.633011 76.0 
132.769516 128.0 
132.86348 76.0 
132.933548 88.0 
132.953888 92.0 
133.026245 128.0 
133.036514 100.0 
133.06778 784.0 
133.087585 576.0 
133.10025 4716.0 
133.184631 88.0 
133.236664 124.0 
133.386139 56.0 
133.404236 88.0 
133.435974 60.0 
133.655762 108.0 
133.803177 72.0 
133.884842 84.0 
134.007401 76.0 
134.031311 124.0 
134.075485 152.0 
134.105698 548.0 
134.223175 52.0 
134.582321 120.0 
134.668808 84.0 
134.814484 92.0 
134.864578 96.0 
134.898697 220.0 
134.928314 164.0 
134.951141 72.0 
135.014923 100.0 
135.036835 128.0 
135.05481 3404.0 
135.081604 744.0 
135.116669 18872.0 
135.147934 92.0 
135.19043 88.0 
135.208679 88.0 
135.245926 72.0 
135.288467 156.0 
135.311295 112.0 
135.334549 124.0 
135.413986 64.0 
135.534927 128.0 
135.578339 64.0 
135.649139 56.0 
135.668808 92.0 
135.697083 84.0 
135.7108 64.0 
135.830597 144.0 
135.841019 128.0 
135.891281 180.0 
135.899704 116.0 
135.93338 128.0 
135.980469 136.0 
135.995438 64.0 
136.039169 78816.0 
136.059631 584.0 
136.076324 244.0 
136.095123 68.0 
136.104416 176.0 
136.120605 2748.0 
136.190933 96.0 
136.21666 80.0 
136.28479 96.0 
136.306931 64.0 
136.337448 76.0 
136.380981 52.0 
136.454254 80.0 
136.467972 120.0 
136.488602 116.0 
136.511475 200.0 
136.545898 84.0 
136.59404 64.0 
136.610031 160.0 
136.646713 136.0 
136.733856 88.0 
136.749908 84.0 
136.777435 72.0 
136.793503 60.0 
136.820999 88.0 
136.915054 112.0 
136.942627 52.0 
137.042038 6296.0 
137.059875 4432.0 
137.095566 5548.0 
137.132492 16200.0 
137.158401 92.0 
137.199722 112.0 
137.296249 60.0 
137.355972 84.0 
137.378922 184.0 
137.49852 72.0 
137.539902 80.0 
137.625015 68.0 
137.664124 72.0 
137.694031 88.0 
137.809113 88.0 
137.832138 72.0 
137.896576 152.0 
137.94133 52.0 
138.016983 340.0 
138.054321 3104.0 
138.091278 1424.0 
138.135269 1856.0 
138.27449 140.0 
138.292938 148.0 
138.348312 76.0 
138.357544 84.0 
138.452118 112.0 
138.532898 80.0 
138.562881 136.0 
138.712936 188.0 
138.733795 64.0 
138.769714 152.0 
138.84053 152.0 
138.957932 60.0 
139.047913 252.0 
139.057724 540.0 
139.086533 13672.0 
139.11171 4116.0 
139.147354 5664.0 
139.205353 112.0 
139.256256 116.0 
139.490067 120.0 
139.513245 84.0 
139.675461 52.0 
139.777405 132.0 
139.786697 80.0 
140.034485 924.0 
140.070953 6656.0 
140.088089 1372.0 
140.11853 520.0 
140.151733 684.0 
140.206665 72.0 
140.311203 52.0 
140.33905 80.0 
140.652832 84.0 
140.87854 64.0 
140.894806 104.0 
140.980972 60.0 
141.041443 216.0 
141.055984 408.0 
141.072159 768.0 
141.090714 4124.0 
141.127777 652.0 
141.163773 1200.0 
141.230209 72.0 
141.363037 120.0 
141.398026 108.0 
141.570663 56.0 
142.048355 436.0 
142.086655 3388.0 
142.124146 132.0 
142.133499 120.0 
142.164917 172.0 
142.175598 96.0 
142.201279 196.0 
142.231064 116.0 
142.82869 124.0 
142.952972 56.0 
143.047821 96.0 
143.063141 136.0 
143.081665 536.0 
143.10376 284.0 
143.141129 396.0 
143.153397 152.0 
143.168701 148.0 
143.30722 64.0 
143.560867 60.0 
143.77005 64.0 
143.807663 88.0 
143.922943 56.0 
144.066437 276.0 
144.085251 160.0 
144.10173 180.0 
144.113525 116.0 
144.141754 136.0 
144.151199 100.0 
144.170029 104.0 
144.257156 124.0 
144.834793 84.0 
144.846588 96.0 
144.978775 108.0 
145.042542 104.0 
145.068771 112.0 
145.080292 192.0 
145.101929 528.0 
145.226791 140.0 
145.501099 52.0 
145.751938 52.0 
145.837158 96.0 
146.04599 308.0 
146.078979 132.0 
146.109558 264.0 
146.216339 52.0 
146.474884 84.0 
146.498627 76.0 
146.643448 76.0 
146.766953 88.0 
147.004608 96.0 
147.028381 96.0 
147.054596 128.0 
147.076126 19400.0 
147.116074 3920.0 
147.403549 96.0 
147.463821 132.0 
147.494781 140.0 
147.556732 76.0 
147.683029 56.0 
147.902344 76.0 
148.040649 160.0 
148.058426 740.0 
148.078415 1144.0 
148.094391 100.0 
148.107239 252.0 
148.122437 544.0 
148.157593 136.0 
148.202179 176.0 
148.296097 76.0 
148.322357 112.0 
148.427429 184.0 
148.513504 64.0 
148.60434 56.0 
148.836273 100.0 
149.054962 204.0 
149.069275 1448.0 
149.096024 620.0 
149.132156 14848.0 
149.188171 72.0 
149.245834 60.0 
149.322311 132.0 
149.376663 120.0 
149.387039 76.0 
150.025208 200.0 
150.037247 144.0 
150.053604 372.0 
150.069824 232.0 
150.092728 332.0 
150.135681 2292.0 
150.453125 60.0 
150.525269 96.0 
150.688904 120.0 
150.830994 68.0 
150.845428 80.0 
150.871902 132.0 
150.89653 92.0 
150.912888 72.0 
150.96347 84.0 
151.023743 52.0 
151.049759 7256.0 
151.074982 4464.0 
151.111557 3536.0 
151.147827 7128.0 
151.187653 60.0 
151.199677 104.0 
151.243073 128.0 
151.279266 84.0 
151.305801 84.0 
151.317856 80.0 
151.327499 100.0 
151.353119 84.0 
151.428864 52.0 
151.508484 92.0 
151.551941 72.0 
151.580933 56.0 
151.590561 88.0 
151.791016 108.0 
151.807938 80.0 
152.00856 60.0 
152.020645 68.0 
152.053131 1144.0 
152.071228 1732.0 
152.113388 1132.0 
152.150635 1248.0 
152.17543 64.0 
152.262527 72.0 
152.376236 120.0 
152.477951 84.0 
152.55806 104.0 
152.608749 60.0 
152.737152 80.0 
152.758942 120.0 
152.829224 164.0 
152.894714 104.0 
152.994171 64.0 
153.023254 92.0 
153.065521 28788.0 
153.090454 660.0 
153.127502 2304.0 
153.163315 2444.0 
153.212509 116.0 
153.265945 68.0 
153.341202 96.0 
153.433487 104.0 
153.443176 140.0 
153.564682 88.0 
153.693497 104.0 
153.729965 116.0 
153.841873 56.0 
153.868576 136.0 
154.006317 172.0 
154.049728 3052.0 
154.068069 2084.0 
154.085205 1528.0 
154.128647 184.0 
154.136337 184.0 
154.166763 344.0 
154.180115 84.0 
154.299469 60.0 
154.601639 92.0 
154.674774 144.0 
154.689423 100.0 
154.952911 172.0 
155.013992 88.0 
155.044922 692.0 
155.067825 136.0 
155.078934 276.0 
155.088226 256.0 
155.105942 1560.0 
155.141693 680.0 
155.177139 560.0 
155.270447 92.0 
155.446457 56.0 
155.532043 60.0 
155.830505 112.0 
155.864777 124.0 
156.026062 112.0 
156.05162 208.0 
156.065552 660.0 
156.100571 868.0 
156.144699 172.0 
156.183044 260.0 
156.215103 68.0 
156.413666 112.0 
156.58786 80.0 
156.690918 124.0 
156.833328 92.0 
156.89476 56.0 
157.061432 524.0 
157.097122 11864.0 
157.157181 480.0 
157.173645 88.0 
157.215485 80.0 
157.265778 140.0 
157.31839 68.0 
157.334747 56.0 
157.457062 120.0 
157.495743 84.0 
157.61911 192.0 
157.657089 132.0 
157.691559 120.0 
157.750687 88.0 
157.785172 96.0 
157.797485 104.0 
157.969971 80.0 
158.009415 88.0 
158.044342 17032.0 
158.081177 13376.0 
158.100876 940.0 
158.121475 96.0 
158.163284 108.0 
158.242004 112.0 
158.28067 104.0 
158.368042 144.0 
158.52504 52.0 
158.542313 64.0 
158.57933 88.0 
158.695404 116.0 
158.927704 104.0 
158.945038 68.0 
159.006836 88.0 
159.047745 1040.0 
159.082886 896.0 
159.115509 284.0 
159.150299 68.0 
159.239349 100.0 
159.298782 60.0 
159.350754 56.0 
159.371979 108.0 
159.556244 116.0 
159.744537 148.0 
159.977615 116.0 
160.01236 88.0 
160.047455 228.0 
160.069397 108.0 
160.085251 192.0 
160.09726 572.0 
160.111908 192.0 
160.122681 104.0 
160.569275 124.0 
160.628113 128.0 
160.831985 104.0 
160.946426 68.0 
161.033478 104.0 
161.055878 108.0 
161.070694 236.0 
161.096725 208.0 
161.131348 3284.0 
161.235123 100.0 
161.292419 60.0 
161.656235 64.0 
161.735977 128.0 
161.828781 100.0 
161.855743 84.0 
161.96553 88.0 
162.05748 100.0 
162.076767 152.0 
162.091522 204.0 
162.100449 412.0 
162.137878 696.0 
162.667511 192.0 
162.682571 80.0 
162.722595 96.0 
162.825775 152.0 
162.840195 72.0 
162.890213 132.0 
162.992874 72.0 
163.005356 132.0 
163.047272 468.0 
163.072784 248.0 
163.087219 576.0 
163.109116 676.0 
163.147751 6984.0 
163.220795 56.0 
163.313446 144.0 
163.358551 168.0 
163.594269 100.0 
163.649414 180.0 
163.777405 116.0 
163.827591 144.0 
163.935593 52.0 
164.041016 108.0 
164.055359 236.0 
164.066803 344.0 
164.078674 152.0 
164.108414 120.0 
164.128922 140.0 
164.151871 1236.0 
164.176697 80.0 
164.345047 140.0 
164.441772 96.0 
164.579636 168.0 
164.722366 128.0 
164.73999 108.0 
164.868378 120.0 
164.994278 140.0 
165.052216 140.0 
165.066864 272.0 
165.07579 128.0 
165.088806 1240.0 
165.127426 2200.0 
165.163177 4628.0 
165.190857 64.0 
165.211014 76.0 
165.226135 84.0 
165.236176 140.0 
165.275146 76.0 
165.289154 84.0 
165.483322 116.0 
165.601898 136.0 
165.758408 100.0 
165.786194 76.0 
165.831604 172.0 
165.859436 64.0 
165.874557 120.0 
165.904831 180.0 
165.970566 80.0 
166.021103 72.0 
166.048874 352.0 
166.086563 528.0 
166.133255 220.0 
166.149963 116.0 
166.166748 1404.0 
166.198044 52.0 
166.314331 80.0 
166.347855 160.0 
166.531876 100.0 
166.597687 76.0 
166.607788 108.0 
166.673569 192.0 
166.69133 108.0 
166.748138 108.0 
166.76561 96.0 
166.853867 344.0 
166.878723 120.0 
166.903564 256.0 
166.92099 60.0 
166.95105 68.0 
166.975876 224.0 
166.990234 84.0 
167.02388 148.0 
167.033279 156.0 
167.051041 116.0 
167.081741 367108.0 
167.123154 284.0 
167.144547 996.0 
167.180435 1436.0 
167.204239 108.0 
167.220917 72.0 
167.238647 100.0 
167.275238 160.0 
167.309647 152.0 
167.32872 116.0 
167.342621 144.0 
167.360397 104.0 
167.373077 108.0 
167.42131 76.0 
167.469604 148.0 
167.501419 172.0 
167.538925 172.0 
167.550735 84.0 
167.614212 64.0 
167.645782 92.0 
167.666977 148.0 
167.676712 92.0 
167.756409 80.0 
167.776718 84.0 
167.788376 108.0 
167.810211 68.0 
167.840256 52.0 
167.858017 72.0 
167.901215 68.0 
167.939301 108.0 
168.021439 144.0 
168.035919 72.0 
168.064896 3304.0 
168.084564 29344.0 
168.135681 104.0 
168.15007 188.0 
168.164444 96.0 
168.182343 244.0 
168.224075 76.0 
168.234161 260.0 
168.297852 68.0 
168.371643 52.0 
168.425079 60.0 
168.43779 80.0 
168.573715 84.0 
168.654861 168.0 
168.703522 68.0 
168.799347 120.0 
168.929352 64.0 
169.000717 64.0 
169.065079 616.0 
169.08992 2724.0 
169.121445 612.0 
169.139908 132.0 
169.156418 892.0 
169.193542 608.0 
169.220825 64.0 
169.245911 80.0 
169.25972 92.0 
169.272141 116.0 
169.282135 88.0 
169.296555 84.0 
169.319519 80.0 
169.332581 124.0 
169.351334 104.0 
169.375671 60.0 
169.406281 88.0 
169.42157 136.0 
169.441986 124.0 
169.454773 92.0 
169.521164 76.0 
169.59523 56.0 
169.666718 84.0 
169.733139 84.0 
169.748459 96.0 
169.779129 76.0 
169.960602 76.0 
169.97081 100.0 
170.042328 328.0 
170.080688 4448.0 
170.120972 152.0 
170.13446 112.0 
170.159348 136.0 
170.183075 88.0 
170.208664 92.0 
170.24707 52.0 
170.267471 144.0 
170.287994 68.0 
170.32196 120.0 
170.395508 52.0 
170.449188 192.0 
170.469727 68.0 
170.55162 148.0 
170.833481 92.0 
170.871933 72.0 
171.023224 60.0 
171.077881 1016.0 
171.102295 236.0 
171.12323 84.0 
171.135391 120.0 
171.173462 852.0 
171.290024 68.0 
172.065933 148.0 
172.09761 600.0 
172.117416 96.0 
172.145691 128.0 
172.181671 264.0 
172.199738 100.0 
173.055588 3364.0 
173.091675 100.0 
173.101517 224.0 
173.131729 156.0 
173.215118 92.0 
173.344162 132.0 
173.602432 164.0 
173.669617 144.0 
174.034195 132.0 
174.059387 312.0 
174.096329 80.0 
174.114426 108.0 
174.135117 112.0 
174.60643 72.0 
174.61676 120.0 
174.88118 120.0 
174.922684 100.0 
174.950607 140.0 
175.050644 120.0 
175.071274 220.0 
175.107758 204.0 
175.128738 164.0 
175.146835 2380.0 
175.189865 220.0 
175.296661 156.0 
175.639267 60.0 
175.691208 128.0 
175.751022 84.0 
175.763992 108.0 
176.013657 120.0 
176.054855 556.0 
176.105759 244.0 
176.152634 252.0 
176.16983 72.0 
176.318207 84.0 
176.669907 96.0 
176.810684 80.0 
176.868011 152.0 
177.021896 212.0 
177.06395 420.0 
177.076675 300.0 
177.090881 232.0 
177.111343 236.0 
177.13208 124.0 
177.163818 4296.0 
177.204575 220.0 
177.39006 60.0 
177.400452 116.0 
177.468369 132.0 
177.736847 104.0 
178.02002 96.0 
178.054031 104.0 
178.063873 176.0 
178.090454 436.0 
178.122116 300.0 
178.168884 1076.0 
178.250336 96.0 
178.315796 112.0 
178.397018 56.0 
178.556808 76.0 
178.593475 116.0 
178.769089 132.0 
178.863525 72.0 
178.93428 184.0 
178.976273 156.0 
179.044586 8232.0 
179.0811 12124.0 
179.108017 1192.0 
179.142639 1576.0 
179.179291 3956.0 
179.202438 152.0 
179.283386 88.0 
179.295609 136.0 
179.34375 116.0 
179.511917 56.0 
179.530304 68.0 
179.546036 108.0 
179.593338 96.0 
179.638046 60.0 
179.745819 68.0 
179.787857 92.0 
179.943069 52.0 
180.027206 104.0 
180.048065 984.0 
180.085632 1276.0 
180.11203 1640.0 
180.146118 180.0 
180.185226 516.0 
180.524826 128.0 
180.548523 148.0 
180.574921 80.0 
180.90976 60.0 
180.991501 92.0 
181.038971 112.0 
181.061234 344.0 
181.096085 1872.0 
181.120178 496.0 
181.159164 1284.0 
181.196838 1016.0 
181.215744 236.0 
181.429688 108.0 
181.493103 96.0 
181.593506 96.0 
181.736221 116.0 
182.079651 140.0 
182.097107 304.0 
182.11824 748.0 
182.162033 212.0 
182.198502 300.0 
182.344742 120.0 
182.458618 136.0 
182.478195 104.0 
182.593811 52.0 
182.760773 56.0 
182.835022 52.0 
182.853516 128.0 
182.885345 112.0 
183.001236 160.0 
183.012711 60.0 
183.076431 224.0 
183.103424 196.0 
183.118408 96.0 
183.135941 284.0 
183.174316 1488.0 
183.19574 128.0 
183.207382 208.0 
183.33316 128.0 
183.368332 92.0 
183.490509 92.0 
183.501816 160.0 
183.511719 144.0 
183.564911 64.0 
183.578201 64.0 
183.612717 88.0 
183.671143 156.0 
183.754517 152.0 
183.790771 120.0 
183.817413 56.0 
183.835983 96.0 
183.857208 192.0 
183.86792 68.0 
183.917358 156.0 
183.942352 88.0 
183.958313 92.0 
183.987534 160.0 
184.011505 92.0 
184.051392 132.0 
184.064713 108.0 
184.077072 188.0 
184.097397 1192.0 
184.117645 112.0 
184.135071 248.0 
184.149902 56.0 
184.183945 284.0 
184.205765 80.0 
184.217102 156.0 
184.243042 64.0 
184.256302 132.0 
184.294693 96.0 
184.317535 108.0 
184.329361 84.0 
184.349503 80.0 
184.402145 88.0 
184.417603 92.0 
184.429367 124.0 
184.455063 80.0 
184.487549 204.0 
184.5103 92.0 
184.530533 216.0 
184.561798 172.0 
184.579575 112.0 
184.607834 120.0 
184.623459 104.0 
184.633011 140.0 
184.666443 160.0 
184.68045 132.0 
184.701065 184.0 
184.717682 156.0 
184.759735 112.0 
184.773453 64.0 
184.792252 356.0 
184.821777 96.0 
184.837967 148.0 
184.854813 132.0 
184.871719 92.0 
184.884995 204.0 
184.89801 128.0 
184.922882 236.0 
184.942581 124.0 
184.952637 208.0 
184.96698 132.0 
184.992325 208.0 
185.015701 148.0 
185.028809 76.0 
185.053406 300.0 
185.063187 292.0 
185.092804 774172.0 
185.137115 164.0 
185.157135 484.0 
185.168655 152.0 
185.186188 404.0 
185.228729 168.0 
185.246933 192.0 
185.259048 188.0 
185.27684 60.0 
185.308228 192.0 
185.320755 136.0 
185.332214 88.0 
185.352798 216.0 
185.371155 116.0 
185.401917 108.0 
185.417191 156.0 
185.435608 136.0 
185.447403 164.0 
185.458786 88.0 
185.476151 76.0 
185.505005 256.0 
185.532242 1256.0 
185.562897 160.0 
185.584061 248.0 
185.611877 168.0 
185.62709 56.0 
185.668198 92.0 
185.690521 188.0 
185.701828 168.0 
185.720596 72.0 
185.738281 80.0 
185.756882 52.0 
185.775528 52.0 
185.790802 76.0 
185.82872 68.0 
185.839493 88.0 
185.864929 88.0 
185.883667 60.0 
185.913071 68.0 
185.929108 76.0 
185.945938 140.0 
185.982666 112.0 
186.02269 92.0 
186.058105 172.0 
186.076111 4888.0 
186.095459 52172.0 
186.130753 144.0 
186.141876 116.0 
186.154404 244.0 
186.185913 56.0 
186.196548 128.0 
186.228714 68.0 
186.268829 92.0 
186.287552 104.0 
186.332108 84.0 
186.350098 68.0 
186.362534 72.0 
186.372543 60.0 
186.464294 56.0 
186.498383 60.0 
186.574844 64.0 
186.63031 88.0 
186.710663 128.0 
186.7509 72.0 
186.764313 68.0 
186.965302 156.0 
187.080475 408.0 
187.096527 5716.0 
187.138504 204.0 
187.167145 68.0 
187.185287 72.0 
187.207504 84.0 
187.245255 132.0 
187.263046 140.0 
187.277344 96.0 
187.289185 120.0 
187.313049 120.0 
187.324799 104.0 
187.342163 116.0 
187.364807 248.0 
187.383286 136.0 
187.40004 232.0 
187.419403 68.0 
187.440216 128.0 
187.457886 248.0 
187.468826 128.0 
187.48584 148.0 
187.529877 112.0 
187.542252 116.0 
187.558411 68.0 
187.579834 136.0 
187.589539 116.0 
187.609421 88.0 
187.628235 72.0 
187.714783 64.0 
187.745102 60.0 
187.878143 52.0 
187.88884 128.0 
187.945343 56.0 
187.971359 68.0 
188.004471 72.0 
188.020615 64.0 
188.077057 96.0 
188.088516 240.0 
188.098511 240.0 
188.152374 80.0 
188.200806 76.0 
188.211563 88.0 
188.283646 144.0 
188.34877 104.0 
188.362274 52.0 
188.391846 100.0 
188.634171 80.0 
188.709579 96.0 
188.720398 56.0 
188.855072 100.0 
188.903595 92.0 
189.03299 88.0 
189.068008 144.0 
189.082642 152.0 
189.1306 140.0 
189.163025 1868.0 
189.264923 96.0 
189.661713 92.0 
189.780579 60.0 
189.856186 116.0 
190.01297 72.0 
190.085876 212.0 
190.099411 184.0 
190.118622 144.0 
190.163712 496.0 
190.459274 52.0 
190.581039 88.0 
190.689331 92.0 
190.724533 100.0 
190.808472 136.0 
190.992737 92.0 
191.036102 100.0 
191.08905 296.0 
191.105179 244.0 
191.135971 124.0 
191.144272 104.0 
191.179337 4020.0 
191.272003 64.0 
191.394073 60.0 
191.451019 100.0 
191.88327 112.0 
192.029358 140.0 
192.040237 124.0 
192.056595 68.0 
192.072861 108.0 
192.099106 100.0 
192.135391 88.0 
192.182999 820.0 
192.30397 72.0 
192.597778 68.0 
192.714798 96.0 
192.820969 116.0 
192.913559 108.0 
192.957108 164.0 
193.05809 88.0 
193.097382 128.0 
193.119583 856.0 
193.158279 1556.0 
193.194748 4072.0 
193.246948 144.0 
193.410858 88.0 
193.499649 52.0 
193.745193 92.0 
193.829803 100.0 
193.914429 148.0 
193.971832 60.0 
194.020966 104.0 
194.064667 108.0 
194.076523 328.0 
194.092209 244.0 
194.120865 312.0 
194.159836 344.0 
194.197433 800.0 
194.214935 112.0 
194.297485 100.0 
194.357101 84.0 
194.649765 56.0 
194.699005 56.0 
194.876892 64.0 
195.032974 60.0 
195.075317 2696.0 
195.10083 256.0 
195.119232 132.0 
195.134872 132.0 
195.173569 1188.0 
195.213776 696.0 
195.287704 104.0 
195.486969 112.0 
195.556396 52.0 
195.641418 52.0 
195.731934 64.0 
195.753799 172.0 
196.035828 76.0 
196.079559 412.0 
196.107376 524.0 
196.133011 104.0 
196.164398 100.0 
196.180435 120.0 
196.201324 84.0 
196.217896 212.0 
196.448639 72.0 
196.506332 96.0 
196.602585 72.0 
196.63829 108.0 
196.924408 84.0 
197.056488 120.0 
197.06871 144.0 
197.09111 4052.0 
197.13356 144.0 
197.151611 292.0 
197.190231 1552.0 
197.230515 100.0 
197.362198 76.0 
197.436539 140.0 
197.549591 56.0 
197.568832 120.0 
197.632248 96.0 
197.690186 56.0 
197.839111 52.0 
197.957672 120.0 
198.001862 60.0 
198.048737 108.0 
198.073441 216.0 
198.094086 624.0 
198.108032 376.0 
198.121628 120.0 
198.150833 152.0 
198.190887 152.0 
198.222641 92.0 
198.239212 96.0 
198.310989 116.0 
198.38559 80.0 
198.573441 96.0 
198.902374 152.0 
199.072937 804.0 
199.087128 188.0 
199.117188 124.0 
199.148209 108.0 
199.169434 396.0 
199.183029 164.0 
199.206284 452.0 
199.325775 88.0 
199.347946 76.0 
199.588913 56.0 
199.613846 56.0 
199.796738 72.0 
199.835526 92.0 
199.982513 52.0 
200.13501 112.0 
200.169388 132.0 
200.223816 76.0 
200.290405 92.0 
200.743073 56.0 
201.062714 56.0 
201.086487 320.0 
201.099167 308.0 
201.132202 80.0 
201.148865 124.0 
201.16832 132.0 
201.185028 96.0 
201.557892 132.0 
201.747269 112.0 
202.094208 128.0 
202.20993 84.0 
202.380478 108.0 
202.41629 124.0 
202.804291 112.0 
202.815506 68.0 
202.840607 108.0 
203.072495 88.0 
203.086426 136.0 
203.097656 76.0 
203.119644 172.0 
203.136826 132.0 
203.149292 168.0 
203.180634 952.0 
203.251404 68.0 
203.296112 88.0 
203.81926 148.0 
204.079758 76.0 
204.096558 96.0 
204.107712 184.0 
204.135773 108.0 
204.182434 268.0 
204.292755 56.0 
204.550629 116.0 
204.648849 76.0 
204.808792 60.0 
204.965958 88.0 
205.058182 148.0 
205.097931 76.0 
205.111954 100.0 
205.126022 76.0 
205.142868 76.0 
205.158066 144.0 
205.194778 4628.0 
205.387299 76.0 
205.40979 72.0 
205.589722 60.0 
205.817505 88.0 
205.935654 124.0 
206.048233 120.0 
206.06514 100.0 
206.092865 1224.0 
206.115829 76.0 
206.19812 656.0 
206.301682 80.0 
206.343918 100.0 
206.479172 68.0 
206.507294 160.0 
206.735687 56.0 
207.049988 104.0 
207.076218 13152.0 
207.116455 100.0 
207.141388 220.0 
207.15596 120.0 
207.17366 884.0 
207.210022 3432.0 
207.280197 88.0 
207.364914 72.0 
207.53714 156.0 
207.58522 76.0 
207.689774 76.0 
207.81134 60.0 
207.972473 92.0 
208.017761 52.0 
208.079666 1360.0 
208.106659 740.0 
208.132416 332.0 
208.170029 212.0 
208.183411 148.0 
208.211792 612.0 
208.323273 112.0 
208.517151 68.0 
208.532745 148.0 
209.084808 428.0 
209.109985 208.0 
209.130676 152.0 
209.150665 256.0 
209.188995 1388.0 
209.212158 316.0 
209.237869 188.0 
209.698303 72.0 
210.076141 76.0 
210.194534 268.0 
210.221008 344.0 
210.357635 68.0 
210.43721 136.0 
210.565308 64.0 
210.642105 116.0 
210.707611 64.0 
210.778748 92.0 
210.810104 60.0 
210.923981 84.0 
211.036728 204.0 
211.075516 308.0 
211.134705 232.0 
211.146179 88.0 
211.170868 432.0 
211.206741 1928.0 
211.388428 124.0 
211.628036 68.0 
211.710785 60.0 
211.921951 80.0 
212.064713 92.0 
212.090637 368.0 
212.127213 112.0 
212.160324 100.0 
212.178925 112.0 
212.209793 720.0 
212.242859 136.0 
212.336105 64.0 
212.839325 72.0 
212.850769 68.0 
213.053879 144.0 
213.087494 168.0 
213.125443 144.0 
213.145523 92.0 
213.187592 172.0 
213.220184 736.0 
213.277252 80.0 
214.065521 96.0 
214.115829 96.0 
214.129044 112.0 
214.234085 92.0 
214.346786 88.0 
214.751801 84.0 
214.815048 56.0 
214.950134 76.0 
215.104202 84.0 
215.152237 124.0 
215.186981 128.0 
215.338394 124.0 
215.969055 128.0 
216.107422 112.0 
216.234268 148.0 
216.796997 72.0 
217.010712 72.0 
217.080765 800.0 
217.089783 376.0 
217.120453 116.0 
217.146484 92.0 
217.157959 228.0 
217.171417 116.0 
217.193665 1492.0 
217.264999 68.0 
217.666962 68.0 
217.730576 104.0 
218.043259 56.0 
218.083679 232.0 
218.099991 116.0 
218.154434 188.0 
218.196106 224.0 
218.292282 136.0 
218.306824 64.0 
218.593735 88.0 
218.869247 96.0 
219.101395 96.0 
219.118729 260.0 
219.133331 100.0 
219.162354 112.0 
219.179749 128.0 
219.210999 2396.0 
219.478943 64.0 
219.525375 112.0 
219.557404 52.0 
219.795746 52.0 
219.845108 100.0 
219.938202 64.0 
219.975952 120.0 
220.141785 104.0 
220.170929 60.0 
220.21846 416.0 
220.345505 96.0 
220.888489 124.0 
221.084076 116.0 
221.098511 76.0 
221.136765 108.0 
221.151382 408.0 
221.190262 1272.0 
221.226105 3324.0 
221.423874 76.0 
221.581421 140.0 
222.087357 824.0 
222.118881 92.0 
222.146255 140.0 
222.16568 68.0 
222.188263 280.0 
222.231857 768.0 
222.265076 64.0 
222.341034 132.0 
222.788605 184.0 
222.92337 56.0 
223.069458 2068.0 
223.099594 152.0 
223.125366 140.0 
223.14151 620.0 
223.167923 240.0 
223.182053 140.0 
223.203659 1768.0 
223.238419 220.0 
223.400833 88.0 
223.462402 76.0 
223.512238 80.0 
224.022629 104.0 
224.073257 360.0 
224.102951 2232.0 
224.153351 440.0 
224.203568 380.0 
224.220139 196.0 
224.239624 212.0 
224.272186 88.0 
224.445526 56.0 
224.942276 72.0 
225.033493 52.0 
225.08725 6772.0 
225.159546 84.0 
225.175171 132.0 
225.189835 332.0 
225.219727 444.0 
225.257065 88.0 
225.413101 68.0 
225.42482 136.0 
225.713425 180.0 
225.81665 64.0 
225.857864 100.0 
225.884369 124.0 
226.02887 56.0 
226.089264 1168.0 
226.115097 140.0 
226.144669 100.0 
226.178375 100.0 
226.1978 128.0 
226.223145 360.0 
226.249908 292.0 
226.259552 164.0 
226.583435 92.0 
227.056015 56.0 
227.079636 76.0 
227.091446 84.0 
227.109161 88.0 
227.144714 112.0 
227.166763 136.0 
227.180984 128.0 
227.197342 188.0 
227.208313 392.0 
227.221344 100.0 
227.265808 96.0 
227.381149 72.0 
227.600021 68.0 
228.183167 116.0 
228.239502 60.0 
228.283951 60.0 
228.725571 120.0 
228.764633 100.0 
228.888779 52.0 
229.007431 84.0 
229.080154 120.0 
229.114258 100.0 
229.133484 156.0 
229.185501 100.0 
229.363647 120.0 
229.556747 92.0 
230.094818 108.0 
230.121582 120.0 
230.142426 96.0 
230.243561 128.0 
230.731796 156.0 
231.131104 176.0 
231.152084 56.0 
231.181 228.0 
231.210464 1752.0 
231.271271 132.0 
231.31897 156.0 
231.363754 104.0 
231.411545 52.0 
231.524887 64.0 
231.835327 60.0 
232.116028 96.0 
232.157867 92.0 
232.212082 232.0 
232.621216 108.0 
232.755814 108.0 
232.842621 76.0 
232.959305 112.0 
233.125854 52.0 
233.150909 96.0 
233.177155 84.0 
233.189255 148.0 
233.204056 108.0 
233.224991 2208.0 
233.255676 148.0 
233.288681 76.0 
233.484177 60.0 
234.014038 124.0 
234.089981 128.0 
234.196182 124.0 
234.227585 516.0 
234.252411 104.0 
234.632492 52.0 
234.698502 124.0 
234.755569 148.0 
234.824753 60.0 
234.836761 72.0 
235.067307 344.0 
235.088623 76.0 
235.101212 164.0 
235.133102 184.0 
235.15239 80.0 
235.176346 248.0 
235.203644 1948.0 
235.240814 2208.0 
235.270554 112.0 
235.417053 128.0 
235.53746 84.0 
235.862579 116.0 
236.05542 56.0 
236.108231 104.0 
236.132797 204.0 
236.146927 164.0 
236.160721 104.0 
236.172821 224.0 
236.207443 564.0 
236.244064 428.0 
236.356796 68.0 
236.44722 92.0 
237.047653 96.0 
237.156357 92.0 
237.183868 188.0 
237.204681 88.0 
237.224136 436.0 
237.258835 132.0 
237.304321 148.0 
237.340637 76.0 
237.355759 64.0 
237.570282 76.0 
237.651932 56.0 
237.670029 88.0 
237.807648 100.0 
237.863556 84.0 
237.933167 52.0 
238.118378 92.0 
238.178162 128.0 
238.224106 344.0 
238.253693 832.0 
238.447571 144.0 
238.665741 56.0 
238.699051 60.0 
238.871719 116.0 
239.068756 116.0 
239.106796 92.0 
239.142365 144.0 
239.168869 76.0 
239.200974 368.0 
239.237427 504.0 
239.248337 280.0 
239.372116 64.0 
239.630035 96.0 
239.690781 76.0 
239.724167 84.0 
239.948883 96.0 
239.985291 152.0 
240.096848 192.0 
240.155457 140.0 
240.167404 104.0 
240.202499 108.0 
240.237961 100.0 
240.269363 216.0 
240.775833 96.0 
241.040649 76.0 
241.077164 108.0 
241.089569 104.0 
241.116714 136.0 
241.128937 88.0 
241.150238 100.0 
241.218002 208.0 
241.258392 120.0 
241.36351 56.0 
241.427444 100.0 
241.515793 116.0 
241.616409 76.0 
242.012848 64.0 
242.113373 3092.0 
242.296585 132.0 
242.656921 104.0 
242.858566 116.0 
242.962479 128.0 
243.038925 92.0 
243.119705 480.0 
243.182632 96.0 
243.21933 92.0 
243.549728 104.0 
243.822174 108.0 
244.114594 128.0 
244.211212 100.0 
244.714081 72.0 
245.128357 92.0 
245.188599 192.0 
245.202087 68.0 
245.22905 772.0 
245.367859 136.0 
245.401688 92.0 
245.45845 192.0 
246.124161 64.0 
246.185654 104.0 
246.23201 116.0 
246.308777 76.0 
246.786011 96.0 
246.95549 80.0 
246.977081 68.0 
246.989426 60.0 
247.066406 120.0 
247.093369 888.0 
247.140091 288.0 
247.168137 116.0 
247.203445 524.0 
247.242828 4048.0 
247.301559 128.0 
247.513626 56.0 
247.572174 112.0 
247.584595 52.0 
247.621552 116.0 
247.994125 88.0 
248.090805 128.0 
248.106277 96.0 
248.205734 100.0 
248.221725 116.0 
248.244156 1208.0 
248.712021 132.0 
248.770859 64.0 
248.900726 104.0 
248.968796 112.0 
249.084213 192.0 
249.143906 144.0 
249.186737 332.0 
249.218536 2100.0 
249.257904 3844.0 
249.312393 88.0 
249.365051 76.0 
249.749207 56.0 
250.08255 1108.0 
250.102509 176.0 
250.117157 416.0 
250.174408 120.0 
250.19249 128.0 
250.223083 496.0 
250.261444 1156.0 
250.332123 92.0 
250.468628 116.0 
250.959229 116.0 
251.063904 88.0 
251.091858 320.0 
251.107788 144.0 
251.122055 212.0 
251.135345 204.0 
251.148788 88.0 
251.205368 184.0 
251.23616 1540.0 
251.272583 608.0 
251.76442 184.0 
251.848557 56.0 
251.867188 88.0 
252.066315 224.0 
252.097977 240.0 
252.134979 120.0 
252.162888 132.0 
252.198502 168.0 
252.23909 352.0 
252.268784 692.0 
252.302979 236.0 
252.412064 136.0 
252.642685 116.0 
252.689484 68.0 
252.923325 80.0 
253.081253 2620.0 
253.119843 80.0 
253.135437 84.0 
253.150986 128.0 
253.176041 52.0 
253.190216 172.0 
253.216019 420.0 
253.250336 368.0 
253.270081 348.0 
253.286331 376.0 
253.298157 152.0 
253.500641 56.0 
254.009811 60.0 
254.083771 504.0 
254.106659 96.0 
254.119186 80.0 
254.178528 144.0 
254.209061 156.0 
254.218536 324.0 
254.259796 172.0 
254.273575 84.0 
254.293137 228.0 
254.319305 72.0 
254.331802 76.0 
254.506927 120.0 
254.625854 84.0 
254.70723 68.0 
254.788544 144.0 
254.801132 72.0 
254.938858 84.0 
255.004608 100.0 
255.060837 84.0 
255.089142 120.0 
255.176895 72.0 
255.222473 116.0 
255.289581 212.0 
255.471436 76.0 
255.508987 136.0 
255.546692 60.0 
255.590546 84.0 
256.114319 144.0 
256.133209 80.0 
256.277557 120.0 
256.484833 80.0 
257.082153 92.0 
257.118408 132.0 
257.192871 172.0 
257.239014 208.0 
257.446655 172.0 
257.657623 64.0 
257.846527 56.0 
257.884247 104.0 
257.909424 128.0 
258.101624 80.0 
258.123657 104.0 
258.224457 136.0 
258.457703 116.0 
258.551025 100.0 
258.659515 112.0 
258.832977 132.0 
259.148651 52.0 
259.208527 164.0 
259.239594 560.0 
259.244293 408.0 
259.653992 56.0 
259.682373 120.0 
260.039642 56.0 
260.245392 236.0 
260.492035 68.0 
260.723114 84.0 
260.751617 64.0 
260.909973 68.0 
260.963745 140.0 
261.058868 72.0 
261.087341 100.0 
261.218536 236.0 
261.228455 224.0 
261.257599 23776.0 
261.312317 152.0 
261.344086 84.0 
261.359955 68.0 
261.378937 92.0 
261.426544 56.0 
261.480469 60.0 
261.559692 84.0 
261.680145 184.0 
261.727814 76.0 
261.911865 84.0 
261.943573 116.0 
261.975372 52.0 
261.988068 64.0 
262.099121 108.0 
262.111786 128.0 
262.124451 176.0 
262.164001 60.0 
262.226105 108.0 
262.261261 5316.0 
262.295959 128.0 
262.400818 92.0 
262.515137 128.0 
262.674133 52.0 
263.0047 108.0 
263.042877 80.0 
263.063232 112.0 
263.097992 316.0 
263.200439 188.0 
263.236664 1916.0 
263.273621 16396.0 
263.308685 264.0 
263.329163 104.0 
263.341949 68.0 
263.36615 156.0 
263.402435 56.0 
263.418243 136.0 
263.453308 84.0 
263.587036 72.0 
263.704742 184.0 
263.746216 96.0 
263.76532 116.0 
263.860931 64.0 
263.991547 52.0 
264.023315 136.0 
264.131744 68.0 
264.171753 152.0 
264.200104 188.0 
264.234467 552.0 
264.275574 3624.0 
264.31015 172.0 
264.37262 148.0 
264.511108 80.0 
264.533417 112.0 
264.590881 64.0 
264.858795 156.0 
264.874786 120.0 
265.01709 104.0 
265.110992 140.0 
265.135162 80.0 
265.168457 160.0 
265.197266 80.0 
265.213043 260.0 
265.250854 1260.0 
265.275146 552.0 
265.292786 332.0 
265.548645 88.0 
265.81073 104.0 
266.092163 92.0 
266.108978 268.0 
266.168976 76.0 
266.216949 96.0 
266.248169 120.0 
266.261993 196.0 
266.280945 92.0 
266.437744 120.0 
266.658661 96.0 
266.857269 72.0 
266.886139 52.0 
267.062317 76.0 
267.158447 100.0 
267.196777 92.0 
267.232819 616.0 
267.268219 3656.0 
267.304688 104.0 
267.344391 96.0 
267.652313 76.0 
267.694031 76.0 
267.719727 52.0 
267.799896 80.0 
267.848083 56.0 
268.09137 1196.0 
268.185089 108.0 
268.210876 52.0 
268.223633 120.0 
268.24292 104.0 
268.274536 776.0 
268.296967 204.0 
268.39386 116.0 
268.483887 68.0 
268.628479 84.0 
268.683105 108.0 
268.740936 140.0 
268.789124 184.0 
268.985321 136.0 
269.001404 132.0 
269.094604 232.0 
269.200836 128.0 
269.223419 80.0 
269.243439 184.0 
269.275238 248.0 
269.294159 112.0 
269.31662 212.0 
269.390747 92.0 
269.56134 116.0 
270.044525 84.0 
270.109406 136.0 
270.125092 84.0 
270.141266 56.0 
270.202423 108.0 
270.22821 128.0 
270.592682 56.0 
270.682892 156.0 
271.07666 152.0 
271.089478 88.0 
271.157379 128.0 
271.183197 152.0 
271.254272 152.0 
271.603271 72.0 
272.078522 76.0 
272.146393 136.0 
272.250031 56.0 
272.690125 204.0 
273.098358 116.0 
273.124329 76.0 
273.215302 108.0 
273.253143 276.0 
273.707977 88.0 
273.792297 104.0 
274.214325 68.0 
274.240204 180.0 
274.264191 88.0 
274.403564 112.0 
274.496857 116.0 
274.912933 72.0 
274.987701 92.0 
275.192627 72.0 
275.233582 196.0 
275.249969 432.0 
275.271851 1392.0 
275.449707 60.0 
275.465942 80.0 
275.908722 136.0 
276.032593 64.0 
276.094482 68.0 
276.239532 104.0 
276.25412 108.0 
276.28067 192.0 
276.312836 76.0 
276.358368 184.0 
276.374725 108.0 
276.462799 72.0 
276.563904 64.0 
276.619354 56.0 
276.67807 52.0 
276.886841 72.0 
276.929291 64.0 
277.023926 64.0 
277.072876 60.0 
277.123199 120.0 
277.214081 564.0 
277.252014 1720.0 
277.289581 7928.0 
277.33844 164.0 
277.376434 148.0 
277.554535 72.0 
277.608368 148.0 
277.693359 104.0 
277.745728 60.0 
277.781586 144.0 
277.798004 56.0 
277.811096 60.0 
277.824158 64.0 
277.938538 88.0 
277.974518 68.0 
278.056213 100.0 
278.101898 272.0 
278.12323 96.0 
278.211487 160.0 
278.222931 220.0 
278.256989 560.0 
278.291687 2848.0 
278.337555 76.0 
278.386658 52.0 
278.461853 88.0 
278.537109 100.0 
278.582947 80.0 
278.69754 80.0 
278.812134 72.0 
278.85141 88.0 
278.897308 52.0 
278.916931 60.0 
278.992249 84.0 
279.02832 60.0 
279.093811 76.0 
279.106842 148.0 
279.118561 160.0 
279.17746 96.0 
279.195312 116.0 
279.2117 184.0 
279.268402 39372.0 
279.337128 108.0 
279.347351 104.0 
279.370514 72.0 
279.390198 120.0 
279.440033 68.0 
279.45752 124.0 
279.503479 60.0 
279.588654 116.0 
279.620972 112.0 
279.647705 92.0 
279.664093 92.0 
279.700226 60.0 
279.788757 72.0 
279.805145 84.0 
279.847809 80.0 
279.877319 76.0 
280.031525 76.0 
280.05127 52.0 
280.070892 100.0 
280.127655 224.0 
280.164917 2484.0 
280.221863 124.0 
280.234619 256.0 
280.271423 8392.0 
280.330231 92.0 
280.359772 88.0 
280.402435 124.0 
280.432007 108.0 
280.58667 88.0 
280.724426 52.0 
280.748199 88.0 
280.803253 72.0 
281.000458 68.0 
281.029938 164.0 
281.0513 108.0 
281.116333 380.0 
281.16687 308.0 
281.207581 60.0 
281.244843 284.0 
281.283417 4772.0 
281.424622 104.0 
281.602325 72.0 
281.730591 172.0 
281.748444 68.0 
281.766876 80.0 
281.872162 156.0 
281.957855 60.0 
281.984161 80.0 
282.023621 144.0 
282.126984 216.0 
282.160553 92.0 
282.174286 316.0 
282.199707 104.0 
282.221222 208.0 
282.246643 240.0 
282.290314 820.0 
282.346497 92.0 
282.461853 76.0 
282.521149 112.0 
282.827759 116.0 
282.91687 80.0 
282.93988 136.0 
282.999268 124.0 
283.205017 72.0 
283.2435 84.0 
283.258698 112.0 
283.283691 136.0 
283.294952 156.0 
283.323334 124.0 
284.126648 104.0 
284.148468 100.0 
284.227844 92.0 
284.270721 224.0 
284.297241 108.0 
284.32373 88.0 
284.363373 112.0 
284.479156 76.0 
284.939117 72.0 
285.06485 136.0 
285.242096 184.0 
285.258545 352.0 
285.402649 144.0 
286.025848 96.0 
286.135315 76.0 
286.236877 60.0 
286.253906 120.0 
286.35434 52.0 
286.437225 108.0 
286.473755 96.0 
286.536835 92.0 
286.553406 104.0 
286.779205 80.0 
286.895447 80.0 
286.958527 104.0 
286.995117 72.0 
287.104767 64.0 
287.137939 124.0 
287.150024 96.0 
287.177002 116.0 
287.23764 104.0 
287.274078 23292.0 
287.319061 208.0 
287.353973 96.0 
287.370667 60.0 
287.395813 76.0 
287.409698 84.0 
287.495514 92.0 
287.669922 68.0 
287.720856 120.0 
287.758392 104.0 
287.806244 108.0 
287.862823 96.0 
287.939362 92.0 
288.050262 64.0 
288.23288 124.0 
288.276947 5984.0 
288.312775 220.0 
288.57196 76.0 
288.686584 76.0 
288.735168 112.0 
288.835205 64.0 
288.921814 84.0 
288.9552 60.0 
289.008484 100.0 
289.068451 136.0 
289.1185 92.0 
289.247559 184.0 
289.261902 92.0 
289.28775 1348.0 
289.425354 100.0 
289.545471 96.0 
289.919373 52.0 
290.072845 224.0 
290.136444 64.0 
290.154449 140.0 
290.19986 100.0 
290.239014 92.0 
290.249908 144.0 
290.288025 540.0 
290.310944 68.0 
290.493866 152.0 
290.617493 224.0 
290.888489 64.0 
290.995514 72.0 
291.052368 76.0 
291.079163 60.0 
291.23233 368.0 
291.265778 1148.0 
291.306702 220.0 
291.624023 140.0 
291.855774 128.0 
292.026764 56.0 
292.127289 64.0 
292.164062 128.0 
292.22406 376.0 
292.234833 380.0 
292.264221 280.0 
292.27533 644.0 
292.301727 628.0 
292.881866 88.0 
292.912079 88.0 
293.240509 120.0 
293.283447 1620.0 
293.365265 140.0 
293.489655 60.0 
293.724823 92.0 
294.05423 128.0 
294.108185 584.0 
294.229126 144.0 
294.242554 164.0 
294.279999 472.0 
294.316345 104.0 
294.35025 108.0 
294.451263 52.0 
294.471466 52.0 
294.996582 104.0 
295.109283 84.0 
295.202087 100.0 
295.220734 208.0 
295.239502 180.0 
295.26474 392.0 
295.299896 6052.0 
295.353699 128.0 
295.478485 64.0 
295.539154 64.0 
295.562775 56.0 
295.6875 68.0 
296.11441 244.0 
296.127106 112.0 
296.163086 120.0 
296.180054 56.0 
296.196838 108.0 
296.219421 236.0 
296.264832 176.0 
296.302246 2060.0 
296.365692 52.0 
296.686401 120.0 
296.774261 84.0 
296.878967 112.0 
297.104187 88.0 
297.159485 100.0 
297.227173 56.0 
297.25415 256.0 
297.277924 336.0 
297.305786 416.0 
297.333618 156.0 
297.443512 104.0 
297.473938 108.0 
298.083038 124.0 
298.225311 84.0 
298.250519 96.0 
298.275269 180.0 
298.299835 60.0 
298.740234 132.0 
298.968567 144.0 
299.05899 68.0 
299.235352 72.0 
299.25766 132.0 
299.275085 312.0 
299.296356 116.0 
299.320129 92.0 
299.815704 68.0 
299.924377 64.0 
300.121399 64.0 
300.277649 84.0 
300.705963 96.0 
301.18222 96.0 
301.253723 64.0 
301.28891 488.0 
301.303345 152.0 
301.335388 96.0 
301.737244 60.0 
301.975739 60.0 
302.149506 96.0 
302.234711 104.0 
302.253784 104.0 
302.28241 136.0 
302.295471 328.0 
302.357544 52.0 
302.605133 80.0 
302.831604 120.0 
302.927216 72.0 
303.104767 56.0 
303.267609 968.0 
303.360779 132.0 
303.401794 96.0 
303.531647 72.0 
303.55899 64.0 
303.641022 52.0 
303.784515 76.0 
303.879761 56.0 
303.982727 112.0 
303.999878 84.0 
304.044342 64.0 
304.061401 96.0 
304.095642 60.0 
304.109283 80.0 
304.126373 84.0 
304.211853 112.0 
304.227173 100.0 
304.266968 824.0 
304.294281 312.0 
304.310242 112.0 
304.355591 68.0 
304.434235 92.0 
304.456085 60.0 
304.471893 80.0 
304.494507 52.0 
304.519775 100.0 
304.564301 64.0 
304.591614 116.0 
304.648193 120.0 
304.662018 52.0 
304.718231 140.0 
304.752563 72.0 
304.769562 204.0 
304.786713 124.0 
304.837189 72.0 
304.875793 84.0 
304.920288 96.0 
304.980377 56.0 
305.02652 56.0 
305.04361 72.0 
305.060669 132.0 
305.110718 368.0 
305.128143 152.0 
305.176941 116.0 
305.199493 156.0 
305.238251 312.0 
305.25116 192.0 
305.284363 125532.0 
305.335602 328.0 
305.35202 128.0 
305.36731 112.0 
305.394073 124.0 
305.410187 80.0 
305.424713 96.0 
305.446838 80.0 
305.464417 68.0 
305.49472 76.0 
305.537048 56.0 
305.584625 100.0 
305.608978 88.0 
305.632935 112.0 
305.694336 88.0 
305.761505 112.0 
305.7883 164.0 
305.834503 68.0 
305.850006 164.0 
305.884186 136.0 
305.918274 76.0 
305.947174 56.0 
306.006744 108.0 
306.023926 88.0 
306.037659 72.0 
306.058258 60.0 
306.071899 128.0 
306.089142 56.0 
306.106171 76.0 
306.126862 68.0 
306.157562 72.0 
306.185547 180.0 
306.231812 184.0 
306.249481 316.0 
306.287872 30052.0 
306.351898 148.0 
306.406036 168.0 
306.441376 104.0 
306.466583 100.0 
306.552429 84.0 
306.59079 96.0 
306.609558 128.0 
306.745605 164.0 
306.799683 104.0 
306.919922 88.0 
306.969666 84.0 
307.02298 120.0 
307.053955 64.0 
307.097046 88.0 
307.136414 72.0 
307.150116 120.0 
307.170776 80.0 
307.194794 120.0 
307.258148 200.0 
307.293243 5312.0 
307.483673 56.0 
307.614288 100.0 
307.69809 60.0 
307.866852 84.0 
308.003998 68.0 
308.096039 64.0 
308.109802 56.0 
308.126984 80.0 
308.157684 2516.0 
308.215668 84.0 
308.25589 188.0 
308.299591 992.0 
308.33548 132.0 
308.382782 140.0 
308.411041 96.0 
308.439331 56.0 
308.798615 72.0 
309.012268 80.0 
309.046753 76.0 
309.162659 716.0 
309.279266 660.0 
309.301147 460.0 
309.370819 140.0 
309.595154 72.0 
309.712463 68.0 
309.76413 192.0 
309.822784 204.0 
310.016266 60.0 
310.169006 436.0 
310.213074 84.0 
310.246216 180.0 
310.279022 284.0 
310.311401 764.0 
310.333923 104.0 
310.461823 72.0 
310.634613 68.0 
310.724426 96.0 
311.170471 116.0 
311.187866 56.0 
311.232758 112.0 
311.281219 92.0 
311.295044 112.0 
311.310089 356.0 
311.339996 128.0 
311.585754 84.0 
312.109222 336.0 
312.124969 144.0 
312.14679 84.0 
312.188293 148.0 
312.250763 60.0 
312.287994 480.0 
312.604248 108.0 
313.065613 64.0 
313.142334 136.0 
313.248688 184.0 
313.281769 204.0 
313.299652 260.0 
313.395325 64.0 
313.579285 124.0 
313.829346 120.0 
313.999664 76.0 
314.137177 112.0 
314.24292 96.0 
314.256836 92.0 
314.283966 84.0 
314.37854 72.0 
314.399353 100.0 
314.903717 136.0 
314.976837 92.0 
315.171753 108.0 
315.265228 2244.0 
315.30249 80.0 
315.920746 68.0 
316.223969 128.0 
316.270355 604.0 
316.286682 108.0 
316.300873 292.0 
316.478638 84.0 
316.757721 168.0 
317.117401 64.0 
317.277374 912.0 
317.342743 84.0 
317.44577 52.0 
318.155304 148.0 
318.27005 92.0 
318.286987 312.0 
318.316223 168.0 
318.480774 84.0 
318.795807 80.0 
318.823822 92.0 
318.956909 64.0 
319.302734 520.0 
319.619202 64.0 
319.716553 112.0 
319.797943 100.0 
319.829529 88.0 
319.843628 56.0 
319.899628 128.0 
319.96283 72.0 
320.022491 56.0 
320.117188 72.0 
320.229401 140.0 
320.2565 160.0 
320.295929 3380.0 
320.334778 60.0 
320.348785 96.0 
320.475159 84.0 
320.496216 88.0 
320.645111 72.0 
320.77356 140.0 
320.805237 92.0 
320.861481 52.0 
320.914124 88.0 
321.089813 84.0 
321.128448 80.0 
321.16507 68.0 
321.19519 100.0 
321.241943 116.0 
321.27475 1748.0 
321.287689 1920.0 
321.356903 84.0 
321.39209 76.0 
321.441284 80.0 
321.465942 52.0 
321.539734 96.0 
321.571381 96.0 
321.627716 52.0 
321.764771 120.0 
321.78949 56.0 
321.813171 60.0 
321.849945 84.0 
321.879059 100.0 
321.890228 144.0 
321.905548 72.0 
321.945618 120.0 
322.060394 68.0 
322.088501 92.0 
322.11322 52.0 
322.141357 56.0 
322.162445 76.0 
322.229187 224.0 
322.260895 200.0 
322.278168 676.0 
322.309509 1860.0 
322.375488 92.0 
322.549652 144.0 
322.577942 60.0 
322.591888 208.0 
322.623657 100.0 
322.643829 112.0 
322.688843 96.0 
322.704681 108.0 
322.748413 104.0 
322.773834 96.0 
322.797028 168.0 
322.822876 136.0 
322.88797 52.0 
322.933716 104.0 
322.947845 80.0 
322.970428 124.0 
322.993866 140.0 
323.031219 108.0 
323.05899 64.0 
323.081726 100.0 
323.119629 160.0 
323.135956 148.0 
323.172119 124.0 
323.198029 140.0 
323.219879 288.0 
323.234009 140.0 
323.294983 133368.0 
323.388763 264.0 
323.42569 108.0 
323.440186 204.0 
323.469604 76.0 
323.494293 72.0 
323.522552 52.0 
323.56134 216.0 
323.600128 72.0 
323.623779 148.0 
323.671204 168.0 
323.689453 64.0 
323.707764 100.0 
323.721069 76.0 
323.742584 148.0 
323.773804 108.0 
323.794434 144.0 
323.811798 80.0 
323.838196 148.0 
323.851044 136.0 
323.875946 452.0 
323.912231 76.0 
323.927155 148.0 
323.966339 116.0 
324.001221 100.0 
324.013062 164.0 
324.087524 88.0 
324.120331 104.0 
324.149902 176.0 
324.170868 204.0 
324.200348 188.0 
324.248291 160.0 
324.266998 168.0 
324.297668 31624.0 
324.371216 176.0 
324.405609 140.0 
324.466003 100.0 
324.486053 172.0 
324.498657 104.0 
324.535645 68.0 
324.631042 56.0 
324.647461 60.0 
324.694641 56.0 
324.710815 88.0 
324.756592 76.0 
324.77948 52.0 
324.818329 56.0 
324.870575 68.0 
324.888 56.0 
325.002014 156.0 
325.026794 124.0 
325.087006 56.0 
325.115204 92.0 
325.143982 88.0 
325.196472 164.0 
325.255371 216.0 
325.302155 4688.0 
325.345062 128.0 
325.374878 64.0 
325.614014 64.0 
325.716614 76.0 
325.808563 132.0 
326.084808 72.0 
326.109589 68.0 
326.194519 128.0 
326.22644 80.0 
326.28125 128.0 
326.308563 652.0 
326.333954 160.0 
326.385864 76.0 
326.400055 68.0 
326.427917 56.0 
326.463715 176.0 
326.58429 68.0 
326.832367 92.0 
327.006104 112.0 
327.211853 76.0 
327.260925 140.0 
327.282715 148.0 
327.308868 100.0 
327.335938 128.0 
327.401428 96.0 
327.577362 52.0 
328.259033 152.0 
328.379913 100.0 
328.532745 92.0 
328.945221 64.0 
329.272491 72.0 
329.290222 136.0 
329.63916 52.0 
329.849243 56.0 
329.91687 88.0 
330.018829 132.0 
330.1698 88.0 
330.618927 80.0 
330.979156 92.0 
331.127869 136.0 
331.14328 92.0 
331.161133 80.0 
331.265472 1472.0 
331.368134 92.0 
331.395935 92.0 
331.464539 80.0 
331.628723 140.0 
331.660889 112.0 
331.675232 72.0 
331.746643 80.0 
331.764526 80.0 
331.903778 116.0 
332.014862 184.0 
332.095276 96.0 
332.148224 60.0 
332.196838 88.0 
332.232574 88.0 
332.265656 616.0 
332.29422 500.0 
332.37558 76.0 
332.472107 76.0 
332.568695 60.0 
332.605713 128.0 
332.689911 80.0 
332.755219 144.0 
332.772552 72.0 
332.790253 72.0 
332.840515 84.0 
332.854767 132.0 
332.887054 64.0 
332.941711 96.0 
333.087311 192.0 
333.112976 84.0 
333.137543 68.0 
333.205444 168.0 
333.232422 220.0 
333.279663 60332.0 
333.385925 128.0 
333.434662 88.0 
333.449036 60.0 
333.47049 68.0 
333.484711 144.0 
333.592224 88.0 
333.658386 108.0 
333.68399 68.0 
333.76059 84.0 
333.778412 164.0 
333.802277 124.0 
333.83371 60.0 
333.862823 120.0 
333.911041 116.0 
333.946167 84.0 
333.984283 92.0 
333.998413 140.0 
334.075989 56.0 
334.094574 112.0 
334.115387 72.0 
334.134521 140.0 
334.212128 96.0 
334.226349 240.0 
334.240326 256.0 
334.281311 14908.0 
334.306824 5936.0 
334.373474 104.0 
334.391388 108.0 
334.416534 76.0 
334.577942 64.0 
334.61026 52.0 
334.710693 56.0 
334.725006 88.0 
334.787567 100.0 
334.829071 68.0 
334.875702 80.0 
334.918762 88.0 
335.073151 56.0 
335.128662 68.0 
335.230957 216.0 
335.289459 2400.0 
335.347168 148.0 
335.39975 180.0 
335.43576 76.0 
335.500366 104.0 
335.683624 72.0 
335.816528 128.0 
335.834473 140.0 
335.85968 100.0 
336.046631 68.0 
336.107727 80.0 
336.15802 108.0 
336.179565 136.0 
336.204681 204.0 
336.293365 724.0 
336.325562 476.0 
336.335693 352.0 
336.373779 112.0 
336.413391 68.0 
336.463776 64.0 
336.503326 68.0 
336.553619 104.0 
336.578857 68.0 
336.625641 64.0 
336.76236 76.0 
336.899139 68.0 
337.03952 76.0 
337.14032 84.0 
337.169128 76.0 
337.207031 80.0 
337.306091 404.0 
337.322174 708.0 
337.346558 76.0 
337.403229 84.0 
337.47522 112.0 
337.550873 108.0 
337.605011 56.0 
337.954529 104.0 
338.069885 108.0 
338.221313 128.0 
338.273743 232.0 
338.305237 6764.0 
338.390961 52.0 
338.69397 100.0 
338.914154 100.0 
338.979156 76.0 
339.112732 104.0 
339.192261 60.0 
339.271637 100.0 
339.311768 2160.0 
339.4487 76.0 
339.625793 52.0 
340.117371 116.0 
340.211517 56.0 
340.314941 436.0 
341.105377 152.0 
341.123566 76.0 
341.310394 52.0 
341.326416 88.0 
341.362579 124.0 
341.572876 52.0 
342.126862 200.0 
342.240051 60.0 
342.79895 64.0 
343.0495 80.0 
343.133301 192.0 
343.307434 64.0 
343.485504 72.0 
343.774384 68.0 
343.859985 56.0 
344.294556 2696.0 
345.296783 784.0 
345.33783 108.0 
345.877441 68.0 
346.056152 84.0 
346.286987 164.0 
346.306885 392.0 
346.683899 72.0 
347.082062 52.0 
347.238251 108.0 
347.284943 132.0 
347.324463 196.0 
347.476685 84.0 
347.681396 84.0 
347.707062 60.0 
347.827698 76.0 
348.138611 96.0 
348.178864 96.0 
348.255707 92.0 
348.286072 856.0 
348.479034 60.0 
348.570526 76.0 
348.691345 76.0 
349.167572 72.0 
349.252655 72.0 
349.266388 160.0 
349.291748 108.0 
349.479095 76.0 
349.632965 168.0 
349.750488 52.0 
349.935516 156.0 
350.131989 60.0 
350.176025 56.0 
350.303894 4480.0 
350.370483 84.0 
350.488007 56.0 
350.517334 76.0 
350.730316 68.0 
350.847839 72.0 
350.994781 68.0 
351.16745 84.0 
351.259216 204.0 
351.291748 2728.0 
351.341431 172.0 
351.37326 108.0 
351.538696 92.0 
351.888153 56.0 
351.90274 156.0 
351.965393 56.0 
351.97998 144.0 
352.031616 56.0 
352.148773 1416.0 
352.290131 556.0 
352.32016 6356.0 
352.353363 356.0 
352.432739 76.0 
352.456573 64.0 
352.539581 52.0 
352.723572 128.0 
352.766479 76.0 
352.890747 100.0 
352.907715 168.0 
353.156311 300.0 
353.195129 148.0 
353.25415 92.0 
353.292999 192.0 
353.326202 1664.0 
353.368286 260.0 
353.534393 64.0 
353.571228 80.0 
353.755585 112.0 
353.823914 116.0 
354.131958 64.0 
354.292877 136.0 
354.325073 168.0 
355.491241 100.0 
356.294037 76.0 
356.738342 92.0 
357.001404 76.0 
357.253387 80.0 
357.661194 88.0 
357.761383 76.0 
357.924591 84.0 
357.9505 108.0 
357.998749 96.0 
358.277008 176.0 
358.325439 52.0 
358.373688 52.0 
359.175903 104.0 
359.276367 52.0 
359.332001 116.0 
359.418518 172.0 
359.491882 96.0 
359.510529 64.0 
359.547607 152.0 
359.644379 76.0 
359.945648 88.0 
360.053619 60.0 
360.213623 68.0 
360.239716 52.0 
360.254517 84.0 
360.322662 136.0 
360.366211 80.0 
360.437592 88.0 
360.463867 68.0 
360.526215 136.0 
360.582153 76.0 
360.669861 80.0 
360.809357 68.0 
360.840302 88.0 
360.864685 52.0 
360.909912 92.0 
360.96579 96.0 
360.989777 64.0 
361.010773 64.0 
361.193115 72.0 
361.231689 112.0 
361.277191 72.0 
361.316132 64.0 
361.390656 80.0 
361.405853 60.0 
361.480133 80.0 
361.500916 84.0 
361.514374 72.0 
361.577637 52.0 
361.659088 96.0 
361.674103 52.0 
361.69455 80.0 
361.711609 60.0 
361.76355 84.0 
361.823242 72.0 
361.875488 68.0 
361.895996 104.0 
361.972046 72.0 
361.998566 84.0 
362.054535 80.0 
362.106781 80.0 
362.124786 356.0 
362.16272 112.0 
362.181366 120.0 
362.226135 140.0 
362.245972 104.0 
362.305725 56828.0 
362.391541 56.0 
362.413116 156.0 
362.453857 116.0 
362.468811 92.0 
362.502441 84.0 
362.51947 60.0 
362.534851 168.0 
362.569672 72.0 
362.588196 80.0 
362.604553 140.0 
362.651855 52.0 
362.666779 64.0 
362.702026 112.0 
362.730194 96.0 
362.771332 72.0 
362.797516 52.0 
362.819305 80.0 
362.833282 92.0 
362.899567 112.0 
362.919495 92.0 
362.93512 84.0 
362.973022 76.0 
363.019135 84.0 
363.122498 80.0 
363.141235 52.0 
363.174744 124.0 
363.244049 100.0 
363.30899 14688.0 
363.361572 180.0 
363.374817 156.0 
363.399017 124.0 
363.443909 84.0 
363.477539 108.0 
363.53363 100.0 
363.552399 52.0 
363.582306 60.0 
363.608459 64.0 
363.698242 60.0 
363.776733 84.0 
363.896362 124.0 
363.951294 80.0 
363.96756 60.0 
364.028992 60.0 
364.102203 88.0 
364.259338 100.0 
364.273529 248.0 
364.318054 4416.0 
364.367859 136.0 
364.430267 92.0 
364.532501 244.0 
364.828522 60.0 
365.090759 60.0 
365.221863 92.0 
365.289124 288.0 
365.321655 1464.0 
365.461792 72.0 
365.641663 144.0 
365.669891 136.0 
365.726196 84.0 
365.746704 100.0 
365.818024 68.0 
365.919312 60.0 
366.248169 104.0 
366.298523 1048.0 
366.437164 64.0 
366.504669 92.0 
366.523438 112.0 
366.588898 84.0 
366.658661 64.0 
366.895294 60.0 
367.301788 420.0 
367.340332 76.0 
367.443878 72.0 
368.312225 1688.0 
368.459503 72.0 
369.156158 112.0 
369.186371 68.0 
369.220245 88.0 
369.257904 108.0 
369.312225 232.0 
369.35968 88.0 
369.450195 56.0 
370.313232 204.0 
371.306885 128.0 
371.484589 68.0 
372.237152 60.0 
372.28476 276.0 
372.299042 288.0 
372.333862 204.0 
372.358154 96.0 
372.543579 104.0 
373.299347 272.0 
373.331299 92.0 
373.736847 92.0 
374.252594 88.0 
374.310974 208.0 
374.339905 60.0 
374.666229 92.0 
374.745941 88.0 
375.300446 60.0 
375.326935 140.0 
375.342163 104.0 
375.357361 100.0 
375.376434 64.0 
375.558746 96.0 
376.132782 124.0 
376.288757 108.0 
376.311676 60.0 
376.444763 96.0 
376.536102 80.0 
376.657867 84.0 
376.81015 64.0 
377.221405 56.0 
377.289917 76.0 
377.419495 52.0 
377.484253 52.0 
377.590851 100.0 
377.884308 112.0 
377.972687 72.0 
378.083191 104.0 
378.293976 188.0 
378.343964 96.0 
378.582306 76.0 
378.712067 60.0 
378.773102 72.0 
378.796021 60.0 
378.830414 52.0 
378.879944 80.0 
378.956329 64.0 
379.147156 104.0 
379.231171 108.0 
379.299774 260.0 
379.410645 140.0 
379.513794 116.0 
379.70105 84.0 
379.758423 68.0 
379.7966 80.0 
379.811829 136.0 
379.880737 56.0 
379.972443 76.0 
380.031342 60.0 
380.060364 72.0 
380.109985 136.0 
380.197906 148.0 
380.213226 116.0 
380.228607 60.0 
380.263977 64.0 
380.276215 276.0 
380.31723 43516.0 
380.413513 148.0 
380.441193 180.0 
380.549896 60.0 
380.565125 92.0 
380.618744 68.0 
380.643494 68.0 
380.711853 76.0 
380.80069 72.0 
380.817627 112.0 
380.870209 72.0 
380.940125 100.0 
380.958313 68.0 
381.05191 68.0 
381.070587 60.0 
381.113556 108.0 
381.202789 96.0 
381.234924 72.0 
381.261719 88.0 
381.318359 11372.0 
381.380554 92.0 
381.537476 76.0 
381.878357 140.0 
382.058594 76.0 
382.093048 108.0 
382.202789 128.0 
382.23111 68.0 
382.250244 80.0 
382.3237 1688.0 
382.638062 160.0 
382.70282 72.0 
383.136414 84.0 
383.299683 80.0 
383.324554 204.0 
383.341522 148.0 
383.601013 84.0 
383.630981 84.0 
383.658417 68.0 
383.743195 56.0 
383.769989 104.0 
383.839111 144.0 
385.315918 76.0 
385.338959 120.0 
385.704865 56.0 
385.95517 76.0 
386.304688 152.0 
386.336639 108.0 
386.556366 96.0 
387.134857 152.0 
387.228943 128.0 
387.262268 88.0 
387.297089 52.0 
387.337463 252.0 
387.362549 128.0 
387.389557 136.0 
387.555695 56.0 
388.227661 72.0 
388.822906 92.0 
389.078186 72.0 
389.134552 96.0 
389.167145 84.0 
389.326721 200.0 
389.395355 116.0 
389.546356 72.0 
389.890869 96.0 
389.914185 56.0 
390.069 108.0 
390.11554 68.0 
390.223907 116.0 
390.2995 10668.0 
390.362213 212.0 
390.411865 112.0 
391.103882 52.0 
391.208527 84.0 
391.302216 3656.0 
391.352081 64.0 
391.491699 104.0 
391.608215 52.0 
391.68573 104.0 
392.268188 60.0 
392.312775 964.0 
392.336914 340.0 
392.372986 92.0 
393.014191 92.0 
393.158051 76.0 
393.298004 96.0 
393.315094 120.0 
393.566437 76.0 
394.327179 88.0 
394.391571 100.0 
394.711029 76.0 
395.907959 104.0 
396.036804 72.0 
396.317871 52.0 
396.35672 188.0 
396.678467 72.0 
396.891846 104.0 
397.331146 192.0 
398.287811 92.0 
398.307373 92.0 
398.342621 80.0 
398.362213 68.0 
398.440521 60.0 
399.284515 80.0 
399.325592 84.0 
400.278442 72.0 
400.305878 88.0 
401.226868 124.0 
401.295227 84.0 
401.32663 88.0 
401.356323 80.0 
401.381622 104.0 
402.289703 84.0 
402.305481 60.0 
402.336914 88.0 
402.351074 84.0 
402.84848 60.0 
403.120087 60.0 
403.324188 84.0 
403.356293 104.0 
403.580841 76.0 
404.278442 80.0 
404.85434 72.0 
405.256836 104.0 
405.537231 72.0 
405.825562 80.0 
406.003357 76.0 
406.070557 60.0 
406.295837 64.0 
406.359039 84.0 
406.517181 72.0 
406.639801 64.0 
406.726776 72.0 
406.956207 64.0 
406.979828 140.0 
407.185638 80.0 
407.296448 92.0 
407.335907 176.0 
407.624908 160.0 
408.082611 124.0 
408.19931 72.0 
408.252502 108.0 
408.310791 9560.0 
408.429108 84.0 
408.460846 72.0 
408.702698 52.0 
408.750214 80.0 
408.785919 64.0 
409.103119 80.0 
409.245911 100.0 
409.314209 2200.0 
409.373444 60.0 
409.424377 140.0 
409.440399 60.0 
410.206604 52.0 
410.246277 64.0 
410.322327 788.0 
410.339081 240.0 
410.365356 116.0 
410.385284 84.0 
410.913666 196.0 
411.263672 96.0 
411.318054 92.0 
411.335419 384.0 
411.371094 76.0 
412.003693 92.0 
412.202789 72.0 
412.343201 1676.0 
412.557159 92.0 
413.258514 72.0 
413.294312 144.0 
413.345154 560.0 
413.385925 228.0 
413.473877 56.0 
414.140045 56.0 
414.311615 80.0 
414.352112 260.0 
414.914581 64.0 
415.178131 148.0 
415.324463 128.0 
415.335632 188.0 
415.393951 140.0 
416.293823 68.0 
416.342468 120.0 
416.918243 64.0 
417.306763 52.0 
417.350677 124.0 
418.351776 108.0 
419.336975 344.0 
419.962769 124.0 
420.341888 116.0 
421.346375 112.0 
422.260712 60.0 
422.313049 76.0 
422.905701 60.0 
423.006378 152.0 
423.256622 56.0 
423.327423 212.0 
423.357361 132.0 
423.373535 108.0 
423.486633 56.0 
423.599579 68.0 
424.310211 80.0 
424.332489 72.0 
424.346344 304.0 
425.082123 64.0 
425.300385 116.0 
425.319519 156.0 
425.343689 204.0 
425.381348 76.0 
426.287781 84.0 
426.319702 2404.0 
426.354309 280.0 
426.680634 68.0 
426.794128 52.0 
427.260071 72.0 
427.319244 752.0 
427.365509 60.0 
427.627533 64.0 
428.148224 80.0 
428.22937 100.0 
428.274048 68.0 
428.306458 100.0 
428.323822 316.0 
429.301392 84.0 
429.345764 540.0 
429.577789 52.0 
430.187592 88.0 
430.293427 56.0 
430.312317 96.0 
430.323517 112.0 
430.354248 324.0 
431.168335 104.0 
431.335358 76.0 
431.360809 148.0 
431.384247 72.0 
432.339417 60.0 
432.38266 100.0 
433.284332 72.0 
433.342255 280.0 
433.811005 100.0 
434.056152 72.0 
434.113342 88.0 
434.342255 168.0 
435.065887 68.0 
435.286774 76.0 
435.319489 92.0 
435.364502 88.0 
437.338898 124.0 
439.325378 356.0 
439.340179 248.0 
439.360565 100.0 
440.049835 68.0 
440.310333 196.0 
440.339691 168.0 
441.315765 108.0 
441.3414 184.0 
441.375366 92.0 
441.882141 176.0 
442.323425 108.0 
442.340393 80.0 
442.360565 220.0 
442.967133 64.0 
443.327911 396.0 
443.367493 100.0 
443.392273 92.0 
443.573883 164.0 
444.082123 108.0 
444.263916 136.0 
444.334656 88.0 
444.98764 80.0 
445.289642 100.0 
445.386475 108.0 
445.550446 60.0 
446.117584 128.0 
446.324707 128.0 
446.339508 104.0 
446.376068 104.0 
447.327911 96.0 
447.349945 144.0 
447.369385 96.0 
447.423248 136.0 
448.269928 76.0 
448.298981 84.0 
448.353088 184.0 
448.374664 72.0 
448.560638 64.0 
448.789124 60.0 
449.175476 92.0 
449.296082 64.0 
449.374939 120.0 
450.298309 112.0 
450.652161 64.0 
450.701935 200.0 
451.241028 104.0 
451.35025 1784.0 
451.409973 184.0 
451.489288 80.0 
451.69342 104.0 
452.35556 764.0 
452.67334 140.0 
452.919556 124.0 
453.35672 152.0 
453.378662 204.0 
453.395569 56.0 
453.437195 120.0 
453.575073 80.0 
453.800659 72.0 
454.264465 76.0 
454.364716 104.0 
455.33493 164.0 
456.331573 56.0 
456.524139 144.0 
457.173859 100.0 
457.338959 1804.0 
457.354919 1724.0 
457.408783 68.0 
457.59317 172.0 
458.289917 80.0 
458.342102 580.0 
458.392944 144.0 
458.436798 116.0 
458.47467 68.0 
459.108887 84.0 
459.335236 204.0 
459.353424 216.0 
459.722534 92.0 
459.827545 196.0 
460.355743 84.0 
460.380615 108.0 
460.984802 96.0 
461.334625 320.0 
461.359009 96.0 
461.473358 80.0 
461.570343 52.0 
461.890472 88.0 
462.130798 68.0 
462.244476 148.0 
462.269806 116.0 
462.336029 112.0 
462.360626 100.0 
462.468079 80.0 
463.340515 128.0 
463.362366 228.0 
463.848114 76.0 
464.334015 52.0 
464.355072 80.0 
465.221771 68.0 
465.242889 84.0 
465.310547 92.0 
465.344238 204.0 
465.365601 68.0 
465.386749 72.0 
466.584717 72.0 
467.220337 64.0 
467.324249 128.0 
467.336212 196.0 
467.4534 116.0 
468.297485 140.0 
468.335144 124.0 
468.361145 124.0 
469.235901 76.0 
469.299591 92.0 
469.320923 56.0 
469.362274 1416.0 
469.414307 84.0 
469.452545 84.0 
469.575775 80.0 
469.613922 152.0 
470.29425 60.0 
470.358643 480.0 
470.3797 284.0 
471.319702 72.0 
471.363586 320.0 
471.37677 368.0 
472.393524 84.0 
473.335602 56.0 
473.373932 80.0 
473.668335 92.0 
473.886078 72.0 
474.372742 132.0 
475.274475 80.0 
475.30011 84.0 
475.321411 140.0 
475.35318 1444.0 
475.40097 80.0 
475.419769 116.0 
475.475342 124.0 
475.548157 64.0 
476.168396 84.0 
476.313934 64.0 
476.355743 832.0 
476.392761 260.0 
476.767731 60.0 
477.277405 56.0 
477.298767 80.0 
477.320129 104.0 
477.375824 104.0 
477.504395 92.0 
478.361816 92.0 
478.443359 72.0 
478.69223 52.0 
478.923889 72.0 
479.301575 88.0 
479.34549 2548.0 
479.401642 56.0 
479.889954 76.0 
480.212067 172.0 
480.231445 128.0 
480.342957 740.0 
480.359436 804.0 
480.474304 108.0 
480.869873 92.0 
480.977509 52.0 
481.261292 92.0 
481.334412 100.0 
481.359619 236.0 
482.311615 64.0 
483.074188 64.0 
483.22937 60.0 
483.336884 260.0 
483.664795 84.0 
484.087524 96.0 
484.238556 84.0 
484.268707 124.0 
484.307678 60.0 
484.402557 84.0 
485.011261 104.0 
485.058807 92.0 
485.340576 11168.0 
485.393524 284.0 
485.473541 80.0 
485.495178 64.0 
485.555634 84.0 
485.59668 52.0 
485.620331 160.0 
485.987793 112.0 
486.345642 3924.0 
486.388123 144.0 
486.410095 112.0 
486.428986 52.0 
486.597534 112.0 
486.900482 64.0 
486.939453 52.0 
487.021667 56.0 
487.338928 868.0 
487.562744 64.0 
487.865784 116.0 
488.212402 92.0 
488.325104 76.0 
488.353119 168.0 
488.372833 60.0 
489.057587 168.0 
489.08371 100.0 
489.356262 176.0 
489.404663 104.0 
490.120819 72.0 
490.355255 76.0 
490.378723 88.0 
491.341553 56.0 
491.39801 76.0 
492.27655 56.0 
492.363525 80.0 
492.380981 60.0 
493.399689 80.0 
493.617493 84.0 
494.380219 92.0 
494.633179 76.0 
495.287476 152.0 
495.304962 132.0 
495.36615 80.0 
495.405334 128.0 
495.422791 128.0 
496.304901 124.0 
496.326874 56.0 
496.361511 132.0 
496.580322 56.0 
497.323425 68.0 
497.361267 1020.0 
497.450195 100.0 
498.362244 360.0 
498.404022 164.0 
498.452271 112.0 
499.338318 164.0 
499.357971 120.0 
499.374146 188.0 
500.376099 120.0 
500.53418 56.0 
501.06955 64.0 
501.395508 92.0 
502.41803 80.0 
502.462006 76.0 
503.086365 88.0 
503.297485 92.0 
503.347412 3616.0 
503.400177 404.0 
503.469116 80.0 
503.486755 64.0 
503.73764 52.0 
503.865265 56.0 
503.970886 64.0 
504.06778 56.0 
504.186615 72.0 
504.34491 1748.0 
504.364014 872.0 
504.390106 212.0 
504.408112 124.0 
504.558441 100.0 
504.798767 104.0 
505.355194 572.0 
505.393829 76.0 
505.420197 116.0 
506.337677 76.0 
506.3685 108.0 
506.876221 56.0 
506.933563 72.0 
507.096924 88.0 
507.339783 112.0 
507.383453 704.0 
507.635803 80.0 
507.710907 96.0 
508.095459 64.0 
508.373993 296.0 
508.392426 396.0 
508.904755 52.0 
509.385651 220.0 
509.404633 92.0 
511.349548 72.0 
511.380585 80.0 
511.566742 144.0 
512.294495 84.0 
512.361084 72.0 
512.395203 76.0 
513.022644 92.0 
513.253662 84.0 
513.373596 92.0 
513.395874 64.0 
513.511353 104.0 
514.182617 72.0 
514.329346 84.0 
515.361755 56.0 
515.459656 60.0 
517.322266 96.0 
517.345337 176.0 
517.362366 136.0 
517.382568 80.0 
517.433777 104.0 
518.058533 72.0 
518.339722 100.0 
518.362061 92.0 
518.396912 200.0 
518.408813 224.0 
519.384644 184.0 
519.402771 136.0 
520.396606 120.0 
520.417786 136.0 
520.579041 56.0 
521.354187 148.0 
521.401367 240.0 
521.433777 120.0 
522.365723 80.0 
523.352112 140.0 
523.428406 112.0 
525.04303 76.0 
527.167847 88.0 
527.694824 76.0 
528.217529 72.0 
528.361755 60.0 
528.379822 64.0 
528.400574 72.0 
529.371887 84.0 
529.44397 172.0 
530.130188 68.0 
530.161743 96.0 
530.315308 76.0 
530.39679 1104.0 
530.439331 120.0 
531.405823 560.0 
531.462891 112.0 
532.374756 84.0 
532.410583 60.0 
532.430786 104.0 
533.414307 112.0 
533.73938 64.0 
534.296814 60.0 
534.822754 64.0 
535.323853 156.0 
535.371338 232.0 
536.338501 64.0 
536.374878 52.0 
536.408508 264.0 
537.710938 60.0 
538.088379 68.0 
538.306824 56.0 
539.349182 64.0 
540.770996 92.0 
541.231628 120.0 
541.280945 76.0 
541.729065 80.0 
542.071411 100.0 
542.226685 76.0 
542.402954 136.0 
542.446777 64.0 
543.400879 80.0 
543.419189 80.0 
546.396851 544.0 
546.467957 88.0 
547.360291 92.0 
547.391602 156.0 
547.41217 164.0 
547.435547 120.0 
547.47699 68.0 
548.303162 72.0 
548.321533 72.0 
548.371338 172.0 
548.405884 5548.0 
548.468689 276.0 
548.519104 52.0 
548.704468 68.0 
548.762512 52.0 
549.049072 76.0 
549.318359 116.0 
549.414429 2400.0 
550.035645 76.0 
550.109253 68.0 
550.251892 56.0 
550.404358 456.0 
550.441406 192.0 
551.130859 52.0 
551.370178 84.0 
551.410645 200.0 
552.075012 64.0 
552.646484 60.0 
553.448853 88.0 
555.069397 60.0 
555.360535 56.0 
555.896667 68.0 
556.382996 96.0 
557.076355 60.0 
557.344727 88.0 
557.367798 160.0 
557.71521 84.0 
558.363708 88.0 
558.386902 76.0 
558.62323 88.0 
559.290833 88.0 
559.420715 92.0 
560.302246 132.0 
560.446167 112.0 
561.356445 120.0 
561.393799 52.0 
562.709412 84.0 
563.239746 104.0 
564.396973 876.0 
565.406799 300.0 
566.712402 72.0 
567.071899 76.0 
567.314819 64.0 
567.394226 56.0 
569.40448 96.0 
569.605774 76.0 
572.182861 60.0 
572.393982 52.0 
572.689514 68.0 
574.391479 1368.0 
574.596375 88.0 
574.911377 72.0 
575.118286 72.0 
575.355042 116.0 
575.379517 588.0 
575.400696 544.0 
575.480347 136.0 
575.527588 52.0 
576.101624 60.0 
576.355774 68.0 
576.387634 264.0 
576.414001 280.0 
576.562927 84.0 
577.387207 92.0 
577.415405 132.0 
577.778442 64.0 
578.384094 108.0 
578.418335 88.0 
579.136658 140.0 
580.321777 112.0 
580.43988 112.0 
581.385315 60.0 
581.664307 64.0 
586.835571 84.0 
589.265625 80.0 
589.351257 80.0 
589.389404 68.0 
589.413208 72.0 
589.434082 140.0 
589.44989 184.0 
589.532288 60.0 
589.589294 92.0 
589.941833 60.0 
590.362 136.0 
590.428955 124.0 
590.583008 196.0 
590.64209 88.0 
591.266602 80.0 
591.385132 784.0 
591.401794 548.0 
591.440613 156.0 
591.490784 64.0 
591.62439 60.0 
591.872375 76.0 
592.394897 3176.0 
592.502258 84.0 
592.530945 76.0 
592.685791 96.0 
593.290161 68.0 
593.350281 104.0 
593.403259 1000.0 
593.45929 136.0 
593.507019 84.0 
593.624451 116.0 
593.925476 112.0 
594.121643 52.0 
594.269775 60.0 
594.387146 356.0 
594.451294 132.0 
594.480591 76.0 
594.504028 76.0 
594.546997 84.0 
594.599609 92.0 
595.337158 128.0 
595.393738 704.0 
595.431946 80.0 
595.479858 68.0 
595.628113 84.0 
595.886597 80.0 
596.29364 68.0 
596.351074 72.0 
596.382629 188.0 
596.427734 56.0 
596.476562 60.0 
596.739014 72.0 
596.930725 56.0 
598.368835 76.0 
608.518677 60.0 
608.731567 68.0 
610.077393 56.0 
612.884888 104.0 
613.963074 124.0 
618.563599 76.0 
621.732971 72.0 
628.302368 80.0 
628.72522 68.0 
630.338928 108.0 
630.609863 64.0 
631.565552 76.0 
632.763733 52.0 
632.955994 92.0 
645.489685 64.0 
649.181702 100.0 
649.271667 100.0 
649.316589 104.0 
655.341919 88.0 
657.09021 52.0 
662.060852 96.0 
663.570435 92.0 
666.822632 64.0 
668.301941 112.0 
674.322998 56.0 
676.004395 88.0 
676.636841 56.0 
677.346008 84.0 
684.417542 132.0 
685.686584 72.0 
688.7854 68.0 
691.00531 84.0 
698.904358 108.0 
699.874207 80.0 
701.39502 104.0 
701.420959 128.0 
703.598877 80.0 
705.452026 52.0 
719.86908 64.0 
722.618042 128.0 
729.111328 84.0 
729.185486 76.0 
732.849304 56.0 
736.117676 72.0 
738.817627 76.0 
745.468628 104.0 
761.872314 60.0 
762.624634 164.0 
763.469971 52.0 
768.653137 140.0 
773.265137 92.0 
773.843445 52.0 
774.973022 64.0 
782.420654 76.0 
783.907654 160.0 
790.388977 108.0 
792.137817 52.0 
792.71167 124.0 
795.132019 64.0 
798.675049 52.0 
799.101624 108.0 
801.797974 128.0 
813.758606 128.0 
815.818665 72.0 
816.782349 72.0 
817.617737 52.0 
817.903748 56.0 
819.95752 92.0 
821.817383 60.0 
824.343384 80.0 
834.809448 68.0 
839.251892 52.0 
845.769165 84.0 
846.984314 80.0 
848.246094 72.0 
849.857483 72.0 
850.709534 64.0 
851.968323 68.0 
853.102051 72.0 
854.832581 104.0 
861.732239 164.0 
873.666748 56.0 
874.44928 88.0 
886.605408 68.0 
887.411438 52.0 
891.206726 68.0 
904.185608 80.0 
909.583252 80.0 
934.994629 64.0 
935.504333 72.0 
954.396484 56.0 
964.418762 52.0 
964.741455 72.0 
965.704102 68.0 
966.648926 68.0 
970.5 56.0 
970.951965 84.0 
985.869507 144.0 
986.36853 80.0 
989.185303 52.0 
993.142761 52.0 
994.230408 108.0 
END IONS

