BEGIN IONS
TITLE=Scan Number: 1032
PEPMASS=883.26501
CHARGE=0+
COMPOUNDNAME=Bacillibactin
LIBRARYQUALITY=3
SMILES=CC1C(C(=O)OC(C(C(=O)OC(C(C(=O)O1)NC(=O)CNC(=O)C2=C(C(=CC=C2)O)O)C)NC(=O)CNC(=O)C3=C(C(=CC=C3)O)O)C)NC(=O)CNC(=O)C4=C(C(=CC=C4)O)O
INCHIKEY=RCQTVEFBFUNTGM-UHFFFAOYSA-N
INCHI=1S/C39H42N6O18/c1-16-28(43-25(49)13-40-34(55)19-7-4-10-22(46)31(19)52)37(58)62-18(3)30(45-27(51)15-42-36(57)21-9-6-12-24(48)33(21)54)39(60)63-17(2)29(38(59)61-16)44-26(50)14-41-35(56)20-8-5-11-23(47)32(20)53/h4-12,16-18,28-30,46-48,52-54H,13-15H2,1-3H3,(H,40,55)(H,41,56)(H,42,57)(H,43,49)(H,44,50)(H,45,51)/t16-,17-,18-,28+,29+,30+/m1/s1
MSLEVEL=2
SOURCE_INSTRUMENT=LC-ESI-qTof
FILENAME=f.mice/Standards/140120_Bacillibactin.mzXML;
SEQ=*..*
NOTES=
IONMODE=Positive
ORGANISM=GNPS-LIBRARY
NAME=Bacillibactin M+H
SPECTRUMID=CCMSLIB00003739997
ACTIVATION=CID
INSTRUMENT=ion trap
SCANS=1032
87.475563 6.0 
87.479645 6.0 
90.398834 13.0 
98.52298 9.0 
110.341759 12.0 
137.022766 47.0 
138.026291 19.0 
139.084961 24.0 
149.669724 7.0 
151.152939 8.0 
159.074905 22.0 
160.432419 12.0 
160.880661 8.0 
165.279633 8.0 
166.0495 58.0 
173.466873 16.0 
185.086838 107.0 
186.121811 8.0 
194.042923 159.0 
195.041626 51.0 
207.068848 17.0 
212.125443 10.0 
212.131805 10.0 
225.13205 23.0 
240.857635 11.0 
242.112793 57.0 
243.112457 34.0 
251.142456 12.0 
258.010925 37.0 
265.15686 16.0 
268.129791 79.0 
275.949982 6.0 
276.501465 7.0 
278.130096 7.0 
279.150391 10.0 
280.157959 7.0 
280.165253 7.0 
286.138062 13.0 
287.106354 33.0 
295.091614 75.0 
315.130737 28.0 
326.200989 26.0 
332.125946 16.0 
344.135895 37.0 
345.17337 24.0 
350.147308 34.0 
355.14035 40.0 
358.844238 17.0 
360.119049 13.0 
366.175964 26.0 
375.525269 10.0 
377.117554 9.0 
378.093201 39.0 
378.127167 422.0 
379.095642 35.0 
379.129639 132.0 
380.141968 42.0 
380.78067 7.0 
391.28009 12.0 
393.580719 7.0 
396.140045 109.0 
397.139984 47.0 
402.263733 33.0 
404.183716 23.0 
405.193787 11.0 
409.202423 22.0 
411.218567 29.0 
411.714508 15.0 
414.154327 137.0 
415.167847 70.0 
416.164795 23.0 
419.234344 8.0 
420.236145 18.0 
420.701691 55.0 
423.167938 12.0 
424.210419 20.0 
424.237396 16.0 
427.219177 26.0 
434.20517 9.0 
437.641754 16.0 
438.244781 12.0 
440.221222 13.0 
448.060577 16.0 
449.077728 8.0 
450.105316 17.0 
451.189697 25.0 
453.139343 177.0 
453.167206 78.0 
453.315918 5.0 
453.325226 5.0 
453.771545 11.0 
457.209869 24.0 
459.144379 7.0 
459.191162 9.0 
459.200531 9.0 
460.258331 20.0 
460.483154 30.0 
461.05484 25.0 
461.15799 48.0 
462.152344 51.0 
466.083984 7.0 
466.234802 9.0 
467.017609 7.0 
469.483429 6.0 
469.880829 27.0 
470.676147 6.0 
470.685608 6.0 
471.026672 6.0 
471.036163 6.0 
471.187775 14.0 
475.252747 12.0 
478.22699 19.0 
478.561218 9.0 
478.57077 9.0 
479.182251 1023.0 
479.469025 24.0 
480.138458 47.0 
480.167145 151.0 
480.310669 30.0 
481.153076 17.0 
481.181793 21.0 
481.8237 8.0 
482.350922 7.0 
483.281494 20.0 
484.068848 13.0 
495.100922 22.0 
497.143097 120.0 
497.182037 230.0 
498.185272 63.0 
499.179749 16.0 
500.800323 12.0 
502.081085 28.0 
505.098755 10.0 
506.17868 17.0 
509.198792 14.0 
510.194336 20.0 
510.263367 15.0 
511.220459 37.0 
513.740784 38.0 
516.078918 37.0 
516.128479 7.0 
518.193665 49.0 
519.197998 14.0 
521.179565 16.0 
522.775574 12.0 
525.25415 16.0 
526.295349 25.0 
530.259094 21.0 
533.219055 9.0 
536.187195 125.0 
536.207397 92.0 
537.198608 39.0 
538.1604 11.0 
539.214294 23.0 
541.924561 10.0 
544.315674 10.0 
547.089844 13.0 
548.183044 15.0 
548.520447 14.0 
552.084656 16.0 
553.182861 18.0 
554.210205 89.0 
555.228271 26.0 
556.164795 11.0 
557.308289 7.0 
557.689758 44.0 
558.411682 11.0 
561.314575 15.0 
564.110901 22.0 
566.124451 27.0 
567.184509 17.0 
568.256042 7.0 
570.110107 11.0 
570.151794 24.0 
571.163452 100.0 
572.176086 20.0 
573.16864 8.0 
574.381775 6.0 
577.430725 6.0 
582.129883 18.0 
587.313599 13.0 
588.065063 7.0 
589.124329 25.0 
589.177307 664.0 
589.961792 28.0 
590.07843 14.0 
590.173889 171.0 
590.279968 8.0 
590.311768 17.0 
592.180237 8.0 
592.190857 8.0 
593.275024 34.0 
594.871277 19.0 
595.158813 8.0 
598.123535 6.0 
605.202332 35.0 
606.255371 52.0 
607.19104 189.0 
608.148865 31.0 
608.191956 27.0 
609.204468 21.0 
610.174744 19.0 
611.080994 17.0 
611.221313 39.0 
611.372437 17.0 
612.646973 17.0 
617.118164 10.0 
617.129028 10.0 
617.248352 7.0 
618.170715 37.0 
619.061157 60.0 
620.191406 24.0 
621.213867 11.0 
622.193665 17.0 
622.237183 12.0 
623.185059 16.0 
624.155457 21.0 
626.196838 49.0 
626.251465 20.0 
626.710449 8.0 
627.289856 33.0 
629.095459 15.0 
629.226868 19.0 
631.320374 16.0 
634.109863 11.0 
635.903198 33.0 
637.258118 13.0 
637.577759 23.0 
639.751404 22.0 
640.414185 40.0 
641.044128 15.0 
641.298401 21.0 
641.34259 27.0 
644.198425 13.0 
644.220581 63.0 
645.162842 11.0 
645.218323 26.0 
646.239014 27.0 
647.327148 50.0 
649.639709 55.0 
654.199097 54.0 
654.958679 14.0 
655.182129 14.0 
655.204529 21.0 
655.539795 50.0 
656.188354 7.0 
657.296021 28.0 
659.189087 7.0 
659.267517 19.0 
659.906677 13.0 
660.591003 7.0 
661.163391 12.0 
662.219116 70.0 
662.241577 59.0 
663.219421 38.0 
668.345215 10.0 
669.146851 8.0 
669.192017 13.0 
671.690369 13.0 
672.041199 24.0 
672.210999 5700.0 
672.301575 25.0 
672.33551 45.0 
672.403442 35.0 
672.471375 8.0 
672.516663 7.0 
672.584595 21.0 
672.799744 11.0 
672.867676 27.0 
673.128174 92.0 
673.218811 1852.0 
673.286804 17.0 
673.332092 9.0 
673.411438 22.0 
673.47937 36.0 
673.604065 7.0 
674.216064 414.0 
674.29541 19.0 
674.329468 22.0 
674.408813 6.0 
675.157349 9.0 
675.191406 58.0 
675.225403 84.0 
675.395569 12.0 
675.509094 7.0 
676.212769 40.0 
676.34906 10.0 
676.780579 14.0 
676.985046 19.0 
677.21228 9.0 
677.405396 22.0 
678.360291 7.0 
680.397278 34.0 
680.704834 9.0 
680.852905 13.0 
680.989624 7.0 
682.323303 8.0 
683.384338 15.0 
684.11499 9.0 
684.126404 9.0 
684.549011 8.0 
684.628967 11.0 
685.1203 5.0 
685.131714 5.0 
686.137756 34.0 
686.194946 10.0 
686.423706 7.0 
686.43512 7.0 
686.538086 10.0 
686.595276 19.0 
686.972839 7.0 
687.533691 7.0 
688.152039 8.0 
688.20929 80.0 
688.232178 67.0 
688.312378 33.0 
688.656067 10.0 
689.148804 14.0 
689.21759 229.0 
689.263428 18.0 
689.297791 10.0 
689.378052 13.0 
689.50415 8.0 
689.572937 7.0 
689.584412 7.0 
689.699036 8.0 
689.756409 14.0 
689.802246 47.0 
689.93988 7.0 
689.951355 7.0 
690.043091 25.0 
690.06604 9.0 
690.077515 9.0 
690.226624 23046.0 
690.329834 103.0 
690.387207 56.0 
690.421631 42.0 
690.467529 89.0 
690.547791 49.0 
690.582214 19.0 
690.708435 7.0 
690.777283 8.0 
690.880554 8.0 
691.087158 6.0 
691.133057 32.0 
691.224915 8218.0 
691.316711 37.0 
691.408569 51.0 
691.431519 36.0 
691.465942 23.0 
691.488953 32.0 
691.523376 37.0 
691.649658 7.0 
691.833374 24.0 
691.890808 15.0 
692.08606 33.0 
692.235413 1655.0 
692.4422 11.0 
692.488098 16.0 
692.545593 45.0 
692.625977 8.0 
692.637512 8.0 
692.660461 8.0 
692.901794 6.0 
692.936279 7.0 
693.131653 14.0 
693.143188 14.0 
693.235107 306.0 
693.384583 11.0 
693.936523 7.0 
693.982544 24.0 
694.051514 54.0 
694.15509 20.0 
694.235596 79.0 
694.316101 19.0 
694.385132 7.0 
694.948975 8.0 
695.259766 46.0 
695.639771 9.0 
695.685791 8.0 
695.83551 6.0 
696.849365 10.0 
697.229736 10.0 
697.806274 9.0 
698.210022 38.0 
699.110168 7.0 
700.137939 6.0 
700.218811 20.0 
700.981567 6.0 
702.057007 8.0 
702.820679 6.0 
703.13324 7.0 
705.717346 81.0 
706.34375 21.0 
707.12146 12.0 
708.341003 12.0 
708.422363 8.0 
709.259277 7.0 
709.5849 10.0 
710.818237 7.0 
712.239014 9.0 
712.448792 10.0 
713.381409 7.0 
715.236694 14.0 
716.147766 16.0 
716.287964 5.0 
716.299683 5.0 
716.83728 7.0 
717.071106 9.0 
717.351685 13.0 
719.177063 15.0 
721.051636 44.0 
722.330078 17.0 
723.410034 20.0 
723.445251 28.0 
724.326294 14.0 
724.361511 26.0 
724.714111 8.0 
725.043213 8.0 
726.266418 9.0 
728.303345 22.0 
728.703979 13.0 
728.892578 9.0 
729.151917 19.0 
729.812317 10.0 
734.644348 28.0 
735.236145 8.0 
737.155212 19.0 
742.213623 11.0 
742.79657 10.0 
742.891785 9.0 
743.058411 8.0 
743.225037 25.0 
746.227539 10.0 
747.158081 13.0 
747.241638 1386.0 
747.540039 14.0 
748.256409 476.0 
748.340027 20.0 
749.044861 11.0 
749.247986 143.0 
750.276123 35.0 
751.245117 30.0 
751.292969 12.0 
751.723877 41.0 
752.406311 13.0 
753.26886 11.0 
753.292847 11.0 
759.079712 8.0 
764.212646 8.0 
764.562744 27.0 
772.041626 31.0 
772.417725 24.0 
773.21875 35.0 
773.680176 27.0 
776.293335 14.0 
778.289612 37.0 
784.098206 35.0 
785.198914 13.0 
785.382385 37.0 
786.239136 186.0 
792.273865 11.0 
792.654846 16.0 
793.355652 22.0 
802.828247 81.0 
805.378662 30.0 
805.787598 17.0 
808.839233 13.0 
810.566162 13.0 
811.212646 36.0 
815.745361 28.0 
819.140686 23.0 
819.403076 28.0 
821.441467 26.0 
825.30011 10.0 
828.300537 11.0 
830.161255 15.0 
830.765198 8.0 
834.153748 20.0 
838.282227 21.0 
838.395996 13.0 
842.16748 13.0 
842.21814 22.0 
842.281494 9.0 
843.96759 13.0 
845.071472 7.0 
847.243164 19.0 
847.319458 11.0 
848.336426 15.0 
848.476318 9.0 
849.265015 9.0 
851.518555 19.0 
851.92627 10.0 
853.073547 6.0 
853.290344 19.0 
853.44342 11.0 
853.456177 11.0 
853.622009 10.0 
854.145081 8.0 
854.71936 20.0 
855.281067 8.0 
858.258728 6.0 
859.397461 8.0 
859.781494 24.0 
860.165588 9.0 
861.818237 6.0 
864.242371 25.0 
864.306519 11.0 
864.357849 7.0 
865.243774 227.0 
865.731873 6.0 
865.74469 6.0 
865.783264 7.0 
865.821777 8.0 
865.950256 12.0 
866.11731 23.0 
866.245789 101.0 
866.310059 15.0 
866.36145 19.0 
866.48999 8.0 
866.618469 6.0 
867.055542 6.0 
867.184082 14.0 
867.26123 96.0 
867.46698 16.0 
867.904236 9.0 
868.277283 49.0 
868.328735 28.0 
868.367371 25.0 
868.418823 6.0 
868.470276 13.0 
869.152344 5.0 
869.165222 5.0 
869.203796 19.0 
869.25531 22.0 
869.345398 7.0 
869.487 25.0 
871.251648 31.0 
874.102051 7.0 
874.256958 25.0 
874.644287 7.0 
874.902527 26.0 
875.199585 23.0 
875.302917 34.0 
875.40625 24.0 
875.535461 7.0 
875.638794 8.0 
875.742126 10.0 
875.755066 10.0 
875.987671 16.0 
877.383789 7.0 
878.93634 10.0 
879.195251 7.0 
879.635437 10.0 
879.648438 10.0 
879.739075 9.0 
879.90741 7.0 
880.023987 9.0 
880.205322 9.0 
881.38446 10.0 
881.42334 8.0 
881.539978 7.0 
881.967834 11.0 
882.019714 21.0 
882.136414 9.0 
882.240112 360.0 
882.369812 44.0 
882.408691 23.0 
882.434631 67.0 
882.473572 14.0 
882.525452 21.0 
882.551392 13.0 
882.732971 12.0 
882.836792 26.0 
882.992432 135.0 
883.083252 40.0 
883.122192 128.0 
883.264893 40307.0 
883.355713 198.0 
883.433594 194.0 
883.472534 77.0 
883.511475 71.0 
883.537415 78.0 
883.602295 158.0 
883.641235 91.0 
883.667175 90.0 
883.732117 27.0 
883.796997 153.0 
883.874878 25.0 
883.952759 12.0 
883.991699 24.0 
884.06958 33.0 
884.264343 17689.0 
884.394165 82.0 
884.433105 163.0 
884.498047 111.0 
884.536987 115.0 
884.588928 43.0 
884.627869 78.0 
884.705811 13.0 
884.73175 15.0 
884.809692 12.0 
884.939575 69.0 
885.030457 15.0 
885.095398 26.0 
885.1474 83.0 
885.264282 6275.0 
885.355225 145.0 
885.394165 60.0 
885.420166 62.0 
885.446167 51.0 
885.472168 58.0 
885.524109 35.0 
885.537109 35.0 
885.576111 29.0 
885.680054 43.0 
885.731995 35.0 
885.783997 13.0 
885.809937 11.0 
885.887939 14.0 
885.978882 38.0 
886.017883 7.0 
886.043884 10.0 
886.082886 26.0 
886.147827 78.0 
886.173828 65.0 
886.21283 209.0 
886.264832 1297.0 
886.342834 44.0 
886.394775 63.0 
886.433777 54.0 
886.472778 44.0 
886.498779 44.0 
886.628784 6.0 
886.979858 8.0 
887.122864 13.0 
887.200928 69.0 
887.278931 256.0 
887.395996 51.0 
887.421997 56.0 
887.473999 13.0 
887.552063 16.0 
887.786194 27.0 
887.864258 10.0 
887.981323 10.0 
888.319641 10.0 
888.423767 6.0 
888.65802 12.0 
888.905334 12.0 
889.00946 6.0 
889.204712 10.0 
889.647461 6.0 
889.764648 11.0 
889.816711 6.0 
890.989258 8.0 
891.262939 10.0 
891.276001 10.0 
891.784424 7.0 
891.97998 7.0 
892.188599 13.0 
892.658142 13.0 
894.041382 9.0 
894.145874 7.0 
895.660889 11.0 
896.549622 10.0 
896.745728 6.0 
897.805054 6.0 
898.537842 6.0 
898.550903 6.0 
899.37561 7.0 
900.934387 10.0 
901.366882 7.0 
903.609741 8.0 
911.251038 7.0 
912.991577 15.0 
916.319031 18.0 
917.270813 7.0 
920.765015 8.0 
921.215515 16.0 
921.533569 16.0 
924.850037 13.0 
929.31665 37.0 
934.194336 19.0 
935.235535 39.0 
942.191406 17.0 
945.222595 12.0 
956.328979 42.0 
966.047791 8.0 
977.15271 30.0 
980.430908 6.0 
984.070679 11.0 
1000.091309 7.0 
1005.898743 13.0 
1007.10376 7.0 
1011.278564 19.0 
1016.547546 10.0 
1019.166199 16.0 
1020.448914 8.0 
1035.454834 8.0 
1045.143188 16.0 
1063.302246 14.0 
1064.327515 11.0 
1068.80481 16.0 
1070.161255 15.0 
1075.123047 11.0 
1082.235352 12.0 
1096.573608 7.0 
1112.199951 39.0 
1120.982666 20.0 
1130.739258 17.0 
1134.265503 11.0 
1135.059692 39.0 
1145.586426 11.0 
1146.887207 32.0 
1155.345459 10.0 
1160.42627 12.0 
1165.607788 13.0 
1180.231445 5.0 
1180.24646 5.0 
1192.366821 8.0 
1193.859741 21.0 
1194.568848 16.0 
1196.108521 16.0 
1224.46582 14.0 
1245.377808 7.0 
1249.757446 31.0 
1268.378662 8.0 
1269.15625 11.0 
1269.514038 24.0 
1285.931885 8.0 
1293.143921 27.0 
1298.424561 23.0 
1352.240356 9.0 
1360.456909 12.0 
1380.174438 14.0 
1390.18396 8.0 
1393.490479 14.0 
1394.40332 33.0 
1404.333496 12.0 
1417.272217 26.0 
1443.427246 14.0 
1455.328247 16.0 
1466.325073 7.0 
1508.843262 17.0 
1510.709351 12.0 
1554.188721 7.0 
1560.546387 22.0 
1561.684937 14.0 
1578.500488 11.0 
1579.992676 20.0 
1605.484253 11.0 
1609.265137 25.0 
1613.453735 6.0 
1639.796143 23.0 
1663.359009 27.0 
1691.971313 8.0 
1749.014648 6.0 
1757.314209 7.0 
1776.253052 12.0 
END IONS

