BEGIN IONS
TITLE=Scan Number: 38
PEPMASS=925.0
CHARGE=1+
COMPOUNDNAME=Amphotericin B
LIBRARYQUALITY=3
SMILES=C[C@H]1/C=C/C=C/C=C/C=C/C=C/C=C/C=C/[C@@H](C[C@H]2[C@@H]([C@H](C[C@](O2)(C[C@H](C[C@H]([C@@H](CC[C@H](C[C@H](CC(=O)O[C@H]([C@@H]([C@@H]1O)C)C)O)O)O)O)O)O)O)C(=O)O)O[C@H]3[C@H]([C@H]([C@@H]([C@H](O3)C)O)N)O
INCHIKEY=APKFDSVGJQXUKY-INPOYWNPSA-N
INCHI="InChI=1S/C47H73NO17/c1-27-17-15-13-11-9-7-5-6-8-10-12-14-16-18-34(64-46-44(58)41(48)43(57)30(4)63-46)24-38-40(45(59)60)37(54)26-47(61,65-38)25-33(51)22-36(53)35(52)20-19-31(49)21-32(50)23-39(55)62-29(3)28(2)42(27)56/h5-18,27-38,40-44,46,49-54,56-58,61H,19-26,48H2,1-4H3,(H,59,60)/b6-5+,9-7+,10-8+,13-11+,14-12+,17-15+,18-16+/t27-,28-,29-,30+,31+,32+,33-,34-,35+,36+,37-,38-,40+,41-,42+,43+,44-,46-,47+/m0/s1"
MSLEVEL=2
SOURCE_INSTRUMENT=DI-ESI-Hybrid FT
FILENAME=Amphotericin_B_FT_925mz.mzXML
SEQ=*..*
NOTES=
IONMODE=Positive
ORGANISM=GNPS-LIBRARY
NAME=Amphotericin B M+H
SPECTRUMID=CCMSLIB00000075332
ACTIVATION=CID
INSTRUMENT=ion trap
SCANS=38
251.00856 14958.303711 
251.970108 3835.242188 
252.812881 15471.917969 
253.507996 7824.035156 
254.29985 3945.614746 
255.258591 14049.582031 
256.450653 8708.668945 
257.937012 12827.927734 
258.78891 4174.620117 
259.375031 6066.604492 
260.406677 16372.720703 
261.178101 4305.236328 
262.266785 13087.408203 
263.808838 9815.253906 
264.441101 3954.058105 
265.402649 17260.257812 
266.106842 4385.769531 
267.746918 4272.026855 
269.774384 6051.877441 
271.627228 8158.566406 
273.757507 4790.910645 
274.560211 9291.583008 
277.0802 3946.54541 
277.739288 10542.841797 
281.299225 11211.356445 
282.619385 5299.512207 
283.558228 7760.936035 
284.29834 3954.11377 
285.543518 8767.101562 
286.821198 4610.052246 
287.541046 8114.941406 
288.04306 3795.309326 
288.734436 4744.138184 
289.890076 12666.230469 
291.341003 4878.566406 
292.90509 13459.700195 
293.78833 8340.050781 
294.47522 13365.600586 
295.208649 3875.008057 
296.346313 13155.986328 
298.09491 6223.113281 
299.404968 16103.611328 
300.605072 8256.952148 
301.36319 13116.827148 
302.044556 4073.59668 
302.990662 3803.522217 
303.746216 4403.617676 
304.70636 10618.694336 
306.513123 12472.453125 
307.391937 5352.290527 
308.537689 12231.069336 
310.123688 4838.035156 
311.37088 5771.606445 
312.443237 7912.991211 
313.412231 15589.874023 
314.458862 11989.132812 
315.668732 4049.501953 
316.565033 7675.338867 
318.206879 8212.509766 
319.395447 12822.206055 
320.240021 17567.730469 
321.277618 12151.357422 
322.219727 20104.693359 
324.470795 17584.884766 
325.853577 9792.993164 
326.464264 10664.532227 
327.848785 3590.00708 
329.930176 8353.87793 
330.895142 9214.992188 
331.534058 4232.689453 
332.443604 18936.974609 
333.404205 4079.29541 
333.946686 3930.601074 
334.751648 14961.606445 
336.326111 3711.352051 
338.199402 14310.192383 
339.108429 5022.729492 
339.894562 4105.226562 
340.574524 3993.725098 
342.592957 11510.797852 
343.616425 4201.254883 
344.548279 8698.075195 
345.405396 12463.845703 
345.995148 6326.583008 
346.810059 9667.108398 
348.389252 8659.234375 
349.151337 5616.474609 
350.399445 4526.166016 
350.911041 3982.16626 
352.226349 9775.824219 
353.24292 3662.115967 
354.661987 7780.727051 
355.400665 12876.71582 
356.843811 14595.736328 
358.553741 11698.980469 
359.241943 7318.062988 
359.976532 8729.939453 
361.292358 8983.966797 
361.918091 8226.222656 
362.476868 3990.694336 
365.1716 5608.949707 
366.342407 3821.583984 
367.951569 8073.142578 
368.985504 8802.806641 
370.283295 3583.730957 
371.090546 4004.875488 
371.773773 9945.341797 
373.811157 8510.545898 
374.814331 8084.054199 
375.326813 5240.616699 
377.56488 3815.790039 
378.681976 5386.54541 
379.442169 8538.34375 
380.546234 17565.820312 
381.41272 9532.219727 
382.778229 4864.151855 
383.550964 4701.187988 
386.277557 13204.980469 
387.106384 10085.731445 
387.8974 7096.332031 
388.996094 5567.038574 
389.98764 12286.439453 
390.902893 8702.824219 
392.378296 7017.597656 
393.647461 18181.470703 
394.431946 9629.209961 
398.861145 5147.92041 
401.722137 10149.773438 
402.594849 3803.268066 
403.994202 3665.115967 
405.91864 11116.351562 
406.88382 4188.928711 
409.621704 16305.842773 
410.351715 3825.805664 
410.951569 9217.229492 
412.948395 3855.445068 
413.767517 4556.120117 
414.936981 4005.90918 
415.688721 4277.754395 
418.896393 6131.823242 
419.522369 4090.171387 
421.021179 4185.566895 
422.063904 5363.271484 
423.199249 5464.722168 
427.36853 3816.246582 
429.601807 13074.436523 
430.527802 4554.612305 
431.587555 4737.550293 
432.76236 4238.629395 
434.742218 4153.96582 
436.920532 10263.935547 
438.756622 8915.884766 
439.53894 3692.803955 
440.086121 4274.180664 
442.617645 4345.327148 
444.532166 8757.414062 
445.675171 8410.717773 
447.997833 4462.03125 
449.439728 4898.961426 
454.918457 3885.328125 
457.836639 5121.182617 
460.798218 5451.099609 
461.674286 14261.961914 
464.075256 3659.229248 
465.092743 5814.91748 
466.080566 4685.099121 
467.538818 8945.273438 
469.411194 13150.533203 
471.399963 9460.980469 
471.932617 4176.797852 
474.249603 3977.631348 
475.461273 3584.344482 
477.817413 5442.826172 
478.801208 4332.595703 
479.785736 3750.923828 
480.523041 12769.46582 
481.064178 4247.80127 
487.826599 8563.850586 
489.896301 37112.386719 
491.49942 8259.769531 
494.943878 7208.585938 
496.72522 16550.138672 
498.826385 6456.45166 
500.260864 8231.293945 
501.329681 4811.942383 
502.695923 11180.483398 
505.212524 3640.967773 
506.812988 4474.92041 
509.195312 4232.461914 
509.751587 9067.03418 
511.179169 5078.425781 
511.865997 3802.753906 
513.58905 4400.766602 
515.073364 3939.680908 
515.79425 8485.670898 
518.24176 10733.786133 
521.150452 8993.249023 
522.350769 10326.708008 
525.501221 9280.994141 
527.267944 5159.168457 
529.131714 5036.25293 
534.045105 4051.804199 
535.029053 10595.675781 
536.040283 4287.000977 
536.894104 4227.060547 
541.763794 5327.178223 
542.371704 9762.148438 
544.322876 9541.460938 
547.425049 4336.313965 
548.649902 9378.935547 
549.802124 6802.619141 
550.317139 4009.810059 
551.208679 8989.484375 
557.803772 7375.507324 
559.076965 4652.31543 
560.250183 10106.040039 
565.875305 4278.156738 
566.435486 4752.573242 
570.764954 4127.203125 
573.176208 57936.773438 
575.092224 19916.533203 
575.883179 10004.085938 
578.573303 4674.88916 
580.124146 32588.376953 
581.035645 5549.469238 
582.08075 9284.818359 
583.381653 22822.099609 
583.950989 4606.661133 
585.099854 3990.355469 
586.888733 4978.380371 
589.826233 4573.506836 
590.701538 4518.650391 
591.30481 4505.884766 
593.822571 22513.533203 
594.853271 5071.702148 
597.072876 37089.53125 
598.189514 5225.710938 
599.404968 4926.635742 
601.155762 5518.668945 
603.13855 14536.878906 
604.392273 37098.664062 
605.39624 4710.584961 
607.068542 13295.136719 
607.835754 9997.322266 
610.2453 8845.786133 
613.236877 8642.385742 
615.264099 18060.357422 
615.924072 4691.96875 
616.749695 8269.736328 
617.393372 47141.207031 
619.029663 49745.507812 
621.227112 6024.754883 
622.539124 27033.917969 
623.108337 4354.108398 
623.959473 4256.250488 
626.550598 22368.947266 
627.431702 8887.985352 
629.327881 134603.21875 
630.986877 84121.195312 
631.578064 4377.837402 
632.970215 9549.873047 
633.590881 7454.975586 
636.829102 4414.586914 
638.851685 4800.878418 
641.970459 54946.5625 
642.918823 9911.005859 
643.585144 4313.381836 
644.649414 4238.085449 
647.325195 13279.649414 
648.054016 4387.509277 
650.150513 9246.420898 
651.041199 14762.683594 
655.089111 37455.097656 
661.59845 4811.901367 
664.570007 4371.222656 
667.557007 9631.085938 
668.769836 38718.214844 
670.07843 4051.157959 
670.694336 9078.734375 
673.242493 65030.722656 
676.378662 8257.603516 
678.824158 5170.87793 
681.327881 4412.769531 
682.360291 62251.355469 
682.975342 11267.449219 
684.646667 4247.194336 
686.942871 15353.553711 
689.153931 12308.398438 
696.92627 77046.945312 
697.965332 11976.186523 
700.065918 4623.64209 
701.316162 14961.578125 
701.920959 8766.301758 
706.161011 49180.160156 
707.390015 6534.538086 
707.914978 4424.525391 
708.891174 4933.724609 
711.35321 14387.404297 
713.595459 14257.081055 
714.420959 4846.072266 
716.762024 11791.707031 
719.802002 5530.491211 
722.078125 25135.882812 
724.328064 9199.895508 
725.396362 25934.316406 
726.428711 4052.142578 
729.517517 5064.525879 
730.297485 4522.762695 
730.913086 5853.130859 
731.466919 4438.236328 
732.414551 13460.583008 
733.138611 8811.371094 
736.639893 14213.186523 
737.405029 66853.390625 
739.279053 5102.511719 
742.418091 9402.160156 
743.407471 160001.390625 
745.139648 9541.609375 
749.149719 4509.890625 
753.816223 61541.5 
757.890503 12671.31543 
759.177307 5373.061523 
761.422363 67394.3125 
764.581604 5193.71875 
765.583008 28342.703125 
769.234802 8728.467773 
771.002747 6689.613281 
772.113403 19214.492188 
774.439941 4184.977051 
777.927612 4356.248047 
779.186646 4410.757324 
782.834961 19743.474609 
784.718018 4401.043945 
786.369934 4467.835938 
788.143616 5405.425293 
790.905579 4710.146484 
793.342224 8812.226562 
802.236267 39567.84375 
805.982422 4517.72168 
808.370972 4480.658691 
816.518188 4694.588867 
817.451111 4445.588867 
820.471436 6226.563477 
822.170227 7766.520996 
823.671021 4478.251953 
831.468262 8708.723633 
833.777893 6117.0 
835.068054 4722.300293 
838.261902 6363.465332 
842.244019 9379.521484 
844.658264 4922.542969 
846.369019 6217.480469 
850.446106 5260.291016 
852.621521 4677.959961 
853.369202 9165.101562 
860.19458 4724.427734 
861.822266 4698.052734 
864.37085 11702.011719 
865.172241 9555.365234 
867.630188 4147.047852 
868.400391 9897.992188 
871.996521 49713.339844 
873.456726 5049.134277 
874.811768 5869.687988 
879.22522 31160.228516 
879.759705 4596.143555 
881.298645 4462.911133 
886.107788 4767.888672 
888.402161 4241.46582 
888.927551 7056.766602 
889.563965 6495.887695 
904.493042 6392.13623 
906.502258 1760363.5 
907.068176 4330.041016 
907.643555 6156.89209 
912.021057 4506.756348 
912.985107 9664.914062 
921.902283 18968.228516 
926.788269 9217.561523 
932.230408 6493.111816 
934.459534 5037.217773 
937.167725 5424.998535 
938.095215 4862.945312 
945.227478 8284.400391 
947.655579 4436.522461 
949.17395 4406.662109 
953.769958 5815.522949 
955.164062 72636.601562 
957.836243 5020.562012 
962.327454 6000.179199 
963.281067 4744.780273 
966.368591 4236.332031 
968.379883 6050.403809 
974.653015 5514.546387 
975.273743 3570.23877 
975.995422 4409.017578 
978.425903 4684.563477 
980.101379 5960.208496 
980.7099 4844.236328 
983.686951 4135.429688 
986.200562 6607.429199 
986.836121 4402.939453 
995.771118 5177.585938 
1002.002563 16887.271484 
1006.86499 13124.416992 
1015.833435 7006.870605 
1023.048218 16757.066406 
1025.921265 4287.097656 
1032.150269 13272.871094 
1037.110718 10976.009766 
1039.557007 20657.328125 
1040.19104 5744.112305 
1044.554077 6248.944336 
1045.554932 6226.739746 
1049.890747 4558.694336 
1051.856812 5196.234375 
1054.622803 13229.644531 
1056.796631 18411.886719 
1057.489502 4596.489258 
1059.528687 4228.397461 
1060.291626 4857.327148 
1062.981323 7621.929688 
1063.861572 4918.125 
1066.225098 4234.865234 
1067.283081 4416.182617 
1070.114624 5234.997559 
1081.6698 4634.691406 
1084.679077 4724.611816 
1085.735107 5723.382324 
1087.703979 15288.164062 
1089.377563 11493.086914 
1091.957642 5831.313965 
1101.554443 4654.623047 
1103.108521 5892.05127 
1107.531372 6139.35498 
1109.662476 4488.386719 
1112.111816 4686.131348 
1113.447266 23228.375 
1115.407959 4917.612305 
1119.508301 4437.88916 
1121.976318 5473.871094 
1127.129517 4637.583984 
1130.355225 5408.73877 
1131.649658 15321.176758 
1133.489746 4496.345215 
1134.532593 4950.819824 
1135.033569 4515.876465 
1146.75708 4364.447266 
1150.192383 4451.561523 
1151.039062 5052.037598 
1152.753662 5868.819336 
1156.019531 10362.224609 
1156.595581 4603.087402 
1157.610962 4488.833008 
1160.356567 4148.212891 
1166.979126 9679.327148 
1168.014893 4985.909668 
1171.235352 5338.336914 
1172.694702 11039.231445 
1175.593018 5172.174316 
1176.130981 4996.369629 
1179.505615 8564.716797 
1181.159912 18457.474609 
1185.981323 4165.149902 
1188.643311 12148.484375 
1191.994385 9889.176758 
1193.173828 14746.030273 
1194.349487 7964.010254 
1197.688599 3994.280762 
1203.533813 5148.139648 
1208.308716 8266.604492 
1213.801758 6335.535156 
1214.588745 9341.635742 
1216.362305 4690.490234 
1218.199097 5377.929199 
1220.051025 5801.814453 
1220.984497 5646.265625 
1223.960205 4459.44873 
1230.524414 4492.719727 
1231.613647 4461.631348 
1237.250488 5437.573242 
1238.108521 8303.24707 
1239.269531 38238.871094 
1244.052246 14472.901367 
1244.887573 4359.742188 
1255.60022 11446.78125 
1261.696045 4762.521484 
1269.831299 12818.850586 
1278.188477 5109.19873 
1280.854858 5273.907715 
1284.053589 7203.671875 
1285.824829 10534.921875 
1287.006958 7143.647461 
1289.491089 4093.784668 
1292.127686 4779.855957 
1299.166992 10812.467773 
1300.716187 5613.562988 
1319.616211 13892.828125 
1331.725586 4865.492188 
1334.361938 5883.789062 
1335.388306 14108.960938 
1341.656982 4679.86084 
1344.486938 10268.958984 
1347.019287 4350.45166 
1349.620483 4177.511719 
1350.772705 11160.310547 
1351.929932 9365.269531 
1353.184937 4808.561035 
1360.419312 4539.183594 
1361.604004 5004.678223 
1365.403687 7895.87207 
1375.570801 9324.805664 
1379.789185 5061.483398 
1388.098633 5494.669922 
1388.74707 5133.876953 
1390.223755 4935.808105 
1401.386963 4455.826172 
1405.191406 5201.691895 
1407.760986 4657.108398 
1408.732666 8748.506836 
1410.720093 6211.975586 
1412.320435 73532.734375 
1417.961304 4505.262695 
1422.856812 5050.961914 
1427.181763 5362.0 
1430.371826 6326.501465 
1442.356323 5816.54248 
1451.147339 9694.522461 
1452.247192 33377.710938 
1457.829346 4268.075195 
1459.316162 5031.841309 
1462.609375 4889.600586 
1466.403687 9637.18457 
1468.3302 4565.87793 
1475.946533 4051.049316 
1477.873779 4697.213867 
1481.395996 4885.370605 
1482.467651 5211.189453 
1485.851685 5233.83252 
1491.936523 10163.630859 
1498.832642 4675.871094 
1499.410767 4940.482422 
1505.841919 5817.969238 
1514.488647 4241.748047 
1515.896362 4864.478516 
1518.932861 5578.49707 
1519.708984 4935.802246 
1521.128784 89681.40625 
1524.812378 4434.33252 
1533.275391 7013.355469 
1535.055054 23612.431641 
1538.080322 4809.485352 
1539.360352 5911.346191 
1540.636597 15182.158203 
1546.203003 6770.231934 
1547.781128 4890.413086 
1555.799438 5136.763672 
1562.000488 4739.671387 
1567.797119 5707.617188 
1590.720215 6523.36377 
1591.705078 7371.443848 
1592.557495 25271.486328 
1597.237305 4510.348145 
1598.786499 4534.724609 
1604.787109 100711.234375 
1611.776367 10955.780273 
1614.684692 5045.679688 
1616.873291 10866.535156 
1618.774048 14881.333984 
1620.083252 6284.964844 
1622.006592 7594.568359 
1623.395386 7602.079102 
1629.202881 5141.015137 
1630.990112 4749.829102 
1644.394409 5822.196777 
1645.8396 8996.46582 
1654.674316 7757.179199 
1659.109375 6271.720703 
1669.666992 4556.276855 
1670.218262 7398.994629 
1671.304565 4324.814453 
1676.181152 4525.841309 
1684.577881 4556.709473 
1687.539551 4974.697266 
1688.723145 6188.610352 
1691.234375 11963.12793 
1692.49231 5549.753906 
1693.418213 7171.714844 
1698.558228 5428.299805 
1699.890747 5923.303223 
1701.130249 4761.625977 
1702.371094 11433.225586 
1705.971313 5423.789062 
1706.547363 5334.28418 
1709.548462 4917.184082 
1710.203491 5886.90625 
1713.469116 4799.854004 
1717.699707 5262.167969 
1720.661377 9460.384766 
1723.888916 11452.176758 
1724.849731 4566.298828 
1726.911133 11070.015625 
1728.111206 8936.555664 
1733.286621 5678.018555 
1740.487427 4745.552246 
1747.043579 5017.494141 
1753.717407 9478.426758 
1754.764893 7927.666992 
1758.4198 23435.578125 
1761.122803 5288.76123 
1762.3302 4408.46582 
1764.712646 10805.973633 
1766.126953 5220.416504 
1775.077637 4213.806641 
1780.91394 5892.369629 
1782.044067 4600.438477 
1791.474487 3800.925781 
1793.50769 9267.043945 
1795.078491 11171.927734 
1797.142578 4432.719238 
1799.055054 24495.876953 
1806.979004 10652.695312 
1808.737671 4683.363281 
1809.298828 4701.264648 
1811.719482 5007.653809 
1812.542236 5315.196777 
1817.061768 9359.00293 
1822.983398 10778.357422 
1824.249878 6939.018555 
1826.981323 20985.808594 
1835.443359 4197.041992 
1845.87561 6409.702148 
1851.260742 7051.535645 
1853.364258 12361.714844 
1857.746338 5264.992188 
1867.790405 5090.681152 
1869.056396 4931.577637 
1890.019531 5212.654785 
1904.162598 4924.736328 
1904.880127 5555.242676 
1914.740234 5470.962891 
1927.664429 11802.5625 
1931.050415 6284.072266 
1940.935669 5552.664551 
1942.899536 8809.19043 
1946.265991 6973.131348 
1959.062256 8430.917969 
1959.847412 5275.456055 
1964.390991 8673.287109 
1968.956177 6860.897461 
1978.304932 7583.333496 
1979.699707 5941.716797 
1991.057251 5347.495117 
END IONS

