BEGIN IONS
PEPMASS=524.28
CHARGE=1+
COMPOUNDNAME=MLS001056783-01!Calcimycin A23187
LIBRARYQUALITY=1
SMILES=CNc1ccc2oc(C[C@H]3O[C@@]4(CC[C@H]3C)O[C@H]([C@H](C)C(=O)c5ccc[nH]5)[C@H](C)C[C@H]4C)nc2c1C(=O)O
INCHIKEY=HIYAVKIYRIFSCZ-CYEMHPAKSA-N
INCHI=N/A
MSLEVEL=2
SOURCE_INSTRUMENT=LC-ESI-qTof
FILENAME=p4-E11_GE11_01_18383.mzXML
SEQ=*..*
IONMODE=Positive
ORGANISM=GNPS-NIH-SMALLMOLECULEPHARMACOLOGICALLYACTIVE
NAME=MLS001056783-01!Calcimycin A23187 M+H
PI=Dorrestein
DATACOLLECTOR=VP/LMS
PUBMED=N/A
SUBMITUSER=vphelan
TAGS=
SPECTRUMID=CCMSLIB00000085751
SCANS=3060
44.898537 180.0 
44.915905 128.0 
44.939213 276.0 
44.962635 172.0 
44.970112 64.0 
44.973904 156.0 
44.989223 172.0 
44.999538 192.0 
45.010498 116.0 
45.020542 92.0 
45.024887 124.0 
45.030605 140.0 
45.043545 156.0 
45.046192 116.0 
45.051991 124.0 
45.069271 128.0 
45.078625 272.0 
45.089825 152.0 
45.11343 204.0 
45.125465 152.0 
45.139233 320.0 
45.157204 196.0 
45.16946 320.0 
45.18224 100.0 
45.197639 136.0 
45.207355 184.0 
45.240494 128.0 
45.267643 124.0 
45.272011 108.0 
45.278152 168.0 
45.300259 296.0 
45.324051 340.0 
45.352993 132.0 
45.362377 136.0 
45.372337 140.0 
45.380611 300.0 
45.409863 116.0 
45.433407 112.0 
45.436382 136.0 
45.45507 168.0 
45.46529 160.0 
45.481785 240.0 
45.494831 272.0 
45.511971 144.0 
45.524834 304.0 
45.546219 84.0 
45.557198 284.0 
45.569099 248.0 
45.59296 152.0 
45.616615 188.0 
45.663052 236.0 
45.666939 64.0 
45.66991 276.0 
45.675373 148.0 
45.68047 224.0 
45.683899 200.0 
45.71936 96.0 
45.744637 212.0 
45.762009 140.0 
45.77961 68.0 
45.792896 172.0 
45.8195 112.0 
45.836388 148.0 
45.865337 128.0 
45.886696 128.0 
45.902927 108.0 
45.916233 208.0 
45.92683 248.0 
45.957558 112.0 
45.963001 56.0 
45.976814 144.0 
45.991447 204.0 
46.00246 124.0 
46.010963 268.0 
46.048759 256.0 
46.071392 80.0 
46.076221 104.0 
46.093216 160.0 
46.122471 384.0 
46.137699 272.0 
46.159451 140.0 
46.169468 108.0 
46.181091 52.0 
46.195461 164.0 
46.207878 140.0 
46.221352 116.0 
46.226398 128.0 
46.260387 280.0 
46.272144 140.0 
46.29129 208.0 
46.306969 152.0 
46.318722 396.0 
46.329418 172.0 
46.342934 240.0 
46.354385 152.0 
46.367939 72.0 
46.391945 120.0 
46.412674 128.0 
46.428947 60.0 
46.449203 184.0 
46.467945 300.0 
46.481441 144.0 
46.503742 312.0 
46.517143 180.0 
46.526985 160.0 
46.54258 148.0 
46.563213 224.0 
46.586361 136.0 
46.591053 132.0 
46.59362 192.0 
46.604065 88.0 
46.616257 148.0 
46.629128 156.0 
46.640759 288.0 
46.663815 100.0 
46.678795 156.0 
46.701622 168.0 
46.710464 172.0 
46.72504 180.0 
46.736561 108.0 
46.740566 300.0 
46.757416 164.0 
46.770252 260.0 
46.790962 176.0 
46.819702 116.0 
46.835991 140.0 
46.846962 164.0 
46.861008 176.0 
46.875702 364.0 
46.910778 100.0 
46.921196 136.0 
46.93483 156.0 
46.95348 124.0 
46.957169 84.0 
46.968765 300.0 
46.982567 140.0 
47.003368 180.0 
47.016682 176.0 
47.028103 148.0 
47.039883 84.0 
47.053005 144.0 
47.065262 184.0 
47.078114 384.0 
47.093044 120.0 
47.110863 164.0 
47.136154 132.0 
47.154911 248.0 
47.180027 252.0 
47.189816 256.0 
47.204082 144.0 
47.226463 192.0 
47.258167 252.0 
47.286476 120.0 
47.296501 324.0 
47.29879 220.0 
47.315502 112.0 
47.319023 132.0 
47.348949 120.0 
47.375595 132.0 
47.383377 168.0 
47.419422 192.0 
47.4338 96.0 
47.437206 172.0 
47.446976 112.0 
47.455109 136.0 
47.468132 88.0 
47.480072 340.0 
47.496208 176.0 
47.525593 136.0 
47.545643 112.0 
47.558681 64.0 
47.58461 476.0 
47.591064 68.0 
47.594959 284.0 
47.612473 68.0 
47.625771 56.0 
47.638958 152.0 
47.648388 260.0 
47.665413 144.0 
47.675732 316.0 
47.695343 188.0 
47.723278 148.0 
47.738316 196.0 
47.740746 164.0 
47.760109 420.0 
47.776657 116.0 
47.799194 108.0 
47.807079 104.0 
47.825508 336.0 
47.845272 124.0 
47.854885 216.0 
47.869358 164.0 
47.88327 228.0 
47.90416 136.0 
47.907509 96.0 
47.93396 148.0 
47.961708 164.0 
47.97963 180.0 
47.989281 120.0 
48.01759 220.0 
48.026096 92.0 
48.035652 232.0 
48.040535 224.0 
48.058662 120.0 
48.076649 248.0 
48.094616 160.0 
48.117599 216.0 
48.133411 116.0 
48.147858 92.0 
48.151711 232.0 
48.167572 280.0 
48.178791 156.0 
48.191704 180.0 
48.204288 336.0 
48.214741 116.0 
48.233742 56.0 
48.245335 96.0 
48.26947 92.0 
48.273739 132.0 
48.295376 160.0 
48.308907 124.0 
48.318539 196.0 
48.329071 132.0 
48.348259 120.0 
48.376125 324.0 
48.396664 332.0 
48.415878 96.0 
48.429649 152.0 
48.439869 132.0 
48.482597 152.0 
48.488327 84.0 
48.502186 132.0 
48.524185 244.0 
48.541542 256.0 
48.570133 112.0 
48.585312 140.0 
48.590645 132.0 
48.612389 316.0 
48.633961 228.0 
48.649765 312.0 
48.674767 184.0 
48.695366 108.0 
48.709129 120.0 
48.728096 412.0 
48.769325 168.0 
48.786453 320.0 
48.800892 200.0 
48.819324 192.0 
48.853008 228.0 
48.881233 176.0 
48.894001 128.0 
48.908169 176.0 
48.925663 100.0 
48.942131 48.0 
48.969646 160.0 
48.987499 148.0 
49.001095 220.0 
49.017075 180.0 
49.03059 192.0 
49.05043 188.0 
49.058155 68.0 
49.063297 184.0 
49.090538 184.0 
49.103214 172.0 
49.11552 152.0 
49.133419 132.0 
49.138428 120.0 
49.143429 136.0 
49.157524 152.0 
49.168995 156.0 
49.195797 192.0 
49.20607 108.0 
49.209473 140.0 
49.222187 300.0 
49.238842 296.0 
49.26569 176.0 
49.297329 256.0 
49.315655 196.0 
49.327663 256.0 
49.341793 228.0 
49.365704 92.0 
49.384167 304.0 
49.403179 152.0 
49.420113 160.0 
49.432884 160.0 
49.447575 128.0 
49.471928 132.0 
49.494122 156.0 
49.50576 168.0 
49.522579 160.0 
49.543346 124.0 
49.5616 160.0 
49.572601 136.0 
49.595592 288.0 
49.623825 144.0 
49.636246 140.0 
49.640381 172.0 
49.657852 124.0 
49.689278 96.0 
49.706104 120.0 
49.738655 172.0 
49.760502 144.0 
49.765499 124.0 
49.793488 180.0 
49.82589 200.0 
49.854927 136.0 
49.86536 80.0 
49.875923 136.0 
49.889019 144.0 
49.917114 132.0 
49.925907 160.0 
49.939739 92.0 
49.961842 132.0 
49.98674 136.0 
50.023182 388.0 
50.033943 324.0 
50.048557 136.0 
50.076443 168.0 
50.080399 148.0 
50.094009 284.0 
50.107185 152.0 
50.121624 380.0 
50.133873 124.0 
50.147385 176.0 
50.161533 456.0 
50.179016 160.0 
50.204323 100.0 
50.214424 316.0 
50.244011 316.0 
50.262276 136.0 
50.27573 160.0 
50.296833 108.0 
50.313602 124.0 
50.340622 204.0 
50.357655 92.0 
50.374531 152.0 
50.38446 172.0 
50.419819 116.0 
50.433846 184.0 
50.451035 144.0 
50.463791 304.0 
50.490509 156.0 
50.503025 176.0 
50.519405 112.0 
50.531841 96.0 
50.552757 124.0 
50.566982 160.0 
50.58432 140.0 
50.613129 196.0 
50.632153 244.0 
50.635601 140.0 
50.660366 144.0 
50.675953 180.0 
50.690033 128.0 
50.720085 140.0 
50.737606 112.0 
50.755486 144.0 
50.768227 208.0 
50.78653 172.0 
50.800713 136.0 
50.812065 84.0 
50.82909 80.0 
50.843513 196.0 
50.854595 276.0 
50.871208 272.0 
50.891548 140.0 
50.91156 128.0 
50.931114 200.0 
50.957993 164.0 
50.970367 188.0 
50.982601 204.0 
51.005569 108.0 
51.026184 168.0 
51.04982 168.0 
51.070034 148.0 
51.095837 120.0 
51.120369 156.0 
51.140331 152.0 
51.164532 124.0 
51.182156 148.0 
51.202213 144.0 
51.225727 184.0 
51.248306 212.0 
51.262814 96.0 
51.279896 248.0 
51.29073 184.0 
51.305576 400.0 
51.317593 168.0 
51.340172 444.0 
51.375832 296.0 
51.418262 84.0 
51.422058 176.0 
51.434139 228.0 
51.456196 128.0 
51.476311 336.0 
51.486538 156.0 
51.503933 80.0 
51.528133 132.0 
51.540157 232.0 
51.551617 140.0 
51.57383 188.0 
51.593487 176.0 
51.6077 276.0 
51.624172 156.0 
51.645443 128.0 
51.663151 180.0 
51.678947 248.0 
51.704556 192.0 
51.7313 60.0 
51.750336 136.0 
51.782528 300.0 
51.79755 128.0 
51.816227 148.0 
51.834427 156.0 
51.846088 260.0 
51.860222 100.0 
51.872452 188.0 
51.897926 40.0 
51.916306 136.0 
51.94376 124.0 
51.975426 248.0 
51.998657 124.0 
52.011398 280.0 
52.017239 116.0 
52.021103 100.0 
52.046246 144.0 
52.058094 244.0 
52.08427 160.0 
52.101303 184.0 
52.12672 180.0 
52.130043 48.0 
52.146671 180.0 
52.159046 104.0 
52.171772 124.0 
52.181976 128.0 
52.187965 108.0 
52.192654 164.0 
52.217739 124.0 
52.229248 160.0 
52.240974 52.0 
52.252895 372.0 
52.257957 96.0 
52.262524 192.0 
52.28788 176.0 
52.300434 76.0 
52.324226 160.0 
52.343029 136.0 
52.353733 124.0 
52.367298 88.0 
52.381832 160.0 
52.403442 112.0 
52.425133 232.0 
52.444981 136.0 
52.464924 176.0 
52.476952 100.0 
52.481792 184.0 
52.508652 144.0 
52.529423 448.0 
52.542797 116.0 
52.548687 128.0 
52.561962 128.0 
52.582188 168.0 
52.587521 124.0 
52.611126 128.0 
52.634747 256.0 
52.640446 92.0 
52.645947 140.0 
52.664009 176.0 
52.679001 84.0 
52.698895 104.0 
52.707676 360.0 
52.719154 132.0 
52.733513 392.0 
52.753807 168.0 
52.771671 100.0 
52.789417 112.0 
52.79847 92.0 
52.80402 180.0 
52.823055 80.0 
52.843819 64.0 
52.861748 164.0 
52.866745 128.0 
52.873314 156.0 
52.900078 176.0 
52.913292 164.0 
52.928799 172.0 
52.950516 164.0 
52.968845 104.0 
52.991543 144.0 
53.005795 88.0 
53.028214 108.0 
53.044559 176.0 
53.061073 76.0 
53.078312 144.0 
53.084587 128.0 
53.099636 244.0 
53.11644 180.0 
53.129238 188.0 
53.149086 128.0 
53.162212 88.0 
53.178574 180.0 
53.191223 324.0 
53.210014 140.0 
53.216129 92.0 
53.220882 220.0 
53.229702 192.0 
53.246441 140.0 
53.272961 176.0 
53.302055 272.0 
53.32835 136.0 
53.332863 72.0 
53.339157 128.0 
53.363575 160.0 
53.379063 160.0 
53.389168 152.0 
53.399342 144.0 
53.410862 148.0 
53.41618 100.0 
53.436954 140.0 
53.447155 84.0 
53.459904 140.0 
53.465897 148.0 
53.476322 108.0 
53.480984 144.0 
53.500393 124.0 
53.509007 132.0 
53.519592 352.0 
53.535698 236.0 
53.547882 104.0 
53.563061 200.0 
53.586544 300.0 
53.603241 304.0 
53.613228 280.0 
53.623024 244.0 
53.64098 244.0 
53.658661 192.0 
53.674515 184.0 
53.684097 160.0 
53.703014 184.0 
53.727783 164.0 
53.74136 256.0 
53.761108 164.0 
53.773827 120.0 
53.780708 88.0 
53.784836 180.0 
53.796906 236.0 
53.809029 148.0 
53.833023 148.0 
53.852112 108.0 
53.863113 232.0 
53.881626 152.0 
53.894367 100.0 
53.916328 164.0 
53.931999 108.0 
53.953808 180.0 
53.970905 160.0 
53.988674 180.0 
54.016582 196.0 
54.027863 128.0 
54.033115 168.0 
54.03717 160.0 
54.052879 152.0 
54.056717 120.0 
54.073246 172.0 
54.090271 184.0 
54.107166 84.0 
54.120098 132.0 
54.129841 140.0 
54.149094 188.0 
54.158848 124.0 
54.175713 184.0 
54.197041 388.0 
54.212414 136.0 
54.231911 256.0 
54.24538 212.0 
54.26149 120.0 
54.267723 48.0 
54.277336 292.0 
54.297779 252.0 
54.31617 240.0 
54.338478 168.0 
54.345695 192.0 
54.365486 52.0 
54.398273 120.0 
54.416172 116.0 
54.432781 112.0 
54.458267 292.0 
54.477547 200.0 
54.484451 116.0 
54.493919 136.0 
54.509083 200.0 
54.531059 116.0 
54.551647 284.0 
54.581852 256.0 
54.604622 128.0 
54.622391 100.0 
54.638054 248.0 
54.657246 104.0 
54.687397 232.0 
54.701641 176.0 
54.712826 196.0 
54.726765 184.0 
54.737072 172.0 
54.747383 100.0 
54.759594 156.0 
54.772423 196.0 
54.793953 156.0 
54.807629 388.0 
54.820225 100.0 
54.843491 156.0 
54.867222 360.0 
54.882736 296.0 
54.893902 104.0 
54.906551 100.0 
54.920139 244.0 
54.93605 140.0 
54.947571 232.0 
54.976437 140.0 
55.00169 400.0 
55.01915 52.0 
55.024883 220.0 
55.04668 148.0 
55.075195 184.0 
55.088104 144.0 
55.099922 72.0 
55.116177 144.0 
55.133484 252.0 
55.158867 104.0 
55.179646 392.0 
55.185505 164.0 
55.188839 332.0 
55.210697 132.0 
55.215034 124.0 
55.22929 176.0 
55.240559 332.0 
55.260014 284.0 
55.292667 152.0 
55.304554 192.0 
55.336567 116.0 
55.349895 260.0 
55.360046 112.0 
55.372833 92.0 
55.394325 148.0 
55.418472 300.0 
55.44379 352.0 
55.460484 304.0 
55.487694 168.0 
55.507744 144.0 
55.527138 100.0 
55.529957 104.0 
55.537403 92.0 
55.551105 108.0 
55.57122 228.0 
55.575645 136.0 
55.581879 160.0 
55.585491 88.0 
55.609333 496.0 
55.618645 172.0 
55.637314 132.0 
55.66082 188.0 
55.670948 144.0 
55.688175 332.0 
55.711796 116.0 
55.722771 284.0 
55.73682 152.0 
55.751404 152.0 
55.774887 280.0 
55.80827 148.0 
55.82341 132.0 
55.837273 152.0 
55.851532 132.0 
55.863995 180.0 
55.875103 92.0 
55.88818 152.0 
55.90453 136.0 
55.909126 180.0 
55.91428 176.0 
55.925671 208.0 
55.958725 128.0 
55.973732 168.0 
55.999039 148.0 
56.017918 148.0 
56.039108 132.0 
56.055447 108.0 
56.090832 168.0 
56.103245 152.0 
56.113911 232.0 
56.128777 244.0 
56.140263 140.0 
56.14896 308.0 
56.168736 152.0 
56.185299 80.0 
56.20594 208.0 
56.212852 108.0 
56.215813 144.0 
56.246559 136.0 
56.261913 232.0 
56.274914 128.0 
56.292408 148.0 
56.306488 376.0 
56.346157 136.0 
56.364357 196.0 
56.38129 236.0 
56.437805 72.0 
56.468597 288.0 
56.488201 124.0 
56.506367 272.0 
56.518681 336.0 
56.538338 152.0 
56.548798 172.0 
56.55534 128.0 
56.569427 124.0 
56.591858 264.0 
56.60696 184.0 
56.642197 412.0 
56.654057 456.0 
56.669849 208.0 
56.696404 168.0 
56.713791 192.0 
56.731117 152.0 
56.743378 204.0 
56.7617 152.0 
56.776295 164.0 
56.799114 204.0 
56.829937 212.0 
56.83976 148.0 
56.859684 236.0 
56.864201 76.0 
56.870049 120.0 
56.884388 100.0 
56.905956 420.0 
56.924786 216.0 
56.935528 160.0 
56.965088 156.0 
56.968716 188.0 
57.001259 140.0 
57.020798 160.0 
57.044582 160.0 
57.057503 200.0 
57.072037 140.0 
57.125202 192.0 
57.13636 216.0 
57.142078 144.0 
57.146404 296.0 
57.164455 136.0 
57.194069 60.0 
57.21936 164.0 
57.243862 132.0 
57.253994 168.0 
57.275082 148.0 
57.289566 260.0 
57.306877 76.0 
57.325806 108.0 
57.341404 152.0 
57.356224 184.0 
57.369167 248.0 
57.397156 172.0 
57.412239 200.0 
57.437878 60.0 
57.457695 236.0 
57.51104 328.0 
57.544331 380.0 
57.56192 64.0 
57.570606 128.0 
57.575569 124.0 
57.582432 156.0 
57.592388 172.0 
57.61293 96.0 
57.616474 92.0 
57.622448 124.0 
57.638039 136.0 
57.647743 172.0 
57.668705 320.0 
57.681175 68.0 
57.695168 232.0 
57.722874 132.0 
57.756393 116.0 
57.76178 148.0 
57.784756 164.0 
57.790157 224.0 
57.800694 184.0 
57.828392 148.0 
57.842514 160.0 
57.863716 120.0 
57.879322 92.0 
57.902184 176.0 
57.936749 148.0 
57.952503 140.0 
57.97023 124.0 
57.98827 108.0 
58.012344 240.0 
58.028027 184.0 
58.048405 304.0 
58.074692 200.0 
58.088028 152.0 
58.100113 132.0 
58.110153 192.0 
58.123241 192.0 
58.138935 304.0 
58.167461 264.0 
58.174496 160.0 
58.177334 144.0 
58.191635 268.0 
58.20237 216.0 
58.207867 80.0 
58.224167 224.0 
58.235584 132.0 
58.260002 312.0 
58.274681 288.0 
58.29451 372.0 
58.333954 272.0 
58.341679 148.0 
58.344387 128.0 
58.366394 164.0 
58.389977 208.0 
58.404194 156.0 
58.429657 232.0 
58.447681 168.0 
58.478764 296.0 
58.49332 144.0 
58.514866 92.0 
58.517899 112.0 
58.530624 96.0 
58.543255 136.0 
58.560043 340.0 
58.577839 296.0 
58.631168 48.0 
58.652908 340.0 
58.662998 296.0 
58.686592 256.0 
58.699078 128.0 
58.708984 192.0 
58.73378 160.0 
58.756512 140.0 
58.765953 72.0 
58.798626 120.0 
58.814194 132.0 
58.840107 280.0 
58.847549 132.0 
58.850651 132.0 
58.863743 220.0 
58.87751 248.0 
58.897873 60.0 
58.924999 252.0 
58.937119 180.0 
58.948624 228.0 
58.974792 144.0 
58.989346 272.0 
59.015789 364.0 
59.032677 224.0 
59.053547 272.0 
59.072662 104.0 
59.087276 292.0 
59.112076 168.0 
59.124657 160.0 
59.130039 136.0 
59.138855 156.0 
59.150055 120.0 
59.155735 84.0 
59.163094 192.0 
59.172615 76.0 
59.185734 180.0 
59.212891 228.0 
59.245434 80.0 
59.269337 392.0 
59.289902 192.0 
59.307056 360.0 
59.33173 104.0 
59.341988 164.0 
59.360291 124.0 
59.38089 304.0 
59.402813 164.0 
59.412987 124.0 
59.432487 280.0 
59.451031 280.0 
59.468552 64.0 
59.471775 160.0 
59.495602 128.0 
59.516838 88.0 
59.520691 164.0 
59.536873 192.0 
59.551388 124.0 
59.568684 124.0 
59.583611 172.0 
59.599277 128.0 
59.610035 128.0 
59.627621 176.0 
59.647835 208.0 
59.659191 132.0 
59.673634 152.0 
59.685547 156.0 
59.701279 432.0 
59.729523 340.0 
59.779541 240.0 
59.792675 156.0 
59.806 196.0 
59.835125 368.0 
59.862034 192.0 
59.876514 240.0 
59.904785 156.0 
59.927597 92.0 
59.951767 108.0 
59.961468 284.0 
59.976807 124.0 
59.993782 188.0 
60.016998 132.0 
60.028801 244.0 
60.049381 188.0 
60.063263 160.0 
60.075603 80.0 
60.092575 176.0 
60.104919 60.0 
60.145294 124.0 
60.167645 144.0 
60.183151 264.0 
60.205112 212.0 
60.220505 148.0 
60.239193 120.0 
60.249481 172.0 
60.259789 132.0 
60.275711 232.0 
60.294868 104.0 
60.315434 208.0 
60.344334 200.0 
60.358921 180.0 
60.373257 108.0 
60.375648 144.0 
60.396259 200.0 
60.411636 136.0 
60.437141 160.0 
60.451931 208.0 
60.473572 332.0 
60.490368 112.0 
60.511169 176.0 
60.526852 180.0 
60.529007 172.0 
60.540894 320.0 
60.562729 220.0 
60.577835 96.0 
60.583023 180.0 
60.602818 180.0 
60.628471 392.0 
60.631779 116.0 
60.634941 120.0 
60.63781 196.0 
60.679611 160.0 
60.700779 304.0 
60.715446 116.0 
60.724419 136.0 
60.749092 220.0 
60.765293 256.0 
60.775475 260.0 
60.783352 112.0 
60.786488 104.0 
60.805595 400.0 
60.834263 140.0 
60.866749 208.0 
60.891014 144.0 
60.918915 352.0 
60.946651 224.0 
60.956223 116.0 
60.970387 148.0 
61.016624 144.0 
61.032665 192.0 
61.055855 124.0 
61.071659 144.0 
61.082863 276.0 
61.094166 128.0 
61.098717 152.0 
61.104469 168.0 
61.128525 392.0 
61.14537 276.0 
61.162098 168.0 
61.195362 180.0 
61.211853 196.0 
61.234989 64.0 
61.254356 132.0 
61.276905 152.0 
61.297886 216.0 
61.309204 96.0 
61.323166 136.0 
61.339485 132.0 
61.353725 120.0 
61.372051 212.0 
61.397331 264.0 
61.41283 112.0 
61.416576 132.0 
61.436172 192.0 
61.457336 168.0 
61.489079 308.0 
61.509518 148.0 
61.524082 328.0 
61.538631 68.0 
61.541607 152.0 
61.554794 80.0 
61.573097 128.0 
61.578415 192.0 
61.60009 136.0 
61.618435 124.0 
61.633865 136.0 
61.647945 136.0 
61.659466 148.0 
61.681347 76.0 
61.693462 176.0 
61.725517 116.0 
61.758133 152.0 
61.772045 88.0 
61.785309 156.0 
61.806465 276.0 
61.82563 124.0 
61.846478 136.0 
61.859097 324.0 
61.875336 128.0 
61.885582 120.0 
61.906651 180.0 
61.923534 384.0 
61.936165 304.0 
61.950092 120.0 
61.965797 136.0 
61.971119 136.0 
61.988895 104.0 
62.006416 100.0 
62.017723 160.0 
62.045967 144.0 
62.068058 292.0 
62.079037 156.0 
62.095261 188.0 
62.102249 120.0 
62.107445 280.0 
62.124317 92.0 
62.131584 120.0 
62.136341 152.0 
62.155449 152.0 
62.179852 276.0 
62.195545 92.0 
62.218372 140.0 
62.243965 120.0 
62.266834 180.0 
62.288506 104.0 
62.319588 280.0 
62.348839 56.0 
62.368343 164.0 
62.388359 348.0 
62.407272 264.0 
62.442455 248.0 
62.463745 128.0 
62.491081 140.0 
62.5047 124.0 
62.518402 568.0 
62.539371 84.0 
62.55669 132.0 
62.574005 136.0 
62.599426 84.0 
62.626308 168.0 
62.646523 164.0 
62.681705 188.0 
62.699486 340.0 
62.711758 164.0 
62.731457 288.0 
62.766621 148.0 
62.785213 120.0 
62.800076 160.0 
62.816502 152.0 
62.837021 184.0 
62.843723 108.0 
62.866531 152.0 
62.886768 152.0 
62.911789 160.0 
62.935787 124.0 
62.976681 136.0 
63.006149 36.0 
63.027744 196.0 
63.053162 152.0 
63.067352 148.0 
63.097485 76.0 
63.118374 344.0 
63.134811 152.0 
63.159401 348.0 
63.175312 364.0 
63.197517 112.0 
63.214451 228.0 
63.238873 140.0 
63.263309 356.0 
63.299004 108.0 
63.330048 128.0 
63.354202 412.0 
63.380638 148.0 
63.411072 212.0 
63.431683 220.0 
63.452202 264.0 
63.47134 124.0 
63.478184 288.0 
63.484615 160.0 
63.504654 180.0 
63.528633 428.0 
63.545479 292.0 
63.574551 336.0 
63.597744 76.0 
63.614285 116.0 
63.630116 440.0 
63.656998 244.0 
63.665752 236.0 
63.68383 176.0 
63.700386 128.0 
63.71896 136.0 
63.741528 212.0 
63.760098 316.0 
63.774094 192.0 
63.804607 80.0 
63.821911 252.0 
63.839165 128.0 
63.854103 108.0 
63.8577 128.0 
63.877285 80.0 
63.89608 144.0 
63.937393 116.0 
63.963684 156.0 
63.977619 124.0 
63.988609 124.0 
64.00116 108.0 
64.014442 216.0 
64.037254 84.0 
64.049576 208.0 
64.070358 144.0 
64.084076 248.0 
64.110329 176.0 
64.121704 208.0 
64.145615 108.0 
64.172989 164.0 
64.19754 248.0 
64.230408 236.0 
64.262306 204.0 
64.273491 188.0 
64.290306 228.0 
64.312309 388.0 
64.329453 228.0 
64.356277 176.0 
64.371994 140.0 
64.381889 272.0 
64.396759 172.0 
64.418152 176.0 
64.432625 104.0 
64.459053 196.0 
64.470894 140.0 
64.500404 168.0 
64.513336 228.0 
64.541985 396.0 
64.57045 320.0 
64.590752 124.0 
64.610802 164.0 
64.623131 120.0 
64.63382 100.0 
64.645988 168.0 
64.664673 196.0 
64.682426 156.0 
64.697517 164.0 
64.7239 168.0 
64.739098 108.0 
64.746193 160.0 
64.769577 160.0 
64.780029 140.0 
64.794128 100.0 
64.816879 112.0 
64.843353 224.0 
64.885361 208.0 
64.907265 104.0 
64.921082 204.0 
64.946869 152.0 
64.964417 312.0 
64.98748 236.0 
65.002899 164.0 
65.030182 100.0 
65.041412 164.0 
65.063354 180.0 
65.066193 120.0 
65.091812 104.0 
65.105637 144.0 
65.137054 100.0 
65.149544 60.0 
65.164711 180.0 
65.195602 240.0 
65.213226 124.0 
65.235748 176.0 
65.25985 184.0 
65.271881 196.0 
65.295341 104.0 
65.317802 84.0 
65.330338 124.0 
65.34095 100.0 
65.353691 144.0 
65.377602 72.0 
65.401939 124.0 
65.42749 136.0 
65.443336 212.0 
65.467941 224.0 
65.481735 176.0 
65.493164 104.0 
65.495743 140.0 
65.53643 328.0 
65.556778 292.0 
65.579124 152.0 
65.599648 168.0 
65.61544 444.0 
65.630577 116.0 
65.644653 248.0 
65.682129 260.0 
65.694756 64.0 
65.719246 112.0 
65.732704 216.0 
65.749931 244.0 
65.764198 128.0 
65.783691 160.0 
65.798492 272.0 
65.820305 156.0 
65.844002 112.0 
65.862328 104.0 
65.8815 208.0 
65.909042 216.0 
65.921783 240.0 
65.936966 76.0 
65.952019 320.0 
65.966942 184.0 
65.983841 120.0 
66.009148 164.0 
66.03643 152.0 
66.054314 160.0 
66.062645 116.0 
66.065681 212.0 
66.081879 104.0 
66.0961 140.0 
66.13533 156.0 
66.152481 132.0 
66.179619 244.0 
66.206192 156.0 
66.228546 248.0 
66.249802 180.0 
66.26371 248.0 
66.286079 144.0 
66.296913 176.0 
66.308098 168.0 
66.323807 232.0 
66.341927 132.0 
66.359581 116.0 
66.382294 196.0 
66.407448 196.0 
66.432137 268.0 
66.438339 216.0 
66.460037 276.0 
66.476257 172.0 
66.510345 88.0 
66.530792 368.0 
66.557426 60.0 
66.578537 204.0 
66.603188 144.0 
66.617523 160.0 
66.637764 56.0 
66.65184 160.0 
66.664124 164.0 
66.691902 176.0 
66.697769 136.0 
66.704216 92.0 
66.710266 168.0 
66.729797 144.0 
66.747101 128.0 
66.76342 84.0 
66.787033 320.0 
66.802841 112.0 
66.822495 276.0 
66.848297 120.0 
66.862053 228.0 
66.879326 148.0 
66.90255 128.0 
66.931259 244.0 
66.956596 132.0 
66.973877 120.0 
66.990524 140.0 
67.003464 260.0 
67.010475 172.0 
67.016624 260.0 
67.028 292.0 
67.049362 304.0 
67.079681 84.0 
67.09491 212.0 
67.106873 188.0 
67.125336 84.0 
67.152824 176.0 
67.166977 200.0 
67.184975 164.0 
67.209328 288.0 
67.224236 340.0 
67.241096 192.0 
67.247017 116.0 
67.255157 144.0 
67.304832 144.0 
67.323189 312.0 
67.339996 152.0 
67.355461 184.0 
67.366432 112.0 
67.370491 80.0 
67.377518 128.0 
67.391403 320.0 
67.421738 292.0 
67.438797 112.0 
67.456856 152.0 
67.481728 308.0 
67.494385 152.0 
67.515587 120.0 
67.527687 236.0 
67.562737 144.0 
67.579063 156.0 
67.597618 148.0 
67.605522 132.0 
67.610596 124.0 
67.626381 140.0 
67.641464 152.0 
67.661873 344.0 
67.678658 136.0 
67.694023 208.0 
67.713188 404.0 
67.717171 116.0 
67.7342 136.0 
67.757088 168.0 
67.773491 180.0 
67.780273 92.0 
67.784943 212.0 
67.800232 120.0 
67.821144 160.0 
67.844002 144.0 
67.859261 316.0 
67.889038 120.0 
67.911545 160.0 
67.928398 64.0 
67.939888 128.0 
67.957047 192.0 
67.976105 160.0 
67.997383 200.0 
68.017441 172.0 
68.038139 120.0 
68.065536 180.0 
68.077599 280.0 
68.090691 124.0 
68.105011 196.0 
68.129715 108.0 
68.134598 100.0 
68.161789 168.0 
68.188789 104.0 
68.20694 148.0 
68.234627 144.0 
68.249298 108.0 
68.261894 168.0 
68.28772 292.0 
68.313751 140.0 
68.340881 248.0 
68.376312 128.0 
68.391792 212.0 
68.417503 188.0 
68.435631 108.0 
68.471977 164.0 
68.501572 168.0 
68.514572 204.0 
68.544991 312.0 
68.560249 116.0 
68.583336 148.0 
68.601692 132.0 
68.61467 148.0 
68.627052 144.0 
68.646339 144.0 
68.667007 184.0 
68.68605 152.0 
68.700653 296.0 
68.712257 112.0 
68.749207 248.0 
68.774254 348.0 
68.79496 104.0 
68.818771 72.0 
68.83844 156.0 
68.860397 312.0 
68.872589 172.0 
68.890793 124.0 
68.919533 124.0 
68.940254 296.0 
68.961823 68.0 
68.974861 316.0 
68.986244 116.0 
68.999367 136.0 
69.017708 132.0 
69.035423 320.0 
69.0625 184.0 
69.080658 120.0 
69.106926 344.0 
69.142082 152.0 
69.159332 268.0 
69.185791 140.0 
69.205688 156.0 
69.219482 300.0 
69.249298 340.0 
69.270279 236.0 
69.290802 132.0 
69.312492 208.0 
69.351929 72.0 
69.364021 148.0 
69.370583 68.0 
69.377312 172.0 
69.400848 212.0 
69.431206 340.0 
69.455574 224.0 
69.475922 136.0 
69.491463 192.0 
69.524513 72.0 
69.558815 100.0 
69.577782 104.0 
69.58197 72.0 
69.589478 232.0 
69.611946 132.0 
69.634613 192.0 
69.655128 72.0 
69.671204 160.0 
69.674141 108.0 
69.681778 100.0 
69.706329 144.0 
69.724632 276.0 
69.752403 140.0 
69.758308 136.0 
69.777657 148.0 
69.805016 148.0 
69.829681 248.0 
69.87291 144.0 
69.892159 188.0 
69.896812 252.0 
69.948929 168.0 
69.961037 228.0 
69.990067 120.0 
70.02269 188.0 
70.038757 228.0 
70.06234 164.0 
70.079453 172.0 
70.091248 220.0 
70.111069 180.0 
70.135124 252.0 
70.141907 84.0 
70.145836 68.0 
70.16301 180.0 
70.177094 304.0 
70.195236 320.0 
70.218704 72.0 
70.229721 148.0 
70.251961 200.0 
70.256775 336.0 
70.29393 272.0 
70.311165 68.0 
70.329979 452.0 
70.355827 180.0 
70.377441 136.0 
70.411507 156.0 
70.427071 152.0 
70.442513 136.0 
70.464584 188.0 
70.470444 136.0 
70.488579 68.0 
70.503036 108.0 
70.543335 140.0 
70.563026 72.0 
70.579445 128.0 
70.597702 264.0 
70.618584 96.0 
70.634239 220.0 
70.64695 196.0 
70.652367 132.0 
70.66568 300.0 
70.691681 52.0 
70.703438 112.0 
70.738853 408.0 
70.759155 44.0 
70.779358 120.0 
70.816971 200.0 
70.832581 128.0 
70.845482 132.0 
70.858063 140.0 
70.876404 208.0 
70.88813 104.0 
70.912918 172.0 
70.935478 224.0 
70.960091 112.0 
70.978867 132.0 
70.997238 160.0 
71.015549 116.0 
71.030548 144.0 
71.032646 168.0 
71.061829 224.0 
71.093201 84.0 
71.112862 192.0 
71.131432 132.0 
71.161201 196.0 
71.174683 180.0 
71.179787 328.0 
71.194611 264.0 
71.21035 128.0 
71.22406 364.0 
71.237091 192.0 
71.264427 176.0 
71.286819 152.0 
71.307426 272.0 
71.326088 120.0 
71.349724 204.0 
71.376083 136.0 
71.396004 84.0 
71.411942 204.0 
71.439293 168.0 
71.466469 144.0 
71.475624 140.0 
71.510521 120.0 
71.529633 280.0 
71.536263 328.0 
71.541969 268.0 
71.557602 108.0 
71.585213 276.0 
71.588234 96.0 
71.616592 152.0 
71.630264 176.0 
71.647263 176.0 
71.661942 252.0 
71.697281 168.0 
71.726036 164.0 
71.757469 196.0 
71.769707 196.0 
71.791016 160.0 
71.810692 124.0 
71.823143 332.0 
71.838715 168.0 
71.854179 260.0 
71.884232 240.0 
71.900131 180.0 
71.928688 296.0 
71.955894 176.0 
71.958801 212.0 
71.997879 104.0 
72.020294 160.0 
72.035973 100.0 
72.066849 116.0 
72.079071 544.0 
72.094765 56.0 
72.115425 280.0 
72.137901 196.0 
72.15464 108.0 
72.16993 148.0 
72.181778 148.0 
72.191803 224.0 
72.215767 56.0 
72.226982 172.0 
72.24791 196.0 
72.26265 156.0 
72.281723 272.0 
72.307304 164.0 
72.333954 204.0 
72.365105 108.0 
72.391884 180.0 
72.405647 348.0 
72.42762 224.0 
72.453087 152.0 
72.459503 116.0 
72.487511 304.0 
72.50602 172.0 
72.526474 444.0 
72.55838 184.0 
72.561531 144.0 
72.599937 280.0 
72.626579 184.0 
72.649559 216.0 
72.670937 244.0 
72.683624 196.0 
72.704514 424.0 
72.717758 180.0 
72.74736 292.0 
72.774673 108.0 
72.794418 136.0 
72.80941 256.0 
72.840111 204.0 
72.861458 128.0 
72.883774 168.0 
72.895592 152.0 
72.910683 128.0 
72.929535 196.0 
72.952591 248.0 
72.960938 160.0 
72.988136 112.0 
73.002075 144.0 
73.030655 156.0 
73.055367 152.0 
73.074432 208.0 
73.087486 124.0 
73.109818 156.0 
73.118279 128.0 
73.151657 140.0 
73.181808 220.0 
73.205414 300.0 
73.211182 120.0 
73.214828 184.0 
73.231781 124.0 
73.257652 148.0 
73.289429 148.0 
73.306465 208.0 
73.321259 172.0 
73.34346 296.0 
73.361595 232.0 
73.390083 156.0 
73.401787 188.0 
73.424095 112.0 
73.454056 448.0 
73.499321 168.0 
73.504601 192.0 
73.527534 128.0 
73.554672 160.0 
73.589462 256.0 
73.605759 164.0 
73.632095 124.0 
73.651405 68.0 
73.667946 168.0 
73.680588 124.0 
73.693268 112.0 
73.701408 108.0 
73.744766 124.0 
73.765282 132.0 
73.791107 192.0 
73.812401 296.0 
73.831894 212.0 
73.849846 88.0 
73.864334 108.0 
73.881721 144.0 
73.904984 152.0 
73.926994 148.0 
73.956581 552.0 
73.981949 128.0 
74.003777 92.0 
74.020523 132.0 
74.050453 160.0 
74.071808 136.0 
74.075798 184.0 
74.097389 292.0 
74.120209 104.0 
74.149254 140.0 
74.171455 84.0 
74.19606 260.0 
74.216309 424.0 
74.230553 248.0 
74.249359 204.0 
74.278053 160.0 
74.292992 120.0 
74.302628 428.0 
74.322105 188.0 
74.340103 124.0 
74.356537 108.0 
74.368553 76.0 
74.384239 196.0 
74.413185 100.0 
74.426048 184.0 
74.44355 88.0 
74.452126 148.0 
74.458786 188.0 
74.473763 316.0 
74.496559 416.0 
74.524582 164.0 
74.544434 244.0 
74.565247 116.0 
74.582214 244.0 
74.599373 208.0 
74.613029 88.0 
74.628403 152.0 
74.658913 96.0 
74.69828 324.0 
74.735748 36.0 
74.764458 148.0 
74.794388 92.0 
74.818985 144.0 
74.834618 148.0 
74.853806 208.0 
74.882355 232.0 
74.898155 244.0 
74.912079 196.0 
74.934334 120.0 
74.949036 180.0 
74.97361 196.0 
75.005432 252.0 
75.026253 124.0 
75.049812 192.0 
75.067863 128.0 
75.08757 152.0 
75.092041 108.0 
75.098328 244.0 
75.142456 180.0 
75.1493 212.0 
75.171104 128.0 
75.204758 268.0 
75.227272 176.0 
75.239494 260.0 
75.259323 248.0 
75.281044 104.0 
75.292557 160.0 
75.314941 148.0 
75.326004 136.0 
75.343147 84.0 
75.354645 448.0 
75.369423 148.0 
75.387482 144.0 
75.420601 392.0 
75.45327 264.0 
75.48159 128.0 
75.496468 276.0 
75.509674 180.0 
75.52755 100.0 
75.539108 188.0 
75.554329 152.0 
75.587616 192.0 
75.612984 128.0 
75.635483 136.0 
75.655853 156.0 
75.680496 140.0 
75.699059 144.0 
75.724167 188.0 
75.745941 132.0 
75.77462 152.0 
75.794563 124.0 
75.823631 96.0 
75.837006 116.0 
75.862854 156.0 
75.878395 140.0 
75.905594 128.0 
75.930153 148.0 
75.94986 256.0 
75.97551 264.0 
75.989777 88.0 
76.008125 256.0 
76.027878 212.0 
76.058189 224.0 
76.062302 176.0 
76.082741 136.0 
76.096962 296.0 
76.122673 264.0 
76.139626 80.0 
76.164436 180.0 
76.186943 164.0 
76.201096 108.0 
76.220009 176.0 
76.23542 80.0 
76.261314 484.0 
76.288055 176.0 
76.303986 104.0 
76.322998 100.0 
76.338158 228.0 
76.354889 128.0 
76.380592 148.0 
76.412781 304.0 
76.451073 128.0 
76.477921 108.0 
76.505196 460.0 
76.512024 256.0 
76.537407 152.0 
76.542297 168.0 
76.548889 212.0 
76.566818 232.0 
76.597748 220.0 
76.628853 136.0 
76.652939 252.0 
76.706444 216.0 
76.719475 96.0 
76.742973 84.0 
76.751938 84.0 
76.758476 148.0 
76.784233 268.0 
76.813644 192.0 
76.828499 164.0 
76.84156 156.0 
76.867119 96.0 
76.894081 280.0 
76.905952 412.0 
76.93544 156.0 
76.954781 284.0 
76.977531 148.0 
76.999542 152.0 
77.029846 120.0 
77.062363 216.0 
77.090187 312.0 
77.113525 164.0 
77.151466 228.0 
77.158714 176.0 
77.180565 184.0 
77.206856 164.0 
77.229561 304.0 
77.269341 200.0 
77.288933 100.0 
77.315659 320.0 
77.331978 176.0 
77.357323 340.0 
77.371155 224.0 
77.42498 208.0 
77.445778 108.0 
77.472282 184.0 
77.485535 124.0 
77.509598 68.0 
77.522659 116.0 
77.539291 160.0 
77.556297 76.0 
77.578087 120.0 
77.597298 88.0 
77.622971 208.0 
77.647842 140.0 
77.682114 352.0 
77.707863 164.0 
77.745232 160.0 
77.759987 112.0 
77.800369 276.0 
77.819489 148.0 
77.835571 176.0 
77.838379 156.0 
77.860352 104.0 
77.886368 192.0 
77.917885 88.0 
77.936897 140.0 
77.952644 124.0 
77.989098 432.0 
78.020058 360.0 
78.044044 316.0 
78.08532 152.0 
78.123398 208.0 
78.141411 212.0 
78.144081 188.0 
78.166481 124.0 
78.180321 96.0 
78.194801 196.0 
78.207802 196.0 
78.214226 168.0 
78.228287 144.0 
78.243805 192.0 
78.256065 244.0 
78.271866 188.0 
78.279701 124.0 
78.304733 144.0 
78.325768 244.0 
78.361694 256.0 
78.388969 176.0 
78.405746 76.0 
78.42942 464.0 
78.453041 112.0 
78.470726 200.0 
78.495659 52.0 
78.513817 188.0 
78.527344 120.0 
78.548492 256.0 
78.570496 232.0 
78.592766 156.0 
78.605026 340.0 
78.623528 108.0 
78.648552 200.0 
78.671242 124.0 
78.690399 152.0 
78.701431 168.0 
78.71714 188.0 
78.740013 160.0 
78.758232 268.0 
78.785606 264.0 
78.79834 112.0 
78.815132 232.0 
78.843193 148.0 
78.866867 388.0 
78.882278 332.0 
78.901314 188.0 
78.937134 180.0 
78.955444 112.0 
78.97863 112.0 
79.004082 184.0 
79.032654 156.0 
79.050835 348.0 
79.068527 232.0 
79.102448 284.0 
79.114639 148.0 
79.145424 180.0 
79.159645 184.0 
79.176041 172.0 
79.189262 308.0 
79.229492 468.0 
79.253899 164.0 
79.274727 148.0 
79.294357 348.0 
79.306709 300.0 
79.31176 80.0 
79.316956 140.0 
79.330315 120.0 
79.348595 212.0 
79.364159 120.0 
79.379845 112.0 
79.394844 200.0 
79.421928 164.0 
79.426384 116.0 
79.455025 124.0 
79.47168 320.0 
79.495789 144.0 
79.531761 204.0 
79.539185 224.0 
79.54393 116.0 
79.553978 252.0 
79.568771 92.0 
79.597252 240.0 
79.631851 120.0 
79.644287 172.0 
79.664024 144.0 
79.67894 300.0 
79.692253 104.0 
79.724686 160.0 
79.741852 384.0 
79.766243 76.0 
79.777367 184.0 
79.796509 140.0 
79.81987 176.0 
79.841888 144.0 
79.866707 216.0 
79.883438 148.0 
79.895432 312.0 
79.909973 196.0 
79.925186 124.0 
79.956329 152.0 
79.996269 128.0 
80.010323 148.0 
80.028084 128.0 
80.046524 220.0 
80.059799 116.0 
80.085197 132.0 
80.091431 116.0 
80.111176 112.0 
80.132835 116.0 
80.154892 232.0 
80.178268 104.0 
80.199287 284.0 
80.224403 324.0 
80.243263 332.0 
80.261322 192.0 
80.28479 288.0 
80.333527 164.0 
80.389503 164.0 
80.395042 132.0 
80.435181 248.0 
80.469002 164.0 
80.486679 196.0 
80.502754 188.0 
80.517036 180.0 
80.545616 140.0 
80.570496 276.0 
80.585701 284.0 
80.605003 268.0 
80.632065 356.0 
80.64624 148.0 
80.674072 328.0 
80.689735 180.0 
80.697845 144.0 
80.720024 320.0 
80.734207 140.0 
80.761543 260.0 
80.79631 136.0 
80.801544 152.0 
80.827454 176.0 
80.853149 80.0 
80.868538 216.0 
80.881241 220.0 
80.901932 176.0 
80.924141 116.0 
80.942429 152.0 
80.945518 208.0 
80.962479 388.0 
81.001915 144.0 
81.020409 424.0 
81.056328 132.0 
81.076294 136.0 
81.092377 208.0 
81.119751 168.0 
81.138321 324.0 
81.152786 156.0 
81.18428 228.0 
81.207489 192.0 
81.224579 108.0 
81.269028 108.0 
81.295815 120.0 
81.325737 128.0 
81.341415 116.0 
81.361374 160.0 
81.383774 132.0 
81.398277 52.0 
81.432549 260.0 
81.449509 232.0 
81.472473 248.0 
81.500656 56.0 
81.504654 244.0 
81.53138 212.0 
81.552643 312.0 
81.583328 116.0 
81.607658 164.0 
81.623734 140.0 
81.638252 156.0 
81.651535 76.0 
81.670914 248.0 
81.714493 124.0 
81.727806 228.0 
81.746574 140.0 
81.752052 96.0 
81.75914 128.0 
81.76416 120.0 
81.786476 128.0 
81.8004 208.0 
81.821335 284.0 
81.838913 188.0 
81.874702 160.0 
81.890739 228.0 
81.926727 172.0 
81.930275 136.0 
81.964172 168.0 
81.991081 268.0 
81.994362 172.0 
82.023781 168.0 
82.043045 216.0 
82.05928 260.0 
82.074524 356.0 
82.087837 148.0 
82.125481 144.0 
82.15538 296.0 
82.187424 152.0 
82.202568 152.0 
82.206627 140.0 
82.240601 100.0 
82.267448 184.0 
82.286919 180.0 
82.313995 208.0 
82.348457 184.0 
82.37336 104.0 
82.416824 308.0 
82.438614 164.0 
82.470573 272.0 
82.502602 272.0 
82.524338 48.0 
82.555519 180.0 
82.570229 276.0 
82.592209 272.0 
82.61187 180.0 
82.630226 124.0 
82.640877 120.0 
82.65638 36.0 
82.688591 80.0 
82.715973 168.0 
82.72908 216.0 
82.753639 60.0 
82.768341 160.0 
82.779198 52.0 
82.78672 136.0 
82.802727 216.0 
82.816345 136.0 
82.839241 120.0 
82.867271 304.0 
82.904228 60.0 
82.928635 192.0 
82.959755 152.0 
82.987129 152.0 
83.000549 440.0 
83.016449 248.0 
83.01992 88.0 
83.032379 376.0 
83.045258 80.0 
83.083588 204.0 
83.113419 180.0 
83.129349 164.0 
83.147491 84.0 
83.172089 212.0 
83.201347 60.0 
83.204704 228.0 
83.214775 172.0 
83.256294 332.0 
83.289452 108.0 
83.324455 320.0 
83.351761 108.0 
83.368111 92.0 
83.391693 132.0 
83.408058 300.0 
83.422852 156.0 
83.440987 356.0 
83.455887 300.0 
83.480492 136.0 
83.498985 224.0 
83.519402 332.0 
83.549911 208.0 
83.576118 264.0 
83.605217 136.0 
83.627892 264.0 
83.643326 116.0 
83.657547 152.0 
83.674507 244.0 
83.686165 392.0 
83.703087 212.0 
83.708054 152.0 
83.71492 152.0 
83.741699 176.0 
83.758423 156.0 
83.772949 300.0 
83.785805 204.0 
83.809906 156.0 
83.823463 200.0 
83.839844 128.0 
83.864105 52.0 
83.882339 136.0 
83.920731 356.0 
83.932915 256.0 
83.949249 176.0 
83.973442 124.0 
83.994125 276.0 
84.029167 232.0 
84.046021 112.0 
84.054665 132.0 
84.07209 232.0 
84.094933 160.0 
84.126785 120.0 
84.142937 148.0 
84.173988 108.0 
84.204292 200.0 
84.212395 128.0 
84.250931 364.0 
84.277405 208.0 
84.281815 100.0 
84.300308 164.0 
84.317825 68.0 
84.320808 236.0 
84.342255 84.0 
84.344963 148.0 
84.393532 176.0 
84.411896 288.0 
84.45195 140.0 
84.473557 132.0 
84.497406 96.0 
84.523697 172.0 
84.545074 128.0 
84.56073 200.0 
84.596962 272.0 
84.624687 204.0 
84.666847 244.0 
84.681305 156.0 
84.719437 180.0 
84.746094 316.0 
84.780342 148.0 
84.823578 316.0 
84.854813 460.0 
84.873817 148.0 
84.910782 204.0 
84.94136 160.0 
84.972763 280.0 
84.988342 76.0 
85.005516 308.0 
85.02092 172.0 
85.058678 232.0 
85.085602 160.0 
85.119919 168.0 
85.155647 280.0 
85.168098 272.0 
85.21936 176.0 
85.235252 348.0 
85.263512 200.0 
85.28083 92.0 
85.300224 188.0 
85.323326 148.0 
85.349052 108.0 
85.381653 148.0 
85.387985 156.0 
85.402626 116.0 
85.429405 168.0 
85.444435 136.0 
85.450432 176.0 
85.472397 220.0 
85.485046 224.0 
85.50042 232.0 
85.538895 380.0 
85.566605 232.0 
85.584373 160.0 
85.602119 208.0 
85.634102 132.0 
85.650139 224.0 
85.663406 136.0 
85.670151 140.0 
85.683197 316.0 
85.710617 192.0 
85.732849 100.0 
85.760315 216.0 
85.791405 208.0 
85.816658 188.0 
85.830498 140.0 
85.83828 232.0 
85.860168 264.0 
85.874252 144.0 
85.902626 224.0 
85.926285 408.0 
85.944733 152.0 
85.956055 276.0 
85.969109 204.0 
86.002029 180.0 
86.017876 212.0 
86.052727 268.0 
86.095444 152.0 
86.120422 192.0 
86.133247 112.0 
86.157776 104.0 
86.180687 124.0 
86.197327 264.0 
86.211571 288.0 
86.235596 92.0 
86.262199 92.0 
86.293846 136.0 
86.323471 204.0 
86.336777 132.0 
86.341827 96.0 
86.360558 192.0 
86.376793 212.0 
86.38414 108.0 
86.389496 140.0 
86.421974 92.0 
86.436615 172.0 
86.455139 244.0 
86.491646 176.0 
86.521858 132.0 
86.539505 100.0 
86.546555 140.0 
86.562462 312.0 
86.569092 324.0 
86.585747 144.0 
86.614914 72.0 
86.641052 112.0 
86.677193 428.0 
86.71447 148.0 
86.719254 144.0 
86.75946 192.0 
86.794022 276.0 
86.828003 216.0 
86.836853 160.0 
86.877502 136.0 
86.880432 124.0 
86.908951 100.0 
86.928978 216.0 
86.947922 140.0 
86.974648 156.0 
86.99218 164.0 
87.021866 256.0 
87.044334 200.0 
87.068199 104.0 
87.108353 324.0 
87.126305 136.0 
87.156715 120.0 
87.177917 280.0 
87.191612 128.0 
87.198235 204.0 
87.218918 212.0 
87.237053 360.0 
87.264885 124.0 
87.286774 88.0 
87.310074 280.0 
87.330292 252.0 
87.352745 388.0 
87.400475 196.0 
87.410072 100.0 
87.426384 184.0 
87.471031 120.0 
87.487724 100.0 
87.50708 124.0 
87.535385 144.0 
87.558731 124.0 
87.600372 188.0 
87.625298 436.0 
87.659531 116.0 
87.677818 140.0 
87.713943 92.0 
87.731773 116.0 
87.756424 216.0 
87.762817 80.0 
87.801369 116.0 
87.825249 240.0 
87.841797 104.0 
87.888611 268.0 
87.900917 108.0 
87.913246 356.0 
87.924744 260.0 
87.929733 152.0 
87.947762 320.0 
87.967232 220.0 
87.996017 152.0 
88.014587 152.0 
88.034264 136.0 
88.054909 188.0 
88.069527 148.0 
88.09037 280.0 
88.104347 88.0 
88.109528 96.0 
88.121971 116.0 
88.145409 156.0 
88.166237 168.0 
88.179771 72.0 
88.201263 136.0 
88.23024 208.0 
88.250626 124.0 
88.286407 304.0 
88.300713 132.0 
88.332474 104.0 
88.356995 192.0 
88.374161 80.0 
88.390663 104.0 
88.397163 188.0 
88.429329 260.0 
88.448891 200.0 
88.469055 136.0 
88.504021 256.0 
88.541252 152.0 
88.55938 268.0 
88.608566 176.0 
88.62088 120.0 
88.650864 268.0 
88.657822 192.0 
88.661232 112.0 
88.676674 216.0 
88.706512 236.0 
88.744911 156.0 
88.751953 168.0 
88.755188 232.0 
88.778053 136.0 
88.795982 160.0 
88.816383 152.0 
88.834335 240.0 
88.869301 300.0 
88.896606 164.0 
88.916451 60.0 
88.95768 176.0 
88.970261 136.0 
89.002182 216.0 
89.022018 228.0 
89.04631 256.0 
89.053734 312.0 
89.074409 96.0 
89.082474 80.0 
89.088242 140.0 
89.114738 108.0 
89.123405 156.0 
89.144997 312.0 
89.170631 284.0 
89.182449 176.0 
89.194221 292.0 
89.211212 164.0 
89.225769 164.0 
89.275513 124.0 
89.294014 264.0 
89.30706 124.0 
89.350441 324.0 
89.35675 144.0 
89.364204 272.0 
89.393181 172.0 
89.41272 172.0 
89.457458 384.0 
89.494438 156.0 
89.538292 196.0 
89.571037 200.0 
89.580803 156.0 
89.584099 100.0 
89.610687 140.0 
89.643112 224.0 
89.655571 204.0 
89.678169 124.0 
89.692513 220.0 
89.734116 100.0 
89.739098 112.0 
89.756271 96.0 
89.785034 68.0 
89.800201 88.0 
89.816376 96.0 
89.848053 184.0 
89.862167 120.0 
89.883659 156.0 
89.915367 352.0 
89.949333 260.0 
89.970345 172.0 
89.985054 152.0 
90.017685 184.0 
90.036934 228.0 
90.050667 156.0 
90.07296 116.0 
90.087769 168.0 
90.102005 152.0 
90.138054 116.0 
90.156898 136.0 
90.183647 160.0 
90.204079 136.0 
90.226891 216.0 
90.24836 144.0 
90.272202 136.0 
90.297935 140.0 
90.332321 128.0 
90.348885 148.0 
90.378876 188.0 
90.401306 132.0 
90.425407 220.0 
90.456741 228.0 
90.490387 200.0 
90.503632 60.0 
90.531181 176.0 
90.555634 164.0 
90.582764 256.0 
90.596405 160.0 
90.619942 340.0 
90.640251 172.0 
90.672005 124.0 
90.698265 48.0 
90.704483 128.0 
90.712379 320.0 
90.735062 184.0 
90.758934 248.0 
90.781654 208.0 
90.808083 124.0 
90.820389 148.0 
90.857185 164.0 
90.883171 32.0 
90.9133 128.0 
90.964127 128.0 
90.984474 156.0 
91.011024 168.0 
91.023956 296.0 
91.05307 1960.0 
91.096466 232.0 
91.122101 324.0 
91.159462 116.0 
91.17202 112.0 
91.191093 152.0 
91.209831 232.0 
91.230354 228.0 
91.248146 140.0 
91.255417 92.0 
91.291107 160.0 
91.314148 88.0 
91.343407 236.0 
91.358192 112.0 
91.385788 188.0 
91.408051 116.0 
91.41301 172.0 
91.448723 212.0 
91.46907 204.0 
91.528755 368.0 
91.563271 124.0 
91.58284 392.0 
91.606308 168.0 
91.623734 244.0 
91.659821 180.0 
91.685135 216.0 
91.741203 352.0 
91.764778 48.0 
91.794968 252.0 
91.807632 300.0 
91.846016 120.0 
91.889519 308.0 
91.91938 228.0 
91.925354 204.0 
91.93396 248.0 
91.93898 136.0 
91.98011 96.0 
91.998848 256.0 
92.024696 124.0 
92.030945 232.0 
92.055618 676.0 
92.084663 108.0 
92.095749 120.0 
92.126343 196.0 
92.144958 148.0 
92.159393 144.0 
92.175995 176.0 
92.200798 232.0 
92.243118 144.0 
92.258545 588.0 
92.288948 144.0 
92.308678 152.0 
92.335976 252.0 
92.35434 272.0 
92.396957 248.0 
92.412643 328.0 
92.427223 268.0 
92.450737 344.0 
92.477333 120.0 
92.502686 340.0 
92.540504 156.0 
92.571251 188.0 
92.614105 176.0 
92.627045 272.0 
92.639717 340.0 
92.654106 192.0 
92.677666 180.0 
92.707565 132.0 
92.734627 176.0 
92.745422 156.0 
92.766029 140.0 
92.787155 224.0 
92.800858 312.0 
92.820259 148.0 
92.838165 296.0 
92.866035 120.0 
92.889084 140.0 
92.925201 264.0 
92.961349 304.0 
92.981865 164.0 
93.028534 152.0 
93.06916 3092.0 
93.113319 272.0 
93.126595 308.0 
93.165291 112.0 
93.170052 352.0 
93.200684 152.0 
93.234917 152.0 
93.250053 148.0 
93.287605 236.0 
93.295448 172.0 
93.343948 196.0 
93.372742 304.0 
93.387344 160.0 
93.400009 360.0 
93.421669 268.0 
93.444519 144.0 
93.460739 180.0 
93.485291 248.0 
93.518776 148.0 
93.538139 124.0 
93.554459 168.0 
93.578644 148.0 
93.597939 184.0 
93.618599 156.0 
93.639771 112.0 
93.652992 248.0 
93.682495 244.0 
93.689392 148.0 
93.697479 124.0 
93.710258 148.0 
93.728378 104.0 
93.740189 312.0 
93.75618 80.0 
93.763161 164.0 
93.769157 124.0 
93.792336 172.0 
93.81337 156.0 
93.842361 348.0 
93.875694 140.0 
93.91748 252.0 
93.941269 372.0 
93.955536 276.0 
93.981277 152.0 
93.993324 112.0 
94.028496 20748.0 
94.065666 1832.0 
94.103951 392.0 
94.139526 140.0 
94.150742 200.0 
94.164062 324.0 
94.183479 140.0 
94.187256 104.0 
94.203812 308.0 
94.219414 368.0 
94.254356 140.0 
94.307091 124.0 
94.329559 180.0 
94.360664 220.0 
94.376068 124.0 
94.397888 140.0 
94.422005 176.0 
94.458885 244.0 
94.505203 136.0 
94.534142 240.0 
94.567406 124.0 
94.589798 144.0 
94.625084 152.0 
94.63485 160.0 
94.642059 184.0 
94.648392 140.0 
94.661163 236.0 
94.676743 192.0 
94.702141 352.0 
94.739372 136.0 
94.76236 184.0 
94.797279 116.0 
94.814987 124.0 
94.833824 252.0 
94.862175 168.0 
94.898827 228.0 
94.924011 64.0 
94.959824 292.0 
94.983009 228.0 
95.002937 228.0 
95.030785 1304.0 
95.048538 3556.0 
95.084938 3608.0 
95.116501 476.0 
95.148598 76.0 
95.151413 288.0 
95.176018 168.0 
95.193047 128.0 
95.206253 280.0 
95.256767 52.0 
95.279335 256.0 
95.304565 300.0 
95.338692 160.0 
95.361046 164.0 
95.36747 112.0 
95.376495 204.0 
95.391663 100.0 
95.398743 108.0 
95.404404 112.0 
95.427605 240.0 
95.447456 168.0 
95.469528 132.0 
95.505447 160.0 
95.519432 324.0 
95.542862 304.0 
95.556854 124.0 
95.604156 236.0 
95.621445 120.0 
95.651443 104.0 
95.674904 260.0 
95.692627 168.0 
95.714546 148.0 
95.753578 288.0 
95.810486 280.0 
95.835175 260.0 
95.857925 320.0 
95.890121 136.0 
95.916779 156.0 
95.936607 188.0 
95.961288 240.0 
95.981979 148.0 
95.997375 116.0 
96.024757 240.0 
96.030334 488.0 
96.053307 420.0 
96.089287 660.0 
96.13224 196.0 
96.151314 148.0 
96.168404 316.0 
96.203072 152.0 
96.225616 88.0 
96.253212 188.0 
96.275726 144.0 
96.310951 264.0 
96.324692 160.0 
96.336472 172.0 
96.350922 168.0 
96.373375 144.0 
96.3964 148.0 
96.428528 348.0 
96.446632 48.0 
96.470184 136.0 
96.477074 116.0 
96.500145 204.0 
96.542633 80.0 
96.560181 160.0 
96.575623 252.0 
96.604424 404.0 
96.630463 204.0 
96.657806 284.0 
96.6605 144.0 
96.669304 444.0 
96.692574 124.0 
96.708458 124.0 
96.733833 112.0 
96.749611 132.0 
96.7798 180.0 
96.807541 112.0 
96.836006 96.0 
96.858208 80.0 
96.872314 304.0 
96.898094 148.0 
96.925896 244.0 
96.929672 84.0 
96.939598 180.0 
96.960464 84.0 
96.991333 236.0 
97.009933 100.0 
97.031967 312.0 
97.063919 1520.0 
97.083443 180.0 
97.099907 400.0 
97.116806 104.0 
97.132347 432.0 
97.167229 496.0 
97.193932 188.0 
97.208168 288.0 
97.214745 176.0 
97.242462 132.0 
97.258682 196.0 
97.304787 148.0 
97.326767 176.0 
97.348816 84.0 
97.362816 212.0 
97.380875 80.0 
97.38382 156.0 
97.391357 232.0 
97.413139 124.0 
97.428413 156.0 
97.44413 148.0 
97.469673 76.0 
97.518379 204.0 
97.546913 152.0 
97.575081 396.0 
97.580994 148.0 
97.587158 260.0 
97.612587 364.0 
97.637573 176.0 
97.668678 288.0 
97.697746 164.0 
97.711517 188.0 
97.737648 160.0 
97.765114 628.0 
97.802216 232.0 
97.826256 120.0 
97.862236 320.0 
97.865608 140.0 
97.875107 144.0 
97.900368 136.0 
97.917458 292.0 
97.931328 124.0 
97.959999 188.0 
97.976517 168.0 
97.99865 144.0 
98.031242 140.0 
98.064323 364.0 
98.106239 228.0 
98.129913 140.0 
98.174057 168.0 
98.205559 96.0 
98.222321 156.0 
98.270844 112.0 
98.305077 260.0 
98.313286 112.0 
98.319756 160.0 
98.333656 180.0 
98.348007 232.0 
98.368309 264.0 
98.394203 340.0 
98.411751 220.0 
98.439476 116.0 
98.452682 144.0 
98.473862 128.0 
98.528122 188.0 
98.549057 168.0 
98.576309 276.0 
98.581703 156.0 
98.589447 148.0 
98.629272 212.0 
98.656082 132.0 
98.673851 108.0 
98.681038 100.0 
98.689247 112.0 
98.727081 128.0 
98.729912 188.0 
98.767235 144.0 
98.79068 116.0 
98.812782 268.0 
98.851357 180.0 
98.877205 88.0 
98.88166 108.0 
98.902351 148.0 
98.924942 128.0 
98.948952 228.0 
98.982544 124.0 
99.003113 124.0 
99.01577 296.0 
99.042511 900.0 
99.065765 180.0 
99.078415 332.0 
99.120605 196.0 
99.157967 148.0 
99.195183 144.0 
99.225533 116.0 
99.232452 196.0 
99.25708 100.0 
99.282608 316.0 
99.321571 120.0 
99.346886 264.0 
99.362907 144.0 
99.384285 276.0 
99.405167 156.0 
99.424324 204.0 
99.442429 140.0 
99.501976 344.0 
99.53228 204.0 
99.56089 292.0 
99.589394 284.0 
99.614853 140.0 
99.647095 76.0 
99.669586 152.0 
99.686462 204.0 
99.694695 160.0 
99.699471 276.0 
99.721245 140.0 
99.757927 212.0 
99.773842 252.0 
99.791023 312.0 
99.794945 60.0 
99.837791 148.0 
99.845871 268.0 
99.871368 108.0 
99.903976 224.0 
99.941628 76.0 
99.98436 144.0 
99.991737 76.0 
100.00795 140.0 
100.024734 296.0 
100.069771 128.0 
100.100159 296.0 
100.131088 248.0 
100.158424 176.0 
100.171875 232.0 
100.185738 152.0 
100.200195 200.0 
100.219437 120.0 
100.254059 128.0 
100.272934 396.0 
100.295082 152.0 
100.31665 300.0 
100.332703 312.0 
100.347664 184.0 
100.379051 160.0 
100.407143 168.0 
100.435493 116.0 
100.454742 260.0 
100.481567 172.0 
100.511169 172.0 
100.548889 212.0 
100.561958 180.0 
100.583023 120.0 
100.606621 180.0 
100.62339 244.0 
100.66053 340.0 
100.694336 140.0 
100.718513 244.0 
100.757103 112.0 
100.783485 104.0 
100.813896 376.0 
100.850052 156.0 
100.872704 156.0 
100.89994 112.0 
100.924889 160.0 
100.950935 160.0 
100.983398 168.0 
101.005798 172.0 
101.029411 204.0 
101.05336 172.0 
101.094421 236.0 
101.128845 184.0 
101.155342 168.0 
101.196472 144.0 
101.233612 356.0 
101.290497 132.0 
101.314278 200.0 
101.366722 208.0 
101.389214 340.0 
101.411606 192.0 
101.436974 160.0 
101.458893 116.0 
101.46402 188.0 
101.51149 384.0 
101.575989 160.0 
101.595665 200.0 
101.612511 124.0 
101.630814 92.0 
101.660728 436.0 
101.682556 188.0 
101.704109 196.0 
101.728111 268.0 
101.740952 192.0 
101.755943 132.0 
101.763435 160.0 
101.788231 168.0 
101.806252 260.0 
101.832069 204.0 
101.852699 192.0 
101.874802 144.0 
101.900024 208.0 
101.93161 188.0 
101.958054 340.0 
101.992218 232.0 
102.032143 156.0 
102.050301 124.0 
102.064156 188.0 
102.110809 156.0 
102.138077 132.0 
102.166344 160.0 
102.19648 208.0 
102.20723 272.0 
102.215714 236.0 
102.221184 160.0 
102.253105 88.0 
102.260307 156.0 
102.266205 200.0 
102.307068 144.0 
102.312172 100.0 
102.32843 208.0 
102.350052 136.0 
102.363556 224.0 
102.394768 72.0 
102.414848 144.0 
102.434227 136.0 
102.469795 156.0 
102.491127 184.0 
102.513832 516.0 
102.533295 160.0 
102.565956 244.0 
102.598686 184.0 
102.639626 132.0 
102.673904 208.0 
102.726349 172.0 
102.743156 228.0 
102.765129 144.0 
102.814438 244.0 
102.837769 240.0 
102.858391 148.0 
102.883339 208.0 
102.922806 240.0 
102.944595 124.0 
102.97155 236.0 
102.977211 136.0 
102.983574 196.0 
103.005707 132.0 
103.020081 392.0 
103.0345 100.0 
103.054802 584.0 
103.086754 128.0 
103.118668 248.0 
103.134926 72.0 
103.141747 184.0 
103.172661 280.0 
103.185722 144.0 
103.20607 140.0 
103.25853 124.0 
103.282547 200.0 
103.288879 104.0 
103.299866 164.0 
103.302826 128.0 
103.316246 288.0 
103.347145 148.0 
103.385406 424.0 
103.406555 108.0 
103.429474 240.0 
103.450806 104.0 
103.468033 120.0 
103.488419 116.0 
103.513992 172.0 
103.543709 240.0 
103.573166 220.0 
103.588951 136.0 
103.610641 104.0 
103.625244 84.0 
103.630775 80.0 
103.671844 144.0 
103.727341 304.0 
103.742157 264.0 
103.758957 256.0 
103.771385 160.0 
103.791008 60.0 
103.810471 156.0 
103.823753 140.0 
103.846283 100.0 
103.853401 96.0 
103.861496 176.0 
103.870033 120.0 
103.877625 156.0 
103.899345 212.0 
103.915894 264.0 
103.953697 196.0 
103.974731 172.0 
103.993675 396.0 
104.013458 84.0 
104.049767 1028.0 
104.088402 204.0 
104.096443 196.0 
104.103134 108.0 
104.111961 128.0 
104.148499 116.0 
104.165665 152.0 
104.193306 244.0 
104.209305 116.0 
104.214058 112.0 
104.234741 168.0 
104.282784 212.0 
104.341454 152.0 
104.36644 152.0 
104.382629 176.0 
104.397369 252.0 
104.410698 148.0 
104.433281 152.0 
104.436745 100.0 
104.479538 152.0 
104.504791 84.0 
104.525528 340.0 
104.540955 148.0 
104.569725 140.0 
104.583717 200.0 
104.624336 164.0 
104.658257 136.0 
104.677696 192.0 
104.702644 108.0 
104.737686 184.0 
104.754425 200.0 
104.768974 228.0 
104.78064 180.0 
104.79528 84.0 
104.809845 152.0 
104.837524 116.0 
104.876846 116.0 
104.906403 140.0 
104.932907 144.0 
104.956406 168.0 
104.977615 160.0 
105.034485 168.0 
105.069832 6604.0 
105.093018 360.0 
105.114441 168.0 
105.132072 100.0 
105.165154 316.0 
105.207314 132.0 
105.230789 220.0 
105.255333 224.0 
105.277351 88.0 
105.280418 172.0 
105.30088 112.0 
105.324699 420.0 
105.333321 176.0 
105.338837 296.0 
105.362511 240.0 
105.392151 144.0 
105.409958 112.0 
105.441833 324.0 
105.460228 116.0 
105.500122 92.0 
105.534096 72.0 
105.577927 352.0 
105.6073 204.0 
105.632011 256.0 
105.654007 152.0 
105.690689 184.0 
105.705864 192.0 
105.72654 152.0 
105.756081 176.0 
105.781761 164.0 
105.797501 296.0 
105.822533 252.0 
105.829796 104.0 
105.837273 248.0 
105.843315 256.0 
105.860229 160.0 
105.863396 108.0 
105.905647 64.0 
105.929962 124.0 
105.950394 76.0 
105.955605 124.0 
105.995949 156.0 
106.014816 212.0 
106.064842 9288.0 
106.118477 136.0 
106.140961 352.0 
106.163788 164.0 
106.171326 268.0 
106.201874 84.0 
106.218178 120.0 
106.262314 136.0 
106.293129 328.0 
106.316605 380.0 
106.389862 216.0 
106.417137 372.0 
106.449249 156.0 
106.489693 116.0 
106.529007 140.0 
106.549789 104.0 
106.565262 104.0 
106.59671 356.0 
106.633934 156.0 
106.640091 148.0 
106.646812 212.0 
106.665764 120.0 
106.693993 408.0 
106.706657 160.0 
106.734024 108.0 
106.745056 108.0 
106.764442 196.0 
106.782211 388.0 
106.804436 164.0 
106.829208 92.0 
106.835022 108.0 
106.874191 144.0 
106.916115 252.0 
106.929871 172.0 
106.94297 100.0 
106.967613 116.0 
106.993546 120.0 
107.00708 176.0 
107.028961 124.0 
107.048462 640.0 
107.085091 16752.0 
107.110672 312.0 
107.127495 272.0 
107.132416 308.0 
107.150078 152.0 
107.158554 208.0 
107.193901 104.0 
107.217354 140.0 
107.22641 128.0 
107.25206 324.0 
107.271645 184.0 
107.302238 120.0 
107.321625 160.0 
107.344955 164.0 
107.366539 168.0 
107.3806 172.0 
107.418159 208.0 
107.445297 144.0 
107.500053 140.0 
107.527145 168.0 
107.547768 188.0 
107.563644 188.0 
107.588692 144.0 
107.607956 116.0 
107.633202 144.0 
107.651466 132.0 
107.686729 128.0 
107.739502 232.0 
107.763794 340.0 
107.789139 220.0 
107.82119 176.0 
107.84494 236.0 
107.875931 116.0 
107.905731 168.0 
107.944168 148.0 
107.965912 60.0 
107.995934 116.0 
108.054535 428.0 
108.087151 1512.0 
108.12429 236.0 
108.147446 140.0 
108.151962 104.0 
108.16497 188.0 
108.181335 392.0 
108.205673 152.0 
108.227051 164.0 
108.272156 188.0 
108.308586 256.0 
108.349159 136.0 
108.356339 124.0 
108.373985 244.0 
108.394791 164.0 
108.418892 80.0 
108.436737 156.0 
108.477432 184.0 
108.494492 228.0 
108.515656 184.0 
108.53112 140.0 
108.559555 104.0 
108.578941 108.0 
108.623466 92.0 
108.65654 144.0 
108.665001 140.0 
108.676514 248.0 
108.691444 340.0 
108.698654 136.0 
108.708305 168.0 
108.711983 328.0 
108.733398 268.0 
108.756523 112.0 
108.768135 332.0 
108.789024 212.0 
108.817795 280.0 
108.847511 96.0 
108.874962 128.0 
108.909309 288.0 
108.934769 196.0 
108.983742 104.0 
108.998291 92.0 
109.015663 276.0 
109.064468 12416.0 
109.100983 9824.0 
109.125015 372.0 
109.152344 132.0 
109.170097 192.0 
109.185387 96.0 
109.20723 132.0 
109.23407 248.0 
109.260071 208.0 
109.277504 184.0 
109.310829 120.0 
109.327011 164.0 
109.346825 108.0 
109.391296 176.0 
109.409958 436.0 
109.4366 312.0 
109.462173 136.0 
109.489784 184.0 
109.506363 236.0 
109.540367 176.0 
109.555115 244.0 
109.594238 140.0 
109.600533 80.0 
109.622093 240.0 
109.638962 148.0 
109.660522 208.0 
109.676765 68.0 
109.691353 104.0 
109.714058 196.0 
109.757935 384.0 
109.789116 280.0 
109.80616 148.0 
109.822723 208.0 
109.851433 152.0 
109.881653 140.0 
109.909286 160.0 
109.941162 208.0 
109.958763 200.0 
109.979218 52.0 
110.005096 100.0 
110.035576 112.0 
110.067413 1324.0 
110.105621 1120.0 
110.126991 136.0 
110.147476 268.0 
110.161972 192.0 
110.188042 108.0 
110.206085 120.0 
110.217781 172.0 
110.244026 172.0 
110.259956 304.0 
110.279175 112.0 
110.310081 152.0 
110.326508 492.0 
110.359436 40.0 
110.384041 192.0 
110.399132 232.0 
110.407051 140.0 
110.414551 160.0 
110.432281 120.0 
110.470543 176.0 
110.506805 148.0 
110.54039 412.0 
110.581451 252.0 
110.630974 144.0 
110.645447 80.0 
110.669266 208.0 
110.678032 116.0 
110.704041 260.0 
110.740578 216.0 
110.761749 176.0 
110.788116 72.0 
110.802147 72.0 
110.816002 160.0 
110.834618 212.0 
110.854492 216.0 
110.885017 184.0 
110.924393 164.0 
110.953972 108.0 
110.975761 136.0 
110.980469 60.0 
111.009384 164.0 
111.044243 952.0 
111.080635 2908.0 
111.116852 552.0 
111.138168 128.0 
111.143692 196.0 
111.163879 216.0 
111.192749 116.0 
111.215073 196.0 
111.237114 140.0 
111.252571 224.0 
111.26989 156.0 
111.29332 180.0 
111.312172 152.0 
111.336952 220.0 
111.359055 172.0 
111.381073 116.0 
111.415085 112.0 
111.434624 144.0 
111.444748 116.0 
111.455765 116.0 
111.474907 292.0 
111.50914 208.0 
111.524773 156.0 
111.540588 132.0 
111.556427 184.0 
111.56192 140.0 
111.589218 152.0 
111.606361 256.0 
111.628502 224.0 
111.643425 108.0 
111.674042 144.0 
111.703568 236.0 
111.747025 108.0 
111.764587 196.0 
111.793777 352.0 
111.8153 76.0 
111.833725 276.0 
111.849319 172.0 
111.873993 136.0 
111.8815 80.0 
111.916267 212.0 
111.938019 340.0 
111.962059 236.0 
111.98584 156.0 
112.008873 120.0 
112.016525 164.0 
112.02195 228.0 
112.048111 200.0 
112.068985 120.0 
112.082901 200.0 
112.103821 132.0 
112.123405 260.0 
112.144646 152.0 
112.159325 96.0 
112.175407 112.0 
112.178299 84.0 
112.188736 140.0 
112.204155 240.0 
112.229675 104.0 
112.252037 104.0 
112.256119 180.0 
112.279358 204.0 
112.34108 148.0 
112.369743 164.0 
112.398102 344.0 
112.4282 192.0 
112.433174 140.0 
112.476524 112.0 
112.49614 236.0 
112.521324 116.0 
112.532928 188.0 
112.551704 124.0 
112.575089 204.0 
112.603828 156.0 
112.633858 272.0 
112.649757 348.0 
112.665482 256.0 
112.696152 184.0 
112.734238 292.0 
112.78064 88.0 
112.803131 72.0 
112.829811 200.0 
112.871216 180.0 
112.892212 132.0 
112.91803 188.0 
112.922554 120.0 
112.966011 152.0 
112.99913 144.0 
113.01606 76.0 
113.0355 192.0 
113.059761 2880.0 
113.096916 288.0 
113.143448 316.0 
113.162888 176.0 
113.202072 284.0 
113.21804 96.0 
113.249962 320.0 
113.274864 116.0 
113.308037 164.0 
113.334045 136.0 
113.348503 192.0 
113.37027 120.0 
113.390182 84.0 
113.408501 200.0 
113.430069 132.0 
113.463692 244.0 
113.480606 136.0 
113.502716 112.0 
113.543396 120.0 
113.572731 152.0 
113.580376 120.0 
113.593575 468.0 
113.620636 168.0 
113.648575 184.0 
113.680855 116.0 
113.712868 188.0 
113.74897 132.0 
113.766342 276.0 
113.802948 252.0 
113.820297 80.0 
113.838531 276.0 
113.875343 160.0 
113.894859 92.0 
113.918121 280.0 
113.931595 108.0 
113.953232 240.0 
113.971451 216.0 
113.9823 100.0 
113.990662 176.0 
114.023361 216.0 
114.062859 364.0 
114.108391 164.0 
114.125725 152.0 
114.149857 216.0 
114.169991 132.0 
114.196236 300.0 
114.225731 68.0 
114.240128 208.0 
114.270454 220.0 
114.299133 136.0 
114.319695 156.0 
114.346413 148.0 
114.353157 132.0 
114.375374 112.0 
114.410782 120.0 
114.427002 112.0 
114.463966 248.0 
114.481003 324.0 
114.494965 144.0 
114.506157 244.0 
114.531456 100.0 
114.55809 184.0 
114.57296 156.0 
114.602051 128.0 
114.618904 164.0 
114.640587 132.0 
114.668449 116.0 
114.7099 104.0 
114.730064 216.0 
114.753777 164.0 
114.810982 224.0 
114.827179 140.0 
114.845993 132.0 
114.870735 208.0 
114.906265 292.0 
114.91214 184.0 
114.950317 276.0 
114.968063 256.0 
114.989143 196.0 
115.015495 276.0 
115.054688 804.0 
115.076027 264.0 
115.093369 216.0 
115.139755 72.0 
115.166328 284.0 
115.190277 60.0 
115.210876 176.0 
115.227432 304.0 
115.269547 280.0 
115.292542 148.0 
115.31398 188.0 
115.34343 224.0 
115.365089 160.0 
115.381226 500.0 
115.397346 192.0 
115.419632 212.0 
115.429245 188.0 
115.438759 176.0 
115.446274 380.0 
115.465775 96.0 
115.479698 240.0 
115.503746 176.0 
115.516373 184.0 
115.577057 100.0 
115.595116 48.0 
115.6101 108.0 
115.6315 120.0 
115.650963 252.0 
115.678589 80.0 
115.699142 320.0 
115.729172 172.0 
115.769089 300.0 
115.785652 116.0 
115.811859 196.0 
115.825508 92.0 
115.829262 144.0 
115.851616 176.0 
115.864616 324.0 
115.894905 352.0 
115.909904 224.0 
115.929596 188.0 
115.948479 80.0 
115.963478 172.0 
115.979912 136.0 
115.999916 108.0 
116.02037 156.0 
116.049507 256.0 
116.087273 124.0 
116.093071 100.0 
116.119759 144.0 
116.172302 176.0 
116.186935 116.0 
116.202202 112.0 
116.220932 160.0 
116.237244 152.0 
116.261597 128.0 
116.278763 128.0 
116.303711 192.0 
116.324814 168.0 
116.342789 116.0 
116.360031 112.0 
116.376869 120.0 
116.418045 96.0 
116.434616 172.0 
116.467651 136.0 
116.472694 276.0 
116.482727 368.0 
116.506104 252.0 
116.527145 276.0 
116.570442 260.0 
116.574692 120.0 
116.582375 336.0 
116.598778 332.0 
116.624451 144.0 
116.629814 100.0 
116.659843 244.0 
116.699326 160.0 
116.722153 368.0 
116.740669 52.0 
116.768578 352.0 
116.793861 164.0 
116.800316 120.0 
116.820015 144.0 
116.83033 76.0 
116.872673 140.0 
116.886841 220.0 
116.911903 316.0 
116.940781 192.0 
116.959641 152.0 
116.980057 164.0 
116.989761 104.0 
116.99762 372.0 
117.014984 324.0 
117.06913 1804.0 
117.12989 328.0 
117.145821 156.0 
117.17865 144.0 
117.199181 112.0 
117.221718 148.0 
117.243118 224.0 
117.281883 64.0 
117.312515 292.0 
117.32518 156.0 
117.339859 192.0 
117.358772 96.0 
117.394646 248.0 
117.414307 244.0 
117.428215 120.0 
117.435318 112.0 
117.452972 252.0 
117.476532 216.0 
117.484886 84.0 
117.492989 204.0 
117.520836 160.0 
117.544189 60.0 
117.565865 180.0 
117.598145 76.0 
117.633148 136.0 
117.657806 160.0 
117.672234 168.0 
117.690971 144.0 
117.715088 192.0 
117.740112 148.0 
117.747742 208.0 
117.778778 352.0 
117.81218 204.0 
117.837845 148.0 
117.861618 112.0 
117.894638 324.0 
117.902542 128.0 
117.908539 168.0 
117.948555 328.0 
117.976807 148.0 
118.000542 104.0 
118.03022 144.0 
118.064903 1372.0 
118.096771 124.0 
118.103027 48.0 
118.145752 192.0 
118.164207 128.0 
118.183479 136.0 
118.199532 132.0 
118.211128 184.0 
118.238686 136.0 
118.256462 136.0 
118.277885 160.0 
118.292648 108.0 
118.338409 120.0 
118.353218 148.0 
118.370651 124.0 
118.386292 256.0 
118.414246 168.0 
118.447418 316.0 
118.484497 172.0 
118.492378 92.0 
118.519722 228.0 
118.541626 152.0 
118.600243 272.0 
118.620789 176.0 
118.653801 264.0 
118.669044 272.0 
118.696892 136.0 
118.711769 136.0 
118.737343 140.0 
118.767906 72.0 
118.798309 248.0 
118.821449 148.0 
118.83033 184.0 
118.860191 180.0 
118.876694 100.0 
118.884247 168.0 
118.890488 160.0 
118.899483 208.0 
118.905853 136.0 
118.937027 272.0 
118.967979 216.0 
118.996475 236.0 
119.004005 224.0 
119.022102 164.0 
119.049408 1128.0 
119.085304 12924.0 
119.119743 240.0 
119.152687 196.0 
119.186661 288.0 
119.238899 172.0 
119.252747 220.0 
119.256981 328.0 
119.266418 360.0 
119.298355 124.0 
119.335548 168.0 
119.38031 216.0 
119.412682 160.0 
119.432785 320.0 
119.44828 144.0 
119.468216 216.0 
119.484093 132.0 
119.514671 200.0 
119.529785 160.0 
119.556091 144.0 
119.579071 128.0 
119.595093 184.0 
119.620316 336.0 
119.625778 252.0 
119.668976 504.0 
119.686256 156.0 
119.695389 140.0 
119.742058 200.0 
119.803802 188.0 
119.840561 320.0 
119.859566 244.0 
119.874763 184.0 
119.908852 144.0 
119.926765 164.0 
119.953918 176.0 
120.007057 1780.0 
120.043945 3444.0 
120.081329 3792.0 
120.119072 312.0 
120.164734 228.0 
120.189125 268.0 
120.246132 376.0 
120.267906 328.0 
120.29464 412.0 
120.303253 204.0 
120.31926 88.0 
120.340004 116.0 
120.357468 80.0 
120.374725 164.0 
120.396011 100.0 
120.426399 224.0 
120.453789 300.0 
120.483421 152.0 
120.489075 144.0 
120.511551 264.0 
120.535446 188.0 
120.547012 104.0 
120.567184 232.0 
120.599548 456.0 
120.61441 184.0 
120.638771 156.0 
120.66227 136.0 
120.687416 188.0 
120.706779 28.0 
120.73632 156.0 
120.743179 216.0 
120.751892 116.0 
120.781456 56.0 
120.809891 156.0 
120.824608 88.0 
120.841652 132.0 
120.864151 100.0 
120.882774 132.0 
120.905128 160.0 
120.92289 220.0 
120.956512 236.0 
120.982819 248.0 
121.010551 272.0 
121.064651 5464.0 
121.100761 21472.0 
121.140457 140.0 
121.156387 188.0 
121.174255 48.0 
121.198395 40.0 
121.215706 84.0 
121.248787 392.0 
121.279106 176.0 
121.297897 52.0 
121.318283 320.0 
121.35778 224.0 
121.375275 260.0 
121.381943 156.0 
121.392052 96.0 
121.405876 160.0 
121.43335 116.0 
121.459412 224.0 
121.478058 132.0 
121.49688 244.0 
121.524857 196.0 
121.562943 184.0 
121.584366 176.0 
121.601212 188.0 
121.619141 192.0 
121.642921 252.0 
121.663383 228.0 
121.685661 180.0 
121.700752 224.0 
121.738838 320.0 
121.77169 280.0 
121.791664 156.0 
121.810692 152.0 
121.83773 244.0 
121.841133 104.0 
121.875069 300.0 
121.896889 368.0 
121.922401 244.0 
121.964386 144.0 
121.968758 104.0 
121.988373 108.0 
122.024254 584.0 
122.061478 3328.0 
122.103302 1840.0 
122.132164 212.0 
122.164886 180.0 
122.207458 56.0 
122.225067 220.0 
122.241806 168.0 
122.265106 188.0 
122.281075 124.0 
122.296616 136.0 
122.320015 108.0 
122.368134 104.0 
122.391251 204.0 
122.422699 168.0 
122.449615 200.0 
122.4897 120.0 
122.520103 64.0 
122.540733 124.0 
122.574036 184.0 
122.594734 156.0 
122.60289 160.0 
122.611511 132.0 
122.626411 132.0 
122.655396 196.0 
122.684479 116.0 
122.705421 128.0 
122.729309 152.0 
122.757652 168.0 
122.762878 112.0 
122.787361 280.0 
122.802879 192.0 
122.838921 232.0 
122.877533 244.0 
122.900299 100.0 
122.921898 192.0 
122.944962 112.0 
122.962074 120.0 
123.01178 128.0 
123.042824 460.0 
123.079956 23732.0 
123.115715 1916.0 
123.147713 156.0 
123.163116 192.0 
123.184959 300.0 
123.202042 340.0 
123.225479 228.0 
123.245514 164.0 
123.267403 124.0 
123.305809 60.0 
123.340111 168.0 
123.365341 108.0 
123.392906 120.0 
123.445618 220.0 
123.47187 104.0 
123.502319 208.0 
123.520142 116.0 
123.543442 120.0 
123.575569 228.0 
123.60643 344.0 
123.625877 284.0 
123.695282 392.0 
123.746117 148.0 
123.771767 136.0 
123.808113 220.0 
123.824005 128.0 
123.861214 200.0 
123.904236 352.0 
123.936554 136.0 
123.965034 184.0 
124.008598 388.0 
124.039932 60.0 
124.045517 136.0 
124.052193 300.0 
124.080399 2404.0 
124.116562 180.0 
124.136826 92.0 
124.158043 92.0 
124.180222 140.0 
124.194756 164.0 
124.211845 156.0 
124.253273 176.0 
124.289825 180.0 
124.305977 76.0 
124.319809 48.0 
124.323021 132.0 
124.367104 160.0 
124.387352 184.0 
124.422539 136.0 
124.472565 208.0 
124.508095 220.0 
124.536781 168.0 
124.560364 200.0 
124.59848 248.0 
124.621613 144.0 
124.646431 140.0 
124.669724 216.0 
124.695068 172.0 
124.723778 120.0 
124.755714 168.0 
124.798759 204.0 
124.817467 136.0 
124.832169 232.0 
124.847328 140.0 
124.856461 168.0 
124.865494 52.0 
124.8769 144.0 
124.889839 144.0 
124.908371 144.0 
124.923309 68.0 
124.942863 276.0 
124.964569 292.0 
124.98407 472.0 
125.022949 284.0 
125.059914 292.0 
125.094444 5512.0 
125.143539 248.0 
125.152008 136.0 
125.188522 220.0 
125.211151 92.0 
125.263077 76.0 
125.291626 140.0 
125.294632 132.0 
125.310341 300.0 
125.314896 96.0 
125.324905 228.0 
125.334961 112.0 
125.378815 184.0 
125.39743 468.0 
125.42244 232.0 
125.443802 80.0 
125.476845 128.0 
125.545593 180.0 
125.567032 260.0 
125.59832 80.0 
125.632881 272.0 
125.657326 48.0 
125.67469 148.0 
125.692703 164.0 
125.726822 252.0 
125.763504 132.0 
125.800079 112.0 
125.805199 156.0 
125.833649 192.0 
125.860855 236.0 
125.890045 108.0 
125.927689 248.0 
125.958923 168.0 
125.986351 140.0 
126.006157 140.0 
126.026398 120.0 
126.045845 320.0 
126.061172 136.0 
126.077721 388.0 
126.101822 528.0 
126.129417 244.0 
126.15313 44.0 
126.170868 192.0 
126.195251 256.0 
126.233139 180.0 
126.268341 152.0 
126.304588 268.0 
126.319595 136.0 
126.338745 160.0 
126.355316 212.0 
126.36911 84.0 
126.375984 236.0 
126.39592 108.0 
126.423706 132.0 
126.438599 132.0 
126.457344 128.0 
126.479721 112.0 
126.526985 176.0 
126.543716 260.0 
126.568039 116.0 
126.583496 148.0 
126.60321 52.0 
126.638702 264.0 
126.664001 256.0 
126.703255 132.0 
126.723312 432.0 
126.757927 220.0 
126.784065 232.0 
126.811142 112.0 
126.835884 144.0 
126.869026 496.0 
126.904663 164.0 
126.919922 140.0 
126.943703 164.0 
126.980881 180.0 
127.032127 188.0 
127.050583 524.0 
127.07373 408.0 
127.10997 168.0 
127.136429 216.0 
127.166885 148.0 
127.202583 164.0 
127.228111 180.0 
127.270813 116.0 
127.299881 160.0 
127.329506 96.0 
127.337852 92.0 
127.34655 136.0 
127.382515 120.0 
127.409065 268.0 
127.428452 160.0 
127.4608 232.0 
127.486771 76.0 
127.524452 136.0 
127.546455 224.0 
127.567474 256.0 
127.576118 112.0 
127.596855 160.0 
127.631752 224.0 
127.655922 132.0 
127.690865 328.0 
127.705917 140.0 
127.713852 100.0 
127.722328 140.0 
127.748146 312.0 
127.791145 56.0 
127.813988 236.0 
127.839249 156.0 
127.876068 292.0 
127.896477 320.0 
127.915604 112.0 
127.919823 188.0 
127.935913 252.0 
127.978081 196.0 
127.996712 164.0 
128.00531 176.0 
128.014359 108.0 
128.061356 1052.0 
128.096527 208.0 
128.111038 192.0 
128.131363 248.0 
128.174271 196.0 
128.200165 52.0 
128.222321 356.0 
128.252655 192.0 
128.290802 160.0 
128.298218 152.0 
128.314789 132.0 
128.344284 116.0 
128.362366 76.0 
128.386719 112.0 
128.404724 368.0 
128.431503 92.0 
128.452774 160.0 
128.482803 92.0 
128.500244 200.0 
128.514343 148.0 
128.532959 104.0 
128.55864 284.0 
128.577377 124.0 
128.603119 240.0 
128.627228 304.0 
128.644272 124.0 
128.674484 220.0 
128.69931 236.0 
128.714508 44.0 
128.736115 168.0 
128.819153 84.0 
128.882385 80.0 
128.896011 160.0 
128.934769 332.0 
128.973587 272.0 
128.996918 104.0 
129.021942 188.0 
129.047531 256.0 
129.070038 2388.0 
129.125259 100.0 
129.151917 140.0 
129.1884 172.0 
129.214508 112.0 
129.250229 104.0 
129.266068 48.0 
129.303375 104.0 
129.333115 256.0 
129.33699 252.0 
129.369949 200.0 
129.404404 292.0 
129.426788 224.0 
129.468689 136.0 
129.503784 188.0 
129.526733 280.0 
129.561615 180.0 
129.581299 148.0 
129.618225 288.0 
129.64035 184.0 
129.68782 248.0 
129.735474 184.0 
129.763412 120.0 
129.779633 160.0 
129.792496 104.0 
129.828918 132.0 
129.833176 132.0 
129.852264 288.0 
129.870651 348.0 
129.885361 140.0 
129.910873 252.0 
129.947388 248.0 
129.969437 160.0 
129.991745 88.0 
130.021957 96.0 
130.039291 264.0 
130.069427 1572.0 
130.115585 112.0 
130.142624 176.0 
130.150818 132.0 
130.185074 180.0 
130.213257 248.0 
130.232498 112.0 
130.273666 172.0 
130.315933 172.0 
130.339813 188.0 
130.361465 120.0 
130.384705 124.0 
130.420319 168.0 
130.436142 300.0 
130.48233 384.0 
130.513382 292.0 
130.544479 272.0 
130.566544 132.0 
130.606766 168.0 
130.626556 376.0 
130.664429 220.0 
130.699387 308.0 
130.754105 368.0 
130.78978 100.0 
130.824921 196.0 
130.842697 140.0 
130.867172 248.0 
130.90799 164.0 
130.929993 136.0 
130.950485 304.0 
130.987274 308.0 
131.031433 144.0 
131.083191 4888.0 
131.122772 144.0 
131.145538 148.0 
131.180099 236.0 
131.214249 104.0 
131.234985 72.0 
131.243027 132.0 
131.272446 212.0 
131.302048 140.0 
131.31633 376.0 
131.363205 276.0 
131.384216 96.0 
131.401459 416.0 
131.450333 216.0 
131.477295 100.0 
131.495544 120.0 
131.515503 200.0 
131.561844 308.0 
131.588028 188.0 
131.615906 100.0 
131.656815 196.0 
131.696198 160.0 
131.720764 112.0 
131.748413 272.0 
131.787064 128.0 
131.823212 180.0 
131.854706 80.0 
131.869049 264.0 
131.896591 300.0 
131.926163 188.0 
131.934708 112.0 
131.942627 140.0 
131.962906 224.0 
131.987396 304.0 
132.044327 15404.0 
132.081451 2972.0 
132.123535 368.0 
132.150513 92.0 
132.168442 108.0 
132.18573 140.0 
132.201752 52.0 
132.220337 168.0 
132.25177 316.0 
132.278976 124.0 
132.30719 184.0 
132.328079 348.0 
132.356796 208.0 
132.371643 272.0 
132.392441 108.0 
132.428238 156.0 
132.454208 172.0 
132.499146 100.0 
132.518478 244.0 
132.549728 92.0 
132.602081 448.0 
132.609726 292.0 
132.645859 156.0 
132.67244 308.0 
132.703094 148.0 
132.707108 156.0 
132.725708 168.0 
132.748215 264.0 
132.773758 164.0 
132.804932 136.0 
132.844986 156.0 
132.867584 220.0 
132.872742 96.0 
132.875946 192.0 
132.882034 268.0 
132.908768 128.0 
132.932053 220.0 
132.964111 80.0 
132.987137 212.0 
133.006348 220.0 
133.048386 2064.0 
133.064102 940.0 
133.100677 10652.0 
133.144501 216.0 
133.164124 140.0 
133.222931 44.0 
133.247879 128.0 
133.293381 132.0 
133.330139 284.0 
133.365433 196.0 
133.406738 276.0 
133.425201 132.0 
133.441605 172.0 
133.469406 124.0 
133.5065 388.0 
133.522079 148.0 
133.576675 164.0 
133.602829 344.0 
133.62442 120.0 
133.645096 168.0 
133.650162 172.0 
133.661896 252.0 
133.718552 300.0 
133.73587 140.0 
133.743362 128.0 
133.769302 180.0 
133.809464 172.0 
133.818207 144.0 
133.856476 128.0 
133.895462 280.0 
133.924561 384.0 
133.95166 216.0 
133.985291 228.0 
134.012039 288.0 
134.058472 2200.0 
134.097229 2256.0 
134.125336 280.0 
134.16275 252.0 
134.198975 172.0 
134.208664 128.0 
134.230164 120.0 
134.272278 228.0 
134.306473 180.0 
134.326538 304.0 
134.354004 128.0 
134.371857 272.0 
134.379272 96.0 
134.388733 440.0 
134.424683 348.0 
134.446442 140.0 
134.467651 148.0 
134.509888 104.0 
134.520081 92.0 
134.543411 108.0 
134.578186 132.0 
134.598846 156.0 
134.612625 164.0 
134.638153 156.0 
134.687744 264.0 
134.727829 236.0 
134.77739 96.0 
134.806091 300.0 
134.828125 148.0 
134.851517 172.0 
134.895782 112.0 
134.931732 428.0 
134.94722 376.0 
134.987579 332.0 
135.023056 116.0 
135.080017 29588.0 
135.116333 4292.0 
135.143707 212.0 
135.168503 320.0 
135.193741 100.0 
135.220352 148.0 
135.240845 244.0 
135.255875 120.0 
135.28096 180.0 
135.303375 88.0 
135.338364 152.0 
135.358261 368.0 
135.384308 108.0 
135.406418 320.0 
135.412476 140.0 
135.421402 196.0 
135.436539 156.0 
135.475113 156.0 
135.500381 124.0 
135.534729 160.0 
135.551468 120.0 
135.582504 148.0 
135.617615 132.0 
135.64209 48.0 
135.657867 128.0 
135.688354 288.0 
135.71611 108.0 
135.754166 36.0 
135.802521 136.0 
135.825867 200.0 
135.841873 276.0 
135.87619 212.0 
135.917145 252.0 
135.947266 180.0 
135.98288 368.0 
136.016022 120.0 
136.038895 1096.0 
136.08049 2136.0 
136.118652 676.0 
136.179489 136.0 
136.190491 152.0 
136.207596 408.0 
136.238327 228.0 
136.257385 128.0 
136.293152 292.0 
136.303452 88.0 
136.310028 180.0 
136.336868 120.0 
136.363251 180.0 
136.388565 176.0 
136.420364 340.0 
136.429123 104.0 
136.466919 160.0 
136.496216 168.0 
136.530472 176.0 
136.538315 92.0 
136.544983 100.0 
136.563599 208.0 
136.582077 60.0 
136.599609 176.0 
136.651566 136.0 
136.697693 312.0 
136.725113 80.0 
136.732056 52.0 
136.750153 228.0 
136.775482 96.0 
136.794632 128.0 
136.81723 156.0 
136.846817 196.0 
136.896606 336.0 
136.923294 244.0 
136.966827 220.0 
136.988251 160.0 
137.020767 240.0 
137.069839 5604.0 
137.095978 83880.0 
137.130142 1948.0 
137.162552 100.0 
137.192856 180.0 
137.203537 168.0 
137.220398 144.0 
137.265488 92.0 
137.290665 124.0 
137.314377 204.0 
137.363007 124.0 
137.402634 144.0 
137.439835 228.0 
137.477646 340.0 
137.507538 76.0 
137.524734 168.0 
137.545914 116.0 
137.573746 280.0 
137.611359 184.0 
137.640747 184.0 
137.660309 128.0 
137.693619 456.0 
137.700684 228.0 
137.742462 200.0 
137.767349 204.0 
137.790771 152.0 
137.794479 68.0 
137.804962 192.0 
137.836472 48.0 
137.859818 180.0 
137.889709 112.0 
137.923843 88.0 
137.930023 136.0 
137.973068 328.0 
137.992233 140.0 
138.016785 524.0 
138.059265 268.0 
138.076996 1608.0 
138.098679 6976.0 
138.131836 388.0 
138.164398 96.0 
138.183029 280.0 
138.199539 88.0 
138.204498 148.0 
138.242371 152.0 
138.270081 144.0 
138.29689 108.0 
138.312592 260.0 
138.334305 176.0 
138.369339 256.0 
138.389618 168.0 
138.425186 124.0 
138.450912 156.0 
138.470795 168.0 
138.49884 136.0 
138.553192 156.0 
138.581299 152.0 
138.613831 364.0 
138.629654 308.0 
138.653763 156.0 
138.663101 116.0 
138.682129 184.0 
138.686127 140.0 
138.747818 84.0 
138.773178 176.0 
138.790085 340.0 
138.817627 96.0 
138.852188 188.0 
138.872803 144.0 
138.911987 180.0 
138.931946 128.0 
138.95285 152.0 
138.97139 136.0 
139.0186 224.0 
139.038651 108.0 
139.077179 1120.0 
139.110809 4424.0 
139.164932 260.0 
139.18399 224.0 
139.219177 204.0 
139.239838 280.0 
139.269165 84.0 
139.292007 412.0 
139.317169 88.0 
139.33876 152.0 
139.343231 100.0 
139.359116 204.0 
139.398315 92.0 
139.441299 176.0 
139.452026 216.0 
139.457932 224.0 
139.476761 168.0 
139.501221 224.0 
139.524216 256.0 
139.545944 204.0 
139.550385 132.0 
139.584656 164.0 
139.594238 92.0 
139.611053 220.0 
139.642258 204.0 
139.678101 132.0 
139.702026 200.0 
139.722427 152.0 
139.76915 120.0 
139.776764 124.0 
139.801331 64.0 
139.833603 448.0 
139.871429 100.0 
139.916962 80.0 
139.942032 304.0 
139.963882 116.0 
139.98671 324.0 
140.005264 200.0 
140.022583 116.0 
140.047043 152.0 
140.069641 160.0 
140.077225 80.0 
140.091339 264.0 
140.112854 760.0 
140.151169 132.0 
140.169144 308.0 
140.211304 140.0 
140.239899 120.0 
140.264603 120.0 
140.286911 444.0 
140.321014 180.0 
140.356934 124.0 
140.418228 152.0 
140.442551 240.0 
140.466949 132.0 
140.515945 188.0 
140.542267 188.0 
140.559387 204.0 
140.585999 300.0 
140.633148 128.0 
140.688278 124.0 
140.701248 148.0 
140.72435 72.0 
140.750305 108.0 
140.772812 60.0 
140.798111 132.0 
140.814011 276.0 
140.851044 108.0 
140.904755 332.0 
140.918701 140.0 
140.957794 252.0 
140.96611 216.0 
140.975723 100.0 
140.985107 144.0 
141.00795 244.0 
141.036713 448.0 
141.063919 288.0 
141.090057 1000.0 
141.120804 184.0 
141.1241 212.0 
141.156891 44.0 
141.193054 176.0 
141.197586 108.0 
141.230209 112.0 
141.251434 156.0 
141.284622 72.0 
141.321732 188.0 
141.372879 152.0 
141.402969 152.0 
141.431 328.0 
141.448349 136.0 
141.468277 152.0 
141.49762 48.0 
141.520447 216.0 
141.571777 292.0 
141.600998 188.0 
141.623718 208.0 
141.651062 172.0 
141.673309 132.0 
141.689743 148.0 
141.719193 144.0 
141.760742 140.0 
141.783752 116.0 
141.844345 112.0 
141.858337 124.0 
141.911636 124.0 
141.959778 280.0 
141.986115 172.0 
142.013779 356.0 
142.04155 224.0 
142.076202 1340.0 
142.141495 56.0 
142.16626 248.0 
142.216766 176.0 
142.249786 160.0 
142.271606 208.0 
142.35025 164.0 
142.377716 184.0 
142.418732 96.0 
142.440979 196.0 
142.474182 136.0 
142.502426 160.0 
142.537369 124.0 
142.577515 292.0 
142.61171 120.0 
142.633179 228.0 
142.657303 108.0 
142.705246 220.0 
142.721695 288.0 
142.730072 120.0 
142.748795 148.0 
142.803864 308.0 
142.823502 232.0 
142.870102 260.0 
142.916031 100.0 
142.95575 176.0 
142.988541 164.0 
143.020554 92.0 
143.083435 2360.0 
143.134949 112.0 
143.159897 308.0 
143.18512 376.0 
143.21846 284.0 
143.253555 408.0 
143.271515 164.0 
143.280975 168.0 
143.358521 308.0 
143.378891 124.0 
143.401337 164.0 
143.41597 136.0 
143.441849 212.0 
143.457047 128.0 
143.485077 228.0 
143.528503 200.0 
143.553375 164.0 
143.575134 268.0 
143.598129 320.0 
143.638748 152.0 
143.668015 244.0 
143.708038 100.0 
143.727127 68.0 
143.748428 168.0 
143.789597 188.0 
143.817368 188.0 
143.852158 124.0 
143.88002 296.0 
143.908066 188.0 
143.925644 220.0 
143.949905 124.0 
143.995407 236.0 
144.045029 480.0 
144.089203 1920.0 
144.135178 288.0 
144.152771 148.0 
144.214722 168.0 
144.244888 56.0 
144.281418 172.0 
144.314926 232.0 
144.331909 236.0 
144.354874 180.0 
144.392731 104.0 
144.449509 332.0 
144.51181 40.0 
144.539673 92.0 
144.562729 260.0 
144.585037 208.0 
144.606049 144.0 
144.626587 264.0 
144.643112 164.0 
144.680634 140.0 
144.697449 184.0 
144.738739 160.0 
144.786926 160.0 
144.817276 72.0 
144.83493 260.0 
144.896988 184.0 
144.938721 180.0 
144.964767 264.0 
144.989227 152.0 
145.006561 268.0 
145.067245 552.0 
145.100845 11284.0 
145.139084 100.0 
145.147934 148.0 
145.201859 304.0 
145.230576 112.0 
145.26442 200.0 
145.296371 136.0 
145.32132 396.0 
145.344055 212.0 
145.365036 168.0 
145.395721 184.0 
145.452713 128.0 
145.459518 200.0 
145.4673 296.0 
145.506363 148.0 
145.563736 296.0 
145.619125 360.0 
145.655212 316.0 
145.684402 108.0 
145.707993 224.0 
145.729904 152.0 
145.750839 88.0 
145.772552 212.0 
145.79631 164.0 
145.804184 144.0 
145.81105 184.0 
145.844238 108.0 
145.881668 280.0 
145.933655 84.0 
145.958725 140.0 
145.995941 176.0 
146.020676 184.0 
146.060364 2352.0 
146.097244 7068.0 
146.159241 484.0 
146.192337 320.0 
146.212891 332.0 
146.231232 224.0 
146.234879 228.0 
146.278412 156.0 
146.30426 108.0 
146.335007 232.0 
146.353638 76.0 
146.392746 180.0 
146.42569 192.0 
146.451355 120.0 
146.472748 124.0 
146.494476 280.0 
146.530609 56.0 
146.537903 148.0 
146.54892 128.0 
146.558151 152.0 
146.61203 120.0 
146.635315 80.0 
146.653336 28.0 
146.670944 196.0 
146.718201 252.0 
146.757019 80.0 
146.782944 120.0 
146.814468 400.0 
146.850906 248.0 
146.876984 116.0 
146.899292 56.0 
146.935516 212.0 
146.960831 216.0 
146.964874 224.0 
146.994385 172.0 
147.001633 132.0 
147.021393 292.0 
147.058182 2152.0 
147.116104 15812.0 
147.166626 180.0 
147.184952 44.0 
147.212158 152.0 
147.228745 108.0 
147.251373 168.0 
147.309967 196.0 
147.32637 232.0 
147.343933 100.0 
147.365341 288.0 
147.385086 148.0 
147.41806 84.0 
147.442215 224.0 
147.466156 320.0 
147.503174 208.0 
147.540298 168.0 
147.559875 152.0 
147.581619 200.0 
147.607529 164.0 
147.649139 144.0 
147.670135 164.0 
147.689789 412.0 
147.709137 428.0 
147.726852 180.0 
147.749023 224.0 
147.776108 176.0 
147.802902 392.0 
147.846634 204.0 
147.900101 240.0 
147.932037 88.0 
147.990982 244.0 
148.038956 7112.0 
148.066223 1612.0 
148.115845 2400.0 
148.14592 120.0 
148.181747 252.0 
148.223068 316.0 
148.264694 240.0 
148.301178 292.0 
148.340378 128.0 
148.363037 140.0 
148.386292 56.0 
148.412155 216.0 
148.446396 132.0 
148.482651 204.0 
148.499924 192.0 
148.53009 192.0 
148.574631 216.0 
148.60405 108.0 
148.630569 104.0 
148.661606 96.0 
148.680771 148.0 
148.701019 172.0 
148.726242 232.0 
148.753998 128.0 
148.777313 240.0 
148.820801 136.0 
148.869095 240.0 
148.923599 132.0 
148.953476 220.0 
148.989044 284.0 
149.014679 208.0 
149.045074 764.0 
149.070114 7504.0 
149.095551 4656.0 
149.131989 8864.0 
149.1922 384.0 
149.241959 288.0 
149.269226 64.0 
149.285767 112.0 
149.313919 184.0 
149.335297 144.0 
149.354935 264.0 
149.415741 172.0 
149.445953 72.0 
149.472046 96.0 
149.506088 240.0 
149.526642 92.0 
149.551605 88.0 
149.567291 228.0 
149.616211 200.0 
149.647156 280.0 
149.691269 68.0 
149.722183 188.0 
149.742081 300.0 
149.750626 84.0 
149.758011 176.0 
149.783493 168.0 
149.802307 224.0 
149.837997 120.0 
149.880341 168.0 
149.897369 84.0 
149.927032 132.0 
149.931763 72.0 
149.936142 160.0 
150.01297 372.0 
150.020859 532.0 
150.054214 4148.0 
150.097946 700.0 
150.134903 1496.0 
150.165619 144.0 
150.198547 180.0 
150.224731 164.0 
150.253586 232.0 
150.291611 140.0 
150.322113 256.0 
150.367126 112.0 
150.385956 128.0 
150.407654 192.0 
150.449173 156.0 
150.485992 276.0 
150.519241 148.0 
150.570114 84.0 
150.587616 148.0 
150.619751 168.0 
150.651001 108.0 
150.668289 252.0 
150.691574 108.0 
150.731506 136.0 
150.755615 252.0 
150.786514 148.0 
150.83345 60.0 
150.857712 112.0 
150.899399 224.0 
150.939636 296.0 
150.986343 136.0 
151.036636 224.0 
151.071762 1120.0 
151.110901 2680.0 
151.140121 300.0 
151.178299 144.0 
151.209641 92.0 
151.250458 244.0 
151.291214 160.0 
151.320984 376.0 
151.348907 108.0 
151.354294 176.0 
151.387924 184.0 
151.405136 100.0 
151.443481 140.0 
151.470932 240.0 
151.515945 256.0 
151.558655 168.0 
151.585983 264.0 
151.628922 300.0 
151.647461 232.0 
151.67012 132.0 
151.695511 284.0 
151.732346 256.0 
151.779205 144.0 
151.79097 128.0 
151.817215 168.0 
151.837753 228.0 
151.856064 124.0 
151.880066 160.0 
151.905182 312.0 
151.949341 116.0 
151.973083 160.0 
152.011887 444.0 
152.036758 164.0 
152.068588 712.0 
152.110794 560.0 
152.163208 68.0 
152.182846 84.0 
152.201904 136.0 
152.240891 176.0 
152.27037 144.0 
152.278976 220.0 
152.287674 176.0 
152.295044 164.0 
152.322006 220.0 
152.357224 104.0 
152.385254 176.0 
152.408737 108.0 
152.43161 252.0 
152.459061 144.0 
152.494095 236.0 
152.546539 168.0 
152.592331 156.0 
152.619156 112.0 
152.657074 220.0 
152.67923 120.0 
152.700638 108.0 
152.716125 136.0 
152.750809 128.0 
152.790527 112.0 
152.844406 164.0 
152.88208 80.0 
152.908936 216.0 
152.932648 116.0 
152.972137 192.0 
153.004898 132.0 
153.033585 108.0 
153.072525 500.0 
153.090515 1216.0 
153.123505 340.0 
153.147552 212.0 
153.169037 120.0 
153.186554 396.0 
153.210922 92.0 
153.24295 68.0 
153.28006 128.0 
153.310944 88.0 
153.345078 356.0 
153.351608 164.0 
153.376236 144.0 
153.410812 116.0 
153.471237 220.0 
153.497864 172.0 
153.519028 136.0 
153.550079 136.0 
153.569656 204.0 
153.590561 244.0 
153.606766 128.0 
153.627563 184.0 
153.649765 164.0 
153.671341 220.0 
153.720352 256.0 
153.761826 116.0 
153.777084 120.0 
153.795364 88.0 
153.819534 132.0 
153.87262 172.0 
153.897247 256.0 
153.933609 160.0 
153.960312 104.0 
153.98912 92.0 
154.007339 128.0 
154.042831 220.0 
154.063614 532.0 
154.112595 128.0 
154.138641 132.0 
154.188065 188.0 
154.244003 268.0 
154.281296 236.0 
154.313461 136.0 
154.379181 236.0 
154.407288 188.0 
154.448181 284.0 
154.484161 352.0 
154.537491 248.0 
154.559158 152.0 
154.59697 260.0 
154.623825 296.0 
154.674576 140.0 
154.698257 232.0 
154.733597 168.0 
154.75209 320.0 
154.789032 256.0 
154.793564 80.0 
154.800125 140.0 
154.820724 100.0 
154.84668 100.0 
154.875473 112.0 
154.892059 92.0 
154.936417 148.0 
154.967575 88.0 
154.994415 48.0 
155.020889 108.0 
155.088028 868.0 
155.131363 176.0 
155.175217 180.0 
155.179245 140.0 
155.209259 248.0 
155.227844 320.0 
155.27858 372.0 
155.329041 224.0 
155.351852 64.0 
155.394119 108.0 
155.429291 180.0 
155.463165 176.0 
155.482437 96.0 
155.487961 108.0 
155.52507 124.0 
155.547348 344.0 
155.587585 316.0 
155.627823 164.0 
155.656113 116.0 
155.706482 212.0 
155.727585 272.0 
155.746857 240.0 
155.780777 108.0 
155.828537 120.0 
155.850891 136.0 
155.89447 176.0 
155.935379 236.0 
155.956665 116.0 
156.011536 128.0 
156.040726 160.0 
156.089355 1140.0 
156.180389 324.0 
156.215759 476.0 
156.23378 148.0 
156.25618 84.0 
156.28891 152.0 
156.317017 256.0 
156.338242 208.0 
156.36821 336.0 
156.40181 176.0 
156.456665 204.0 
156.487 200.0 
156.511292 152.0 
156.533524 128.0 
156.556473 56.0 
156.586288 312.0 
156.618454 136.0 
156.62767 272.0 
156.65799 232.0 
156.685684 204.0 
156.727081 312.0 
156.749191 84.0 
156.766632 108.0 
156.797119 68.0 
156.841339 188.0 
156.870255 172.0 
156.889496 284.0 
156.909149 328.0 
156.940155 280.0 
156.981155 144.0 
157.001556 272.0 
157.03804 1008.0 
157.09993 9580.0 
157.147522 240.0 
157.180222 204.0 
157.212402 160.0 
157.216049 168.0 
157.242966 96.0 
157.267731 292.0 
157.30162 316.0 
157.318985 132.0 
157.340958 128.0 
157.362793 196.0 
157.382767 136.0 
157.415955 316.0 
157.442017 188.0 
157.452545 136.0 
157.455795 180.0 
157.489594 192.0 
157.522522 176.0 
157.560104 56.0 
157.603577 180.0 
157.654648 236.0 
157.682037 300.0 
157.685501 148.0 
157.729141 168.0 
157.800034 64.0 
157.818497 216.0 
157.86174 156.0 
157.908051 164.0 
157.932434 180.0 
157.956512 320.0 
157.988663 160.0 
158.060852 708.0 
158.096664 10316.0 
158.166092 136.0 
158.190048 72.0 
158.23851 96.0 
158.243607 168.0 
158.273621 288.0 
158.295471 76.0 
158.334259 132.0 
158.370987 180.0 
158.389801 272.0 
158.426804 148.0 
158.456268 288.0 
158.475983 300.0 
158.491867 176.0 
158.526627 104.0 
158.566864 172.0 
158.595032 336.0 
158.63623 108.0 
158.656479 132.0 
158.680466 144.0 
158.685303 84.0 
158.707199 324.0 
158.737747 164.0 
158.773773 136.0 
158.778122 88.0 
158.819885 292.0 
158.849106 108.0 
158.894302 128.0 
158.911148 116.0 
158.948959 192.0 
158.973572 140.0 
158.993347 280.0 
159.019501 220.0 
159.055771 3584.0 
159.077255 836.0 
159.116364 27984.0 
159.16629 236.0 
159.198212 248.0 
159.23288 92.0 
159.254333 148.0 
159.290115 112.0 
159.309509 120.0 
159.351669 32.0 
159.376236 72.0 
159.391373 508.0 
159.411041 200.0 
159.437332 176.0 
159.496552 276.0 
159.523773 120.0 
159.556564 128.0 
159.574478 356.0 
159.601425 156.0 
159.623734 392.0 
159.663574 188.0 
159.69014 152.0 
159.699707 108.0 
159.705139 148.0 
159.73201 168.0 
159.754013 224.0 
159.765503 184.0 
159.773224 124.0 
159.811874 92.0 
159.835754 108.0 
159.854401 304.0 
159.883331 152.0 
159.915573 52.0 
159.923187 252.0 
159.934784 136.0 
159.942398 112.0 
159.96785 148.0 
159.990265 232.0 
160.013779 188.0 
160.074951 5396.0 
160.112656 13040.0 
160.150711 136.0 
160.157349 144.0 
160.167603 76.0 
160.180923 168.0 
160.206421 172.0 
160.242264 380.0 
160.270645 172.0 
160.297363 176.0 
160.330643 324.0 
160.352036 212.0 
160.359619 92.0 
160.366653 148.0 
160.395584 188.0 
160.445358 256.0 
160.478867 192.0 
160.535248 164.0 
160.579666 136.0 
160.600601 240.0 
160.657501 152.0 
160.699783 144.0 
160.726624 216.0 
160.768387 204.0 
160.795792 236.0 
160.80452 164.0 
160.813934 148.0 
160.845963 260.0 
160.86586 232.0 
160.873077 176.0 
160.938705 260.0 
160.967987 392.0 
161.00174 132.0 
161.019592 184.0 
161.070953 40236.0 
161.094025 3652.0 
161.129868 2380.0 
161.168533 452.0 
161.189651 268.0 
161.215561 260.0 
161.243286 144.0 
161.268188 256.0 
161.30899 100.0 
161.331009 220.0 
161.356949 116.0 
161.380203 248.0 
161.400085 188.0 
161.41246 140.0 
161.427094 84.0 
161.437103 152.0 
161.485641 124.0 
161.522537 88.0 
161.558319 172.0 
161.589798 164.0 
161.624588 256.0 
161.65007 168.0 
161.677094 128.0 
161.702148 240.0 
161.730591 176.0 
161.758621 104.0 
161.792419 152.0 
161.818497 36.0 
161.851486 140.0 
161.884384 144.0 
161.906204 144.0 
161.929169 172.0 
161.936722 40.0 
161.946243 152.0 
161.977585 228.0 
162.079544 12916.0 
162.135193 452.0 
162.171326 92.0 
162.185074 108.0 
162.227707 260.0 
162.263809 268.0 
162.288666 236.0 
162.323654 148.0 
162.361755 144.0 
162.393356 96.0 
162.396973 168.0 
162.407562 208.0 
162.437943 52.0 
162.477173 140.0 
162.507416 140.0 
162.52594 184.0 
162.546524 168.0 
162.57106 128.0 
162.596436 160.0 
162.637039 100.0 
162.669434 200.0 
162.695068 124.0 
162.71199 92.0 
162.728485 124.0 
162.75386 268.0 
162.770874 212.0 
162.774826 96.0 
162.807159 108.0 
162.855118 104.0 
162.873398 148.0 
162.914215 108.0 
162.954483 96.0 
162.992447 360.0 
163.011795 116.0 
163.051788 1360.0 
163.085739 19588.0 
163.110443 13208.0 
163.147217 932.0 
163.173904 148.0 
163.214554 144.0 
163.245697 160.0 
163.265381 112.0 
163.289917 184.0 
163.316971 232.0 
163.336639 152.0 
163.357758 76.0 
163.376526 120.0 
163.403671 220.0 
163.443024 120.0 
163.466919 84.0 
163.48999 88.0 
163.529663 176.0 
163.554413 132.0 
163.585693 240.0 
163.608124 104.0 
163.646301 68.0 
163.674072 124.0 
163.692535 260.0 
163.728455 232.0 
163.771194 204.0 
163.805481 152.0 
163.810471 196.0 
163.84227 140.0 
163.874802 96.0 
163.892197 212.0 
163.930847 68.0 
163.966782 104.0 
163.986954 172.0 
164.070724 3576.0 
164.107483 2780.0 
164.150452 420.0 
164.181854 192.0 
164.21402 208.0 
164.298615 196.0 
164.365112 152.0 
164.383606 244.0 
164.402115 160.0 
164.430634 148.0 
164.434662 108.0 
164.446259 200.0 
164.481995 160.0 
164.512604 268.0 
164.532166 132.0 
164.569305 104.0 
164.594849 208.0 
164.622086 96.0 
164.663025 160.0 
164.682602 280.0 
164.698151 80.0 
164.731842 100.0 
164.771652 144.0 
164.809509 108.0 
164.847168 336.0 
164.867355 260.0 
164.919296 164.0 
164.962097 124.0 
164.987885 164.0 
165.010086 196.0 
165.020798 152.0 
165.069778 1676.0 
165.090134 4036.0 
165.126846 14504.0 
165.179565 148.0 
165.203903 320.0 
165.23468 184.0 
165.245193 124.0 
165.2677 132.0 
165.296127 164.0 
165.321976 108.0 
165.355072 168.0 
165.379074 128.0 
165.38472 96.0 
165.409592 196.0 
165.442703 92.0 
165.484619 296.0 
165.500809 360.0 
165.52507 144.0 
165.562851 196.0 
165.593414 112.0 
165.634323 224.0 
165.654907 128.0 
165.70163 160.0 
165.747726 168.0 
165.767822 116.0 
165.813309 88.0 
165.856537 132.0 
165.905762 128.0 
165.943604 120.0 
165.982971 212.0 
166.013535 276.0 
166.049637 172.0 
166.071014 648.0 
166.093887 632.0 
166.129944 2156.0 
166.205872 152.0 
166.238876 120.0 
166.284485 148.0 
166.316711 108.0 
166.326065 136.0 
166.371048 72.0 
166.381821 48.0 
166.427368 472.0 
166.455032 148.0 
166.486618 120.0 
166.529984 252.0 
166.56842 188.0 
166.605087 304.0 
166.633804 140.0 
166.661697 124.0 
166.673904 88.0 
166.690186 232.0 
166.720612 124.0 
166.757843 216.0 
166.804581 108.0 
166.82547 192.0 
166.844162 236.0 
166.877823 128.0 
166.916473 52.0 
166.971527 136.0 
167.004486 264.0 
167.029099 132.0 
167.080444 204.0 
167.142059 2932.0 
167.193573 184.0 
167.227249 184.0 
167.250931 88.0 
167.268936 180.0 
167.292114 100.0 
167.324936 176.0 
167.38295 272.0 
167.443939 252.0 
167.469711 140.0 
167.486221 228.0 
167.497757 140.0 
167.507477 256.0 
167.55957 196.0 
167.631104 184.0 
167.636353 148.0 
167.647095 132.0 
167.657135 140.0 
167.664368 124.0 
167.708115 200.0 
167.724335 244.0 
167.737335 72.0 
167.744553 344.0 
167.766129 120.0 
167.79216 120.0 
167.818741 116.0 
167.885254 172.0 
167.897415 148.0 
167.907211 324.0 
167.932083 268.0 
167.943192 96.0 
167.951859 228.0 
167.980164 240.0 
168.007751 116.0 
168.012299 132.0 
168.038925 220.0 
168.083801 216.0 
168.109726 224.0 
168.118851 128.0 
168.148926 344.0 
168.197617 116.0 
168.234238 220.0 
168.257706 324.0 
168.292038 152.0 
168.315933 316.0 
168.344421 300.0 
168.368683 256.0 
168.414627 144.0 
168.453552 116.0 
168.495636 248.0 
168.518463 40.0 
168.524109 128.0 
168.550415 148.0 
168.563248 48.0 
168.567291 100.0 
168.589523 136.0 
168.624146 148.0 
168.646378 76.0 
168.670914 148.0 
168.693665 136.0 
168.766449 268.0 
168.801498 312.0 
168.818237 204.0 
168.836563 172.0 
168.882492 116.0 
168.934464 148.0 
168.97998 308.0 
169.029709 180.0 
169.097794 628.0 
169.166321 36.0 
169.19696 252.0 
169.217407 152.0 
169.243698 204.0 
169.279221 228.0 
169.307358 232.0 
169.356491 280.0 
169.412292 212.0 
169.444778 128.0 
169.473007 200.0 
169.491562 72.0 
169.515503 156.0 
169.546021 108.0 
169.589615 136.0 
169.603851 168.0 
169.634903 248.0 
169.65564 104.0 
169.7052 212.0 
169.731674 76.0 
169.772705 136.0 
169.815811 108.0 
169.846664 124.0 
169.874619 524.0 
169.893082 136.0 
169.901367 152.0 
169.921692 128.0 
169.940399 148.0 
169.986374 244.0 
170.014725 136.0 
170.061646 316.0 
170.100647 2084.0 
170.146271 124.0 
170.168274 132.0 
170.197952 128.0 
170.233047 284.0 
170.266068 248.0 
170.336044 180.0 
170.361832 248.0 
170.407745 316.0 
170.437576 208.0 
170.473663 104.0 
170.501663 192.0 
170.511002 156.0 
170.557037 68.0 
170.585892 144.0 
170.624557 132.0 
170.656235 72.0 
170.700531 192.0 
170.767288 132.0 
170.782364 156.0 
170.820633 148.0 
170.843552 224.0 
170.912918 164.0 
170.934967 184.0 
170.971695 124.0 
171.020432 252.0 
171.055481 5980.0 
171.114853 4472.0 
171.172928 196.0 
171.194778 332.0 
171.233688 112.0 
171.276215 316.0 
171.303558 72.0 
171.356415 160.0 
171.384323 192.0 
171.402435 172.0 
171.45784 280.0 
171.516464 152.0 
171.600037 168.0 
171.628769 220.0 
171.642212 128.0 
171.66478 328.0 
171.700623 216.0 
171.729935 268.0 
171.763351 156.0 
171.786118 192.0 
171.808731 128.0 
171.827759 176.0 
171.893829 180.0 
171.907242 276.0 
171.914749 220.0 
171.950668 116.0 
171.971008 220.0 
171.993134 248.0 
172.065857 984.0 
172.112823 2808.0 
172.187668 148.0 
172.250076 128.0 
172.267731 140.0 
172.274673 156.0 
172.297211 140.0 
172.306244 128.0 
172.384232 108.0 
172.393539 80.0 
172.412369 172.0 
172.434143 112.0 
172.464355 132.0 
172.474594 84.0 
172.486435 136.0 
172.521332 188.0 
172.544205 248.0 
172.583771 132.0 
172.617096 136.0 
172.640213 184.0 
172.672043 160.0 
172.697479 272.0 
172.741943 48.0 
172.77446 148.0 
172.798645 108.0 
172.832047 200.0 
172.899063 156.0 
172.935913 188.0 
172.99852 212.0 
173.028915 124.0 
173.070724 3552.0 
173.094284 3904.0 
173.130112 4748.0 
173.167114 256.0 
173.177872 208.0 
173.185013 292.0 
173.217529 176.0 
173.273773 276.0 
173.308319 380.0 
173.335342 72.0 
173.371643 292.0 
173.412674 92.0 
173.434998 168.0 
173.4431 100.0 
173.48526 104.0 
173.502808 188.0 
173.533401 96.0 
173.582916 100.0 
173.612335 276.0 
173.639999 200.0 
173.658737 276.0 
173.699997 176.0 
173.726944 192.0 
173.762894 176.0 
173.781097 240.0 
173.804245 232.0 
173.843643 288.0 
173.868668 176.0 
173.904999 56.0 
173.927429 140.0 
173.965302 256.0 
173.997513 240.0 
174.090179 18336.0 
174.128845 1292.0 
174.183365 120.0 
174.199402 156.0 
174.253159 80.0 
174.291748 240.0 
174.320541 296.0 
174.342072 132.0 
174.369125 132.0 
174.379898 60.0 
174.398026 220.0 
174.405106 180.0 
174.414429 140.0 
174.425079 164.0 
174.431656 220.0 
174.459518 268.0 
174.501816 116.0 
174.537354 336.0 
174.568512 136.0 
174.610962 124.0 
174.636124 228.0 
174.663986 112.0 
174.66835 164.0 
174.703583 360.0 
174.74295 392.0 
174.788345 164.0 
174.808044 96.0 
174.846268 236.0 
174.866135 112.0 
174.900513 236.0 
174.941681 304.0 
174.975433 168.0 
174.995911 292.0 
175.048996 9800.0 
175.087433 8316.0 
175.111069 35704.0 
175.144287 1172.0 
175.225281 76.0 
175.229034 120.0 
175.276581 312.0 
175.30191 124.0 
175.318817 96.0 
175.336975 132.0 
175.363815 152.0 
175.403458 128.0 
175.440094 104.0 
175.46727 60.0 
175.489273 152.0 
175.513947 216.0 
175.5392 232.0 
175.570358 92.0 
175.589737 248.0 
175.616821 232.0 
175.677292 244.0 
175.695465 156.0 
175.728821 160.0 
175.770538 240.0 
175.799255 284.0 
175.8237 104.0 
175.835526 108.0 
175.84375 196.0 
175.871841 288.0 
175.904846 164.0 
175.936417 236.0 
175.984009 136.0 
176.005936 144.0 
176.057663 2488.0 
176.11087 6116.0 
176.142822 432.0 
176.190063 140.0 
176.221375 312.0 
176.241562 172.0 
176.265411 148.0 
176.306702 216.0 
176.345581 168.0 
176.397476 244.0 
176.417267 112.0 
176.451797 140.0 
176.473923 56.0 
176.491455 76.0 
176.511108 116.0 
176.53392 348.0 
176.583206 312.0 
176.610245 132.0 
176.630951 140.0 
176.652603 208.0 
176.672287 164.0 
176.692078 292.0 
176.738007 124.0 
176.775238 236.0 
176.785461 160.0 
176.809052 144.0 
176.868301 124.0 
176.898544 244.0 
176.911758 220.0 
176.968262 152.0 
176.99472 160.0 
177.001862 92.0 
177.015152 156.0 
177.065262 3288.0 
177.126465 27400.0 
177.161835 1596.0 
177.195709 328.0 
177.216415 380.0 
177.253021 140.0 
177.275803 228.0 
177.297653 248.0 
177.347534 104.0 
177.37851 216.0 
177.397675 88.0 
177.405029 76.0 
177.417282 192.0 
177.439224 296.0 
177.501465 352.0 
177.521103 208.0 
177.541611 264.0 
177.574966 208.0 
177.62529 228.0 
177.692993 224.0 
177.730499 100.0 
177.752182 292.0 
177.78331 92.0 
177.82019 384.0 
177.88002 136.0 
177.908081 256.0 
177.936462 264.0 
177.955322 116.0 
177.995499 160.0 
178.018646 168.0 
178.045334 196.0 
178.084488 1568.0 
178.127319 3772.0 
178.164688 404.0 
178.204071 232.0 
178.232224 192.0 
178.280823 100.0 
178.320465 144.0 
178.338287 232.0 
178.360794 172.0 
178.37999 132.0 
178.387009 176.0 
178.400146 120.0 
178.409988 120.0 
178.421524 56.0 
178.434296 216.0 
178.475189 204.0 
178.511017 104.0 
178.528046 44.0 
178.540787 160.0 
178.567963 224.0 
178.58699 176.0 
178.630539 48.0 
178.661606 104.0 
178.689636 300.0 
178.715622 116.0 
178.726608 116.0 
178.756897 132.0 
178.776428 184.0 
178.822906 112.0 
178.857224 156.0 
178.881073 128.0 
178.91507 136.0 
178.926666 136.0 
178.934204 176.0 
178.976562 200.0 
179.004791 160.0 
179.03418 260.0 
179.084488 292.0 
179.107925 860.0 
179.13884 492.0 
179.180191 244.0 
179.213303 280.0 
179.266251 192.0 
179.273209 296.0 
179.30658 128.0 
179.331039 124.0 
179.351654 148.0 
179.389221 60.0 
179.434357 52.0 
179.490356 104.0 
179.509293 120.0 
179.538361 108.0 
179.558182 120.0 
179.579834 124.0 
179.623795 144.0 
179.686172 440.0 
179.703751 140.0 
179.727753 112.0 
179.746445 72.0 
179.784103 308.0 
179.812485 80.0 
179.822891 124.0 
179.864044 128.0 
179.896057 208.0 
179.956985 292.0 
179.989349 96.0 
180.022293 268.0 
180.099365 936.0 
180.127396 188.0 
180.189346 120.0 
180.220612 228.0 
180.259644 256.0 
180.280762 172.0 
180.312057 120.0 
180.372192 68.0 
180.424927 168.0 
180.456711 220.0 
180.510086 132.0 
180.52951 264.0 
180.53772 136.0 
180.546768 156.0 
180.557526 72.0 
180.566589 128.0 
180.576996 72.0 
180.585052 120.0 
180.622543 176.0 
180.632263 300.0 
180.659653 116.0 
180.687714 196.0 
180.708725 144.0 
180.747925 148.0 
180.810867 120.0 
180.842575 136.0 
180.870544 304.0 
180.91713 276.0 
180.942673 140.0 
180.994293 128.0 
181.019119 220.0 
181.059662 428.0 
181.088165 456.0 
181.118958 516.0 
181.15538 384.0 
181.192978 124.0 
181.212372 116.0 
181.243088 120.0 
181.303696 328.0 
181.351089 56.0 
181.371155 96.0 
181.435242 212.0 
181.503113 272.0 
181.538757 116.0 
181.556946 164.0 
181.60257 136.0 
181.626724 140.0 
181.637817 60.0 
181.647537 136.0 
181.672516 60.0 
181.713638 244.0 
181.741379 232.0 
181.790649 132.0 
181.810196 120.0 
181.832214 200.0 
181.864075 188.0 
181.901886 284.0 
181.929977 124.0 
181.963776 276.0 
181.986877 144.0 
182.019104 240.0 
182.058319 236.0 
182.064682 132.0 
182.098328 1352.0 
182.181686 160.0 
182.212494 96.0 
182.253281 88.0 
182.306549 108.0 
182.366974 140.0 
182.395233 136.0 
182.42749 188.0 
182.500473 228.0 
182.538528 144.0 
182.567307 108.0 
182.593018 72.0 
182.62323 216.0 
182.64209 316.0 
182.684631 84.0 
182.712448 184.0 
182.733749 200.0 
182.743546 124.0 
182.771484 120.0 
182.788361 160.0 
182.810822 108.0 
182.833649 160.0 
182.863266 72.0 
182.88559 148.0 
182.90979 140.0 
182.932953 108.0 
182.939896 204.0 
182.969894 52.0 
183.00267 260.0 
183.032761 104.0 
183.067047 608.0 
183.111954 1272.0 
183.177551 176.0 
183.213318 256.0 
183.238876 132.0 
183.261826 160.0 
183.292389 128.0 
183.322205 112.0 
183.351425 272.0 
183.389221 116.0 
183.413193 336.0 
183.436493 156.0 
183.459793 140.0 
183.499405 136.0 
183.533829 84.0 
183.569107 116.0 
183.60347 108.0 
183.614288 80.0 
183.656586 268.0 
183.697464 144.0 
183.730957 100.0 
183.774002 196.0 
183.822083 236.0 
183.863846 176.0 
183.897232 116.0 
183.94693 256.0 
183.997589 156.0 
184.023636 180.0 
184.072952 3488.0 
184.111481 3460.0 
184.143646 320.0 
184.172302 376.0 
184.212143 116.0 
184.25415 192.0 
184.281464 124.0 
184.328781 136.0 
184.334732 168.0 
184.373047 192.0 
184.398972 188.0 
184.437637 180.0 
184.463501 116.0 
184.508255 72.0 
184.547577 124.0 
184.58815 144.0 
184.627731 124.0 
184.654739 160.0 
184.679123 72.0 
184.723053 192.0 
184.755203 412.0 
184.783386 80.0 
184.804352 344.0 
184.848892 176.0 
184.856537 132.0 
184.892593 160.0 
184.915237 232.0 
184.958313 132.0 
184.989365 136.0 
185.03746 136.0 
185.074341 2312.0 
185.131241 5732.0 
185.178116 144.0 
185.209656 672.0 
185.251617 156.0 
185.28241 200.0 
185.308441 120.0 
185.327332 256.0 
185.360474 144.0 
185.390945 180.0 
185.412445 236.0 
185.465302 132.0 
185.474655 60.0 
185.491028 224.0 
185.585587 128.0 
185.626144 300.0 
185.679733 212.0 
185.70816 156.0 
185.737228 276.0 
185.761444 252.0 
185.781631 376.0 
185.828537 304.0 
185.895584 140.0 
185.954941 156.0 
186.023163 80.0 
186.050552 828.0 
186.088989 4612.0 
186.126358 3844.0 
186.180649 212.0 
186.200882 88.0 
186.21051 40.0 
186.217438 88.0 
186.239059 196.0 
186.256348 128.0 
186.288834 188.0 
186.318314 128.0 
186.34906 52.0 
186.378601 124.0 
186.387695 124.0 
186.416992 40.0 
186.449753 212.0 
186.495987 316.0 
186.539307 192.0 
186.575729 208.0 
186.618149 200.0 
186.64093 124.0 
186.661652 236.0 
186.690399 28.0 
186.695587 108.0 
186.728882 100.0 
186.756989 152.0 
186.801468 168.0 
186.856659 196.0 
186.888565 100.0 
186.911911 44.0 
186.935715 252.0 
186.962769 116.0 
186.989441 120.0 
187.050598 2856.0 
187.086563 2620.0 
187.116776 1232.0 
187.146866 12848.0 
187.185974 276.0 
187.221649 216.0 
187.254318 88.0 
187.275406 156.0 
187.324097 184.0 
187.363846 148.0 
187.387177 116.0 
187.408478 44.0 
187.435959 136.0 
187.467178 44.0 
187.499878 172.0 
187.528442 124.0 
187.556442 176.0 
187.577255 68.0 
187.611176 164.0 
187.684265 280.0 
187.705215 140.0 
187.726624 292.0 
187.785904 140.0 
187.831818 128.0 
187.862793 68.0 
187.903549 192.0 
187.944641 200.0 
187.979355 72.0 
188.008865 128.0 
188.058868 4248.0 
188.098221 2080.0 
188.143997 10760.0 
188.192947 192.0 
188.196823 160.0 
188.243835 104.0 
188.290466 228.0 
188.327774 192.0 
188.347839 128.0 
188.378876 172.0 
188.443344 260.0 
188.471725 244.0 
188.506439 212.0 
188.511581 136.0 
188.541763 304.0 
188.569107 160.0 
188.599396 336.0 
188.634506 88.0 
188.641373 348.0 
188.676834 268.0 
188.710251 280.0 
188.72139 108.0 
188.730499 312.0 
188.750565 96.0 
188.77507 148.0 
188.805099 152.0 
188.834885 264.0 
188.876373 240.0 
188.920166 248.0 
188.962631 224.0 
188.974335 300.0 
188.996185 232.0 
189.007309 148.0 
189.017548 352.0 
189.065826 143952.0 
189.099976 2616.0 
189.130478 2200.0 
189.162033 4036.0 
189.204834 380.0 
189.231339 80.0 
189.244202 116.0 
189.250488 80.0 
189.27681 248.0 
189.298264 172.0 
189.311218 92.0 
189.331573 200.0 
189.37178 300.0 
189.402283 72.0 
189.421295 112.0 
189.431427 144.0 
189.442017 236.0 
189.515137 424.0 
189.545212 248.0 
189.587387 272.0 
189.620377 124.0 
189.694626 224.0 
189.728897 476.0 
189.751633 216.0 
189.775635 200.0 
189.824829 128.0 
189.858673 228.0 
189.901062 180.0 
189.921356 96.0 
189.937256 336.0 
189.970016 308.0 
189.990814 168.0 
190.022812 180.0 
190.06897 17568.0 
190.129105 468.0 
190.164871 1124.0 
190.20787 84.0 
190.228836 84.0 
190.247955 108.0 
190.281967 72.0 
190.301758 108.0 
190.347534 68.0 
190.410049 224.0 
190.469025 288.0 
190.49202 84.0 
190.523865 176.0 
190.58429 204.0 
190.607742 184.0 
190.634857 164.0 
190.66629 180.0 
190.695847 116.0 
190.722458 140.0 
190.755417 232.0 
190.777328 128.0 
190.812973 140.0 
190.831726 120.0 
190.841797 160.0 
190.872711 160.0 
190.910675 156.0 
190.944321 252.0 
190.966995 164.0 
191.00441 340.0 
191.048676 676.0 
191.080292 12232.0 
191.104187 2808.0 
191.142044 1436.0 
191.207077 120.0 
191.243759 164.0 
191.273407 136.0 
191.315628 204.0 
191.340317 236.0 
191.369751 184.0 
191.379242 192.0 
191.421463 56.0 
191.431793 112.0 
191.462173 136.0 
191.47522 128.0 
191.482101 204.0 
191.513458 156.0 
191.533707 268.0 
191.564621 68.0 
191.596405 156.0 
191.603424 268.0 
191.635803 388.0 
191.653534 232.0 
191.682175 128.0 
191.722794 276.0 
191.750198 216.0 
191.804474 96.0 
191.829605 164.0 
191.864319 100.0 
191.894913 356.0 
191.929276 108.0 
191.949158 164.0 
191.966629 64.0 
192.010422 124.0 
192.053314 384.0 
192.085571 1192.0 
192.096588 1576.0 
192.145782 592.0 
192.186981 156.0 
192.243515 108.0 
192.269699 96.0 
192.298035 292.0 
192.322464 124.0 
192.359634 140.0 
192.423935 52.0 
192.44165 336.0 
192.47229 112.0 
192.509293 96.0 
192.517929 92.0 
192.525726 184.0 
192.565643 256.0 
192.64505 152.0 
192.67807 120.0 
192.686783 188.0 
192.739151 152.0 
192.778107 88.0 
192.812515 176.0 
192.859268 252.0 
192.894485 124.0 
192.926392 132.0 
192.960373 188.0 
193.015884 184.0 
193.056778 512.0 
193.121475 26700.0 
193.202087 124.0 
193.255234 204.0 
193.298386 124.0 
193.326843 260.0 
193.35318 100.0 
193.39946 80.0 
193.411179 196.0 
193.462112 212.0 
193.504745 416.0 
193.525574 320.0 
193.554855 152.0 
193.596924 132.0 
193.63559 248.0 
193.686234 232.0 
193.713837 244.0 
193.791733 180.0 
193.819916 248.0 
193.84314 124.0 
193.868805 196.0 
193.895798 64.0 
193.936844 104.0 
193.955231 72.0 
193.962173 268.0 
193.984634 204.0 
194.041748 124.0 
194.05957 152.0 
194.091995 560.0 
194.124542 3664.0 
194.170273 80.0 
194.200531 276.0 
194.243195 100.0 
194.274719 92.0 
194.283997 84.0 
194.339493 160.0 
194.379303 264.0 
194.41539 260.0 
194.457962 168.0 
194.530472 128.0 
194.559921 180.0 
194.612122 92.0 
194.640472 92.0 
194.678101 344.0 
194.742813 156.0 
194.767807 152.0 
194.786469 160.0 
194.846924 296.0 
194.873108 140.0 
194.901306 108.0 
194.975266 96.0 
195.014542 168.0 
195.057159 212.0 
195.076813 172.0 
195.135315 3852.0 
195.197571 136.0 
195.222168 184.0 
195.243164 104.0 
195.252457 148.0 
195.273712 240.0 
195.316422 132.0 
195.358536 56.0 
195.407288 240.0 
195.443085 56.0 
195.48793 308.0 
195.511459 316.0 
195.537918 304.0 
195.573395 92.0 
195.597031 204.0 
195.629074 72.0 
195.656479 76.0 
195.708862 164.0 
195.747818 184.0 
195.793198 144.0 
195.814056 256.0 
195.884689 96.0 
195.914261 128.0 
195.957336 180.0 
195.986343 156.0 
196.026489 140.0 
196.076691 1280.0 
196.113571 1948.0 
196.184875 176.0 
196.223953 156.0 
196.263123 168.0 
196.282883 188.0 
196.304459 128.0 
196.347549 108.0 
196.420395 236.0 
196.43074 160.0 
196.441437 204.0 
196.498108 104.0 
196.542892 140.0 
196.552185 196.0 
196.564285 96.0 
196.58493 268.0 
196.63205 200.0 
196.658585 268.0 
196.727081 148.0 
196.766983 108.0 
196.802841 104.0 
196.840576 196.0 
196.871735 160.0 
196.913361 104.0 
196.978699 132.0 
197.003922 108.0 
197.034027 288.0 
197.078674 1764.0 
197.129517 4136.0 
197.175095 108.0 
197.209625 228.0 
197.234634 324.0 
197.282608 72.0 
197.319733 204.0 
197.33931 104.0 
197.364471 104.0 
197.387512 132.0 
197.432861 232.0 
197.475647 260.0 
197.505707 184.0 
197.534134 144.0 
197.57132 176.0 
197.61496 372.0 
197.639069 140.0 
197.736618 168.0 
197.774734 136.0 
197.793503 164.0 
197.819855 324.0 
197.859528 140.0 
197.901962 144.0 
197.925812 164.0 
197.96051 204.0 
198.002518 56.0 
198.051376 288.0 
198.087402 3488.0 
198.125839 1744.0 
198.179001 128.0 
198.221024 328.0 
198.243576 264.0 
198.288208 160.0 
198.298416 152.0 
198.314911 272.0 
198.353378 116.0 
198.384079 244.0 
198.406021 116.0 
198.428406 172.0 
198.474472 204.0 
198.521973 224.0 
198.552872 200.0 
198.564987 52.0 
198.569763 124.0 
198.59082 236.0 
198.635971 84.0 
198.66803 196.0 
198.700134 76.0 
198.734177 68.0 
198.770691 164.0 
198.791199 108.0 
198.822479 152.0 
198.885117 176.0 
198.895538 120.0 
198.949219 84.0 
198.975555 80.0 
199.056824 796.0 
199.087753 4132.0 
199.140717 1052.0 
199.203033 88.0 
199.248642 136.0 
199.269165 140.0 
199.310181 224.0 
199.326233 80.0 
199.380707 136.0 
199.409943 100.0 
199.43045 364.0 
199.457504 152.0 
199.490158 344.0 
199.520065 152.0 
199.564835 152.0 
199.570526 100.0 
199.615219 104.0 
199.652115 88.0 
199.676407 216.0 
199.708908 132.0 
199.733429 200.0 
199.761368 92.0 
199.803818 204.0 
199.810699 156.0 
199.84552 208.0 
199.886246 204.0 
199.910431 248.0 
199.957397 280.0 
199.990921 164.0 
200.037552 212.0 
200.098999 2824.0 
200.141113 632.0 
200.183929 184.0 
200.192932 152.0 
200.256226 148.0 
200.290314 104.0 
200.323563 180.0 
200.352234 96.0 
200.411774 232.0 
200.44986 160.0 
200.473129 188.0 
200.500931 168.0 
200.536102 112.0 
200.569473 156.0 
200.635666 144.0 
200.67453 112.0 
200.681931 204.0 
200.712265 148.0 
200.759232 260.0 
200.780853 272.0 
200.810333 268.0 
200.831528 448.0 
200.877518 260.0 
200.898346 192.0 
200.93512 224.0 
200.959045 208.0 
201.00351 300.0 
201.065033 12156.0 
201.100983 10024.0 
201.160217 900.0 
201.199249 72.0 
201.221176 120.0 
201.255127 96.0 
201.282043 224.0 
201.328384 72.0 
201.3564 164.0 
201.380722 144.0 
201.412827 148.0 
201.456268 128.0 
201.491302 212.0 
201.561249 72.0 
201.596191 120.0 
201.630478 120.0 
201.669678 224.0 
201.705765 120.0 
201.755844 188.0 
201.791702 196.0 
201.797821 172.0 
201.842545 340.0 
201.875351 308.0 
201.916138 152.0 
201.936111 236.0 
201.955826 120.0 
201.968567 108.0 
201.997406 448.0 
202.01976 236.0 
202.08551 12580.0 
202.108276 8360.0 
202.15712 404.0 
202.193359 92.0 
202.22197 152.0 
202.247864 112.0 
202.26738 240.0 
202.32991 240.0 
202.354645 80.0 
202.38121 52.0 
202.425446 136.0 
202.437393 132.0 
202.471924 136.0 
202.528427 164.0 
202.565369 264.0 
202.588303 288.0 
202.630585 132.0 
202.669205 72.0 
202.695267 48.0 
202.714737 128.0 
202.736755 196.0 
202.776428 156.0 
202.805084 64.0 
202.839233 168.0 
202.873749 72.0 
202.905807 236.0 
202.934067 212.0 
202.975952 320.0 
202.999054 48.0 
203.016296 232.0 
203.081879 5360.0 
203.115982 7896.0 
203.140213 8240.0 
203.190079 172.0 
203.240051 96.0 
203.268387 112.0 
203.292282 100.0 
203.317703 140.0 
203.352661 196.0 
203.403336 204.0 
203.461029 60.0 
203.478928 172.0 
203.526138 120.0 
203.552887 184.0 
203.621887 148.0 
203.679413 168.0 
203.714539 224.0 
203.755783 148.0 
203.782257 240.0 
203.840668 112.0 
203.873505 212.0 
203.877533 160.0 
203.916916 168.0 
203.938721 204.0 
203.966232 128.0 
203.986237 132.0 
203.991333 80.0 
204.013855 112.0 
204.091797 2016.0 
204.137238 2848.0 
204.193481 156.0 
204.216568 212.0 
204.258057 268.0 
204.296204 152.0 
204.329773 108.0 
204.366043 168.0 
204.400848 196.0 
204.432373 104.0 
204.460938 160.0 
204.490631 116.0 
204.498932 80.0 
204.506393 184.0 
204.539215 44.0 
204.559921 300.0 
204.583633 172.0 
204.621231 244.0 
204.626511 96.0 
204.662079 112.0 
204.689133 136.0 
204.712891 248.0 
204.736038 92.0 
204.787415 236.0 
204.82193 140.0 
204.870529 128.0 
204.91098 140.0 
204.965912 224.0 
204.998886 356.0 
205.059357 472.0 
205.096939 2176.0 
205.157196 11708.0 
205.242416 228.0 
205.280243 176.0 
205.299896 412.0 
205.344696 52.0 
205.361832 120.0 
205.38266 144.0 
205.408325 88.0 
205.439713 120.0 
205.480728 312.0 
205.507324 40.0 
205.531586 100.0 
205.542587 152.0 
205.553711 184.0 
205.582382 72.0 
205.610764 72.0 
205.61998 68.0 
205.674286 180.0 
205.707703 152.0 
205.756241 204.0 
205.790009 208.0 
205.821365 332.0 
205.875092 168.0 
205.917465 176.0 
205.960678 128.0 
206.008881 96.0 
206.071411 488.0 
206.090179 444.0 
206.099396 408.0 
206.158646 2416.0 
206.211426 124.0 
206.235062 160.0 
206.287872 72.0 
206.319107 160.0 
206.344437 132.0 
206.370789 160.0 
206.39447 84.0 
206.428452 96.0 
206.480103 176.0 
206.511169 140.0 
206.544647 192.0 
206.572815 212.0 
206.59903 104.0 
206.634506 176.0 
206.659149 176.0 
206.669525 144.0 
206.694534 172.0 
206.71846 156.0 
206.764694 100.0 
206.8228 160.0 
206.859268 124.0 
206.908676 32.0 
206.934448 240.0 
206.96373 52.0 
207.002884 116.0 
207.039673 64.0 
207.07518 11640.0 
207.171631 2952.0 
207.22345 208.0 
207.230957 76.0 
207.24054 124.0 
207.26091 396.0 
207.333252 116.0 
207.365036 64.0 
207.376999 132.0 
207.418427 68.0 
207.438278 116.0 
207.479706 140.0 
207.524246 140.0 
207.584366 120.0 
207.635773 124.0 
207.670547 148.0 
207.691559 140.0 
207.726471 180.0 
207.772552 180.0 
207.810242 100.0 
207.838531 100.0 
207.855392 208.0 
207.893188 196.0 
207.936096 168.0 
207.966675 56.0 
207.99501 68.0 
208.027527 56.0 
208.077484 996.0 
208.108917 560.0 
208.175873 780.0 
208.212845 212.0 
208.268677 144.0 
208.312195 220.0 
208.385223 312.0 
208.406235 160.0 
208.431717 76.0 
208.46196 168.0 
208.493118 232.0 
208.566788 72.0 
208.61676 116.0 
208.650162 132.0 
208.7258 156.0 
208.807449 132.0 
208.831055 300.0 
208.849289 352.0 
208.905502 276.0 
208.950714 116.0 
209.032089 164.0 
209.048065 192.0 
209.083694 920.0 
209.118698 1688.0 
209.212784 248.0 
209.260284 136.0 
209.293442 132.0 
209.336639 192.0 
209.352814 180.0 
209.376892 140.0 
209.403671 192.0 
209.441406 88.0 
209.505844 232.0 
209.551987 236.0 
209.591354 216.0 
209.648987 224.0 
209.687744 160.0 
209.718155 28.0 
209.759674 208.0 
209.818466 276.0 
209.850037 200.0 
209.874985 156.0 
209.928619 88.0 
209.960342 340.0 
209.987503 172.0 
210.023804 116.0 
210.047089 168.0 
210.087753 1268.0 
210.124405 2288.0 
210.208694 204.0 
210.276764 104.0 
210.307724 140.0 
210.339539 204.0 
210.360672 188.0 
210.417526 184.0 
210.479065 104.0 
210.485886 108.0 
210.562042 348.0 
210.588364 108.0 
210.647568 140.0 
210.691879 84.0 
210.711716 164.0 
210.76413 120.0 
210.805771 156.0 
210.838898 232.0 
210.879471 172.0 
210.920349 156.0 
210.962296 92.0 
210.992111 116.0 
211.024597 332.0 
211.045242 100.0 
211.087006 3028.0 
211.143417 1896.0 
211.217484 176.0 
211.257828 268.0 
211.295853 156.0 
211.323364 284.0 
211.357697 164.0 
211.398972 144.0 
211.457932 232.0 
211.480438 296.0 
211.502991 236.0 
211.554443 116.0 
211.573746 284.0 
211.59697 256.0 
211.626678 176.0 
211.675156 168.0 
211.713364 108.0 
211.737213 104.0 
211.749008 164.0 
211.773056 228.0 
211.792175 124.0 
211.851349 132.0 
211.94574 172.0 
212.00383 72.0 
212.065018 864.0 
212.101028 5476.0 
212.140564 2560.0 
212.202087 156.0 
212.224609 112.0 
212.257965 144.0 
212.298203 132.0 
212.334808 64.0 
212.363754 176.0 
212.40799 140.0 
212.433273 184.0 
212.454239 140.0 
212.503937 220.0 
212.533188 156.0 
212.557266 164.0 
212.57843 468.0 
212.617783 136.0 
212.657898 168.0 
212.682785 236.0 
212.686493 212.0 
212.736252 80.0 
212.797897 112.0 
212.877289 152.0 
212.899551 232.0 
212.947113 224.0 
212.987122 184.0 
213.010483 132.0 
213.066696 1024.0 
213.102753 12276.0 
213.124908 7632.0 
213.217209 280.0 
213.260605 216.0 
213.344193 332.0 
213.373596 88.0 
213.394348 68.0 
213.43544 80.0 
213.455795 88.0 
213.489304 200.0 
213.514389 128.0 
213.533691 184.0 
213.567474 128.0 
213.598312 172.0 
213.640137 200.0 
213.673126 148.0 
213.708206 164.0 
213.75351 160.0 
213.787369 164.0 
213.834579 60.0 
213.863098 180.0 
213.894165 340.0 
213.923706 152.0 
213.930771 212.0 
213.942444 208.0 
214.004074 60.0 
214.120331 7428.0 
214.204163 144.0 
214.230011 68.0 
214.286728 120.0 
214.293518 60.0 
214.30545 232.0 
214.336227 132.0 
214.368851 148.0 
214.399017 68.0 
214.426544 152.0 
214.472946 192.0 
214.497375 144.0 
214.552414 336.0 
214.569397 88.0 
214.590637 112.0 
214.617477 140.0 
214.679291 112.0 
214.715576 144.0 
214.745346 76.0 
214.772736 204.0 
214.814697 248.0 
214.84996 160.0 
214.854553 264.0 
214.892029 60.0 
214.914093 176.0 
214.943054 232.0 
214.982468 352.0 
215.00737 280.0 
215.043503 5352.0 
215.080963 4352.0 
215.117477 29080.0 
215.140503 13628.0 
215.194778 104.0 
215.22757 196.0 
215.25621 136.0 
215.315186 136.0 
215.349197 180.0 
215.423172 124.0 
215.446625 356.0 
215.490402 324.0 
215.535782 148.0 
215.574646 144.0 
215.602341 204.0 
215.622726 200.0 
215.670914 196.0 
215.747116 532.0 
215.766663 60.0 
215.802795 100.0 
215.873703 220.0 
215.89801 236.0 
215.924408 116.0 
215.962006 156.0 
216.004364 184.0 
216.048355 800.0 
216.093582 1412.0 
216.120911 4784.0 
216.195862 212.0 
216.213882 76.0 
216.249069 108.0 
216.292023 136.0 
216.328308 148.0 
216.348114 152.0 
216.395187 368.0 
216.432129 152.0 
216.471603 132.0 
216.505707 328.0 
216.536942 132.0 
216.568527 80.0 
216.599838 84.0 
216.61937 88.0 
216.655426 368.0 
216.703354 168.0 
216.730972 112.0 
216.787811 152.0 
216.827087 196.0 
216.871246 260.0 
216.910416 252.0 
216.962524 172.0 
216.985397 328.0 
217.012497 180.0 
217.059647 8076.0 
217.09639 3524.0 
217.129318 3360.0 
217.203094 116.0 
217.228271 116.0 
217.25145 176.0 
217.295624 76.0 
217.325165 56.0 
217.35022 100.0 
217.400223 72.0 
217.43541 176.0 
217.470001 180.0 
217.518005 68.0 
217.525513 44.0 
217.545441 356.0 
217.57547 108.0 
217.60141 220.0 
217.643372 152.0 
217.673309 64.0 
217.697388 80.0 
217.740219 176.0 
217.800125 168.0 
217.819107 176.0 
217.844177 236.0 
217.881119 124.0 
217.914688 216.0 
217.945084 104.0 
217.974579 200.0 
217.996628 220.0 
218.063202 1748.0 
218.10228 1368.0 
218.138504 776.0 
218.184616 200.0 
218.219116 100.0 
218.257339 48.0 
218.289688 144.0 
218.322037 92.0 
218.342621 136.0 
218.37381 112.0 
218.387909 120.0 
218.395493 160.0 
218.420609 272.0 
218.450058 80.0 
218.478485 148.0 
218.501038 140.0 
218.529282 140.0 
218.540298 108.0 
218.55043 112.0 
218.573868 112.0 
218.610443 172.0 
218.637558 128.0 
218.667465 136.0 
218.705582 88.0 
218.725708 132.0 
218.761002 136.0 
218.793777 100.0 
218.824326 160.0 
218.898834 160.0 
218.958099 224.0 
219.016937 112.0 
219.07547 3516.0 
219.109344 3164.0 
219.17186 336.0 
219.206528 212.0 
219.237396 172.0 
219.293991 52.0 
219.309052 168.0 
219.332245 148.0 
219.391098 112.0 
219.42572 108.0 
219.451248 144.0 
219.497025 180.0 
219.556 136.0 
219.5914 140.0 
219.658066 140.0 
219.671982 100.0 
219.707275 156.0 
219.776215 160.0 
219.825897 76.0 
219.887344 196.0 
219.940628 112.0 
219.976929 360.0 
220.017227 92.0 
220.042419 272.0 
220.081421 844.0 
220.115021 780.0 
220.172348 248.0 
220.198349 112.0 
220.260254 124.0 
220.277313 104.0 
220.30574 64.0 
220.355667 120.0 
220.379608 80.0 
220.408356 148.0 
220.438324 92.0 
220.446869 136.0 
220.495682 156.0 
220.56546 208.0 
220.587997 140.0 
220.616547 256.0 
220.662827 104.0 
220.683212 172.0 
220.748596 116.0 
220.784683 124.0 
220.820679 176.0 
220.875015 132.0 
220.901367 120.0 
220.930496 276.0 
220.959305 60.0 
220.997757 292.0 
221.028549 192.0 
221.087662 688.0 
221.115707 612.0 
221.151123 548.0 
221.189941 140.0 
221.211243 204.0 
221.234085 156.0 
221.241516 124.0 
221.252197 144.0 
221.30809 172.0 
221.354034 152.0 
221.382401 172.0 
221.464813 116.0 
221.493576 84.0 
221.535492 96.0 
221.559921 60.0 
221.589828 264.0 
221.628265 84.0 
221.695374 68.0 
221.703888 176.0 
221.767975 168.0 
221.836075 136.0 
221.893829 80.0 
221.924667 104.0 
221.984055 96.0 
222.024307 120.0 
222.087296 484.0 
222.128082 1228.0 
222.171249 168.0 
222.239075 140.0 
222.267929 172.0 
222.292648 128.0 
222.345337 156.0 
222.380829 136.0 
222.413284 128.0 
222.436432 96.0 
222.54274 144.0 
222.570847 140.0 
222.604187 124.0 
222.635254 104.0 
222.670578 192.0 
222.696259 196.0 
222.74675 180.0 
222.768295 140.0 
222.790131 100.0 
222.797928 140.0 
222.831818 152.0 
222.866516 168.0 
222.89325 124.0 
222.984909 236.0 
223.022583 172.0 
223.038147 128.0 
223.084915 2412.0 
223.167664 4904.0 
223.220551 44.0 
223.23613 116.0 
223.272842 112.0 
223.302597 100.0 
223.325241 128.0 
223.36734 120.0 
223.427277 232.0 
223.468399 76.0 
223.487305 100.0 
223.510147 152.0 
223.545425 96.0 
223.580063 152.0 
223.629547 176.0 
223.659424 276.0 
223.686432 352.0 
223.709671 228.0 
223.734726 168.0 
223.766815 148.0 
223.807465 80.0 
223.816284 52.0 
223.843124 252.0 
223.889099 120.0 
223.954773 172.0 
223.978256 128.0 
223.998047 204.0 
224.09523 1244.0 
224.142242 2176.0 
224.168137 1056.0 
224.203568 148.0 
224.265564 276.0 
224.318161 96.0 
224.339554 164.0 
224.381042 176.0 
224.410385 220.0 
224.451645 64.0 
224.475052 116.0 
224.484085 128.0 
224.495026 208.0 
224.540543 180.0 
224.552307 88.0 
224.610367 136.0 
224.65123 184.0 
224.672836 244.0 
224.738327 156.0 
224.746765 108.0 
224.784164 224.0 
224.810745 148.0 
224.838943 120.0 
224.887436 144.0 
224.941422 168.0 
224.964676 100.0 
224.989197 188.0 
225.011307 148.0 
225.071045 676.0 
225.102081 4156.0 
225.14241 1016.0 
225.180786 520.0 
225.225113 168.0 
225.274292 120.0 
225.309326 124.0 
225.374283 124.0 
225.419312 56.0 
225.440216 120.0 
225.470276 128.0 
225.498474 120.0 
225.528778 108.0 
225.566574 88.0 
225.577713 72.0 
225.590286 136.0 
225.614258 116.0 
225.644165 176.0 
225.672043 316.0 
225.717148 44.0 
225.755814 100.0 
225.799515 244.0 
225.867355 292.0 
225.915634 112.0 
225.949326 108.0 
225.993423 148.0 
226.008041 104.0 
226.019653 68.0 
226.027512 224.0 
226.086166 1964.0 
226.113266 2072.0 
226.156311 868.0 
226.205719 144.0 
226.253998 204.0 
226.301727 176.0 
226.325897 160.0 
226.377502 220.0 
226.416153 168.0 
226.445633 140.0 
226.488541 84.0 
226.540024 136.0 
226.566925 124.0 
226.587479 264.0 
226.623932 76.0 
226.644974 168.0 
226.670731 56.0 
226.702362 240.0 
226.778656 248.0 
226.818832 132.0 
226.86908 152.0 
226.903732 288.0 
226.930038 148.0 
226.969177 132.0 
226.990829 184.0 
227.047028 240.0 
227.081085 4608.0 
227.117294 11676.0 
227.218323 112.0 
227.286163 76.0 
227.307037 176.0 
227.32988 36.0 
227.361649 220.0 
227.394379 204.0 
227.414001 236.0 
227.449631 156.0 
227.472763 104.0 
227.521133 216.0 
227.538116 160.0 
227.558121 280.0 
227.598251 120.0 
227.629578 172.0 
227.664612 88.0 
227.734772 76.0 
227.773987 144.0 
227.80127 252.0 
227.831146 260.0 
227.871231 184.0 
227.899567 156.0 
227.932419 148.0 
227.978546 144.0 
228.005951 204.0 
228.089752 9600.0 
228.124115 2844.0 
228.178177 156.0 
228.2491 120.0 
228.301224 96.0 
228.311157 44.0 
228.336914 152.0 
228.37529 200.0 
228.414093 112.0 
228.439835 164.0 
228.472137 132.0 
228.495743 148.0 
228.51918 204.0 
228.594345 88.0 
228.624557 260.0 
228.644806 172.0 
228.655899 120.0 
228.692352 396.0 
228.717392 184.0 
228.76825 344.0 
228.821014 216.0 
228.850113 180.0 
228.872482 48.0 
228.880173 72.0 
228.902084 48.0 
228.944458 64.0 
228.97049 76.0 
228.991455 208.0 
229.096237 36008.0 
229.132675 22352.0 
229.213745 144.0 
229.237854 112.0 
229.271423 80.0 
229.296921 92.0 
229.339066 288.0 
229.385895 92.0 
229.456131 220.0 
229.503342 112.0 
229.558594 144.0 
229.580612 216.0 
229.603378 68.0 
229.612473 72.0 
229.637085 336.0 
229.662857 228.0 
229.707703 136.0 
229.722122 176.0 
229.74556 144.0 
229.797379 356.0 
229.834839 168.0 
229.871826 108.0 
229.905167 92.0 
229.948212 80.0 
229.993988 216.0 
230.017517 128.0 
230.028336 140.0 
230.102417 9452.0 
230.138672 5820.0 
230.225357 40.0 
230.257111 116.0 
230.28392 140.0 
230.316574 128.0 
230.348495 76.0 
230.417191 348.0 
230.438766 108.0 
230.462875 132.0 
230.495972 84.0 
230.532074 136.0 
230.576477 136.0 
230.590027 80.0 
230.598892 156.0 
230.621628 132.0 
230.680771 116.0 
230.712051 216.0 
230.760162 128.0 
230.788849 148.0 
230.803146 100.0 
230.812851 96.0 
230.858368 92.0 
230.889099 104.0 
230.920334 144.0 
230.95636 264.0 
230.978973 84.0 
231.021301 124.0 
231.076523 1568.0 
231.11203 8496.0 
231.138321 11276.0 
231.217468 288.0 
231.264648 88.0 
231.297684 52.0 
231.304276 284.0 
231.341141 144.0 
231.349564 120.0 
231.36087 156.0 
231.397858 100.0 
231.439026 204.0 
231.472687 168.0 
231.49559 148.0 
231.52446 112.0 
231.569489 128.0 
231.606537 192.0 
231.656067 196.0 
231.679504 176.0 
231.716354 124.0 
231.750885 112.0 
231.785645 92.0 
231.814682 132.0 
231.861908 56.0 
231.914047 144.0 
231.924088 172.0 
231.95401 140.0 
231.988647 72.0 
232.009888 240.0 
232.078232 556.0 
232.135635 2360.0 
232.20108 72.0 
232.231216 88.0 
232.255035 188.0 
232.290222 48.0 
232.32663 184.0 
232.364136 88.0 
232.384262 244.0 
232.41185 44.0 
232.444351 80.0 
232.490479 196.0 
232.563171 160.0 
232.570602 80.0 
232.584045 280.0 
232.621414 144.0 
232.63002 144.0 
232.641464 140.0 
232.689087 92.0 
232.703064 76.0 
232.728409 216.0 
232.750305 196.0 
232.787231 80.0 
232.815323 252.0 
232.858337 168.0 
232.907959 184.0 
232.933578 188.0 
232.963867 44.0 
232.969711 140.0 
232.982666 224.0 
233.020981 216.0 
233.054581 1376.0 
233.089142 664.0 
233.152954 32004.0 
233.268417 184.0 
233.316681 64.0 
233.337784 236.0 
233.385132 164.0 
233.405289 168.0 
233.431213 120.0 
233.469986 84.0 
233.497849 284.0 
233.526398 272.0 
233.572433 176.0 
233.667282 300.0 
233.688477 208.0 
233.733704 204.0 
233.777527 296.0 
233.839691 304.0 
233.87352 328.0 
233.913712 176.0 
233.946823 176.0 
233.990738 108.0 
234.01767 120.0 
234.063721 172.0 
234.092728 432.0 
234.155609 5152.0 
234.245636 144.0 
234.273804 72.0 
234.298569 212.0 
234.30365 148.0 
234.360214 320.0 
234.411362 136.0 
234.448181 132.0 
234.460693 96.0 
234.468719 76.0 
234.521881 128.0 
234.570602 224.0 
234.628601 236.0 
234.662262 92.0 
234.726425 112.0 
234.762604 116.0 
234.830017 152.0 
234.854218 140.0 
234.878616 164.0 
234.883926 168.0 
234.92955 80.0 
234.971588 116.0 
234.983429 156.0 
235.008286 128.0 
235.069641 660.0 
235.15387 608.0 
235.185471 172.0 
235.217072 152.0 
235.250732 228.0 
235.278473 164.0 
235.350433 104.0 
235.373337 208.0 
235.426498 176.0 
235.452744 68.0 
235.476532 96.0 
235.50383 148.0 
235.514664 176.0 
235.521606 236.0 
235.533081 92.0 
235.573257 96.0 
235.651627 148.0 
235.695068 176.0 
235.760422 152.0 
235.792236 164.0 
235.829117 128.0 
235.863876 132.0 
235.901016 164.0 
235.936676 320.0 
235.987289 108.0 
236.046265 224.0 
236.096268 896.0 
236.143204 404.0 
236.199081 132.0 
236.253586 148.0 
236.305603 92.0 
236.357849 136.0 
236.462143 204.0 
236.516769 148.0 
236.556458 116.0 
236.615845 152.0 
236.644821 212.0 
236.695206 200.0 
236.72496 140.0 
236.748001 172.0 
236.826767 264.0 
236.853592 208.0 
236.868774 92.0 
236.883682 272.0 
236.989212 104.0 
237.025803 212.0 
237.101562 3612.0 
237.19516 340.0 
237.225922 96.0 
237.28511 124.0 
237.357544 188.0 
237.424881 156.0 
237.478897 132.0 
237.500198 72.0 
237.520065 144.0 
237.551346 148.0 
237.603317 228.0 
237.625061 192.0 
237.655075 224.0 
237.686279 40.0 
237.695694 84.0 
237.709976 196.0 
237.75502 180.0 
237.787125 156.0 
237.828415 168.0 
237.840866 128.0 
237.846939 264.0 
237.899292 164.0 
237.942047 164.0 
237.948273 184.0 
237.988327 132.0 
238.112381 2320.0 
238.191971 152.0 
238.226547 128.0 
238.261383 168.0 
238.293427 96.0 
238.355759 168.0 
238.398956 188.0 
238.433807 144.0 
238.458405 280.0 
238.500061 192.0 
238.521194 224.0 
238.689575 56.0 
238.719635 320.0 
238.784241 272.0 
238.805771 188.0 
238.854019 140.0 
238.917068 132.0 
238.949875 128.0 
238.974243 152.0 
239.039703 260.0 
239.078934 2384.0 
239.11615 9704.0 
239.220459 268.0 
239.269669 48.0 
239.320404 128.0 
239.390533 216.0 
239.451859 232.0 
239.488678 180.0 
239.510025 60.0 
239.552643 260.0 
239.577499 148.0 
239.641113 228.0 
239.689529 128.0 
239.740387 148.0 
239.779678 232.0 
239.816147 136.0 
239.830399 156.0 
239.87468 180.0 
239.906631 160.0 
239.930573 148.0 
239.988693 244.0 
240.040756 152.0 
240.091003 2360.0 
240.124817 3080.0 
240.173401 320.0 
240.210861 164.0 
240.235474 184.0 
240.279968 144.0 
240.318665 208.0 
240.340485 160.0 
240.370941 232.0 
240.430634 308.0 
240.463104 136.0 
240.481308 120.0 
240.506622 160.0 
240.53157 252.0 
240.552734 64.0 
240.581238 324.0 
240.614456 196.0 
240.668274 144.0 
240.702957 296.0 
240.744873 120.0 
240.789886 248.0 
240.797424 108.0 
240.809921 192.0 
240.824081 64.0 
240.833496 192.0 
240.858398 164.0 
240.892288 312.0 
240.923203 152.0 
240.946396 204.0 
240.978439 292.0 
240.985001 84.0 
241.049866 236.0 
241.097046 87732.0 
241.13147 3496.0 
241.207947 232.0 
241.236923 296.0 
241.26503 184.0 
241.298492 124.0 
241.32756 184.0 
241.368576 108.0 
241.412811 196.0 
241.464355 84.0 
241.473969 52.0 
241.485062 172.0 
241.521667 76.0 
241.570831 172.0 
241.59845 284.0 
241.635773 300.0 
241.678772 204.0 
241.736694 100.0 
241.791367 24.0 
241.848114 56.0 
241.906494 116.0 
241.942398 148.0 
241.970825 176.0 
242.024887 204.0 
242.062683 240.0 
242.100052 14880.0 
242.151596 4788.0 
242.190018 284.0 
242.218781 176.0 
242.225952 160.0 
242.254654 132.0 
242.284378 104.0 
242.307831 168.0 
242.346252 216.0 
242.41597 124.0 
242.448273 120.0 
242.472336 160.0 
242.496124 112.0 
242.544922 196.0 
242.592606 248.0 
242.629532 184.0 
242.661789 248.0 
242.72728 68.0 
242.736343 76.0 
242.749557 188.0 
242.81134 132.0 
242.824982 172.0 
242.845947 192.0 
242.882584 80.0 
242.938095 336.0 
242.985031 252.0 
243.029297 200.0 
243.07576 1892.0 
243.11264 24404.0 
243.215073 84.0 
243.239029 228.0 
243.24852 108.0 
243.25618 148.0 
243.282959 140.0 
243.335587 68.0 
243.359833 276.0 
243.398773 508.0 
243.458969 224.0 
243.467865 260.0 
243.477112 136.0 
243.522354 120.0 
243.570297 104.0 
243.590317 224.0 
243.652939 152.0 
243.684967 64.0 
243.723923 148.0 
243.77153 212.0 
243.797684 116.0 
243.832428 144.0 
243.861526 124.0 
243.901779 264.0 
243.948792 208.0 
244.024384 288.0 
244.08316 2280.0 
244.115402 5780.0 
244.168732 652.0 
244.202438 212.0 
244.230301 132.0 
244.241348 172.0 
244.266632 156.0 
244.325409 172.0 
244.364914 100.0 
244.407883 84.0 
244.465714 108.0 
244.4767 108.0 
244.48645 204.0 
244.539185 92.0 
244.610596 68.0 
244.618942 64.0 
244.650238 112.0 
244.692612 76.0 
244.736816 116.0 
244.747543 56.0 
244.788071 300.0 
244.792389 300.0 
244.878937 228.0 
244.901474 164.0 
244.940002 132.0 
244.997971 132.0 
245.01091 156.0 
245.01712 108.0 
245.0905 12536.0 
245.126633 3128.0 
245.261307 100.0 
245.266891 76.0 
245.301239 184.0 
245.345596 132.0 
245.354324 100.0 
245.366806 176.0 
245.424515 128.0 
245.473816 124.0 
245.498764 116.0 
245.525436 224.0 
245.595184 92.0 
245.632874 68.0 
245.654709 68.0 
245.682526 144.0 
245.706268 84.0 
245.712234 92.0 
245.729202 32.0 
245.76001 64.0 
245.799774 224.0 
245.8311 136.0 
245.88562 268.0 
245.930923 116.0 
245.943222 76.0 
245.992554 124.0 
246.031891 172.0 
246.09465 1988.0 
246.130478 844.0 
246.22493 136.0 
246.266785 96.0 
246.332825 216.0 
246.35463 112.0 
246.419159 140.0 
246.445572 64.0 
246.499283 72.0 
246.543076 140.0 
246.549332 140.0 
246.563354 140.0 
246.57663 140.0 
246.587997 144.0 
246.596619 124.0 
246.675873 108.0 
246.711441 220.0 
246.750381 216.0 
246.777481 128.0 
246.850967 56.0 
246.919769 184.0 
246.955231 200.0 
246.983871 420.0 
247.017899 128.0 
247.028793 140.0 
247.106323 2816.0 
247.196106 188.0 
247.219849 148.0 
247.260788 208.0 
247.288956 68.0 
247.317123 52.0 
247.345291 252.0 
247.403534 152.0 
247.414993 128.0 
247.423019 156.0 
247.462067 108.0 
247.508041 464.0 
247.542542 120.0 
247.574356 252.0 
247.605179 100.0 
247.629639 104.0 
247.660629 108.0 
247.702179 120.0 
247.742279 116.0 
247.747284 120.0 
247.807434 92.0 
247.829742 140.0 
247.95314 256.0 
247.988754 92.0 
248.033173 268.0 
248.073868 124.0 
248.108643 520.0 
248.140808 548.0 
248.207733 216.0 
248.250092 148.0 
248.278519 112.0 
248.313812 172.0 
248.347107 196.0 
248.399338 240.0 
248.406189 116.0 
248.417633 272.0 
248.440186 128.0 
248.469254 160.0 
248.523682 136.0 
248.564926 196.0 
248.606247 168.0 
248.625336 140.0 
248.639343 112.0 
248.649338 120.0 
248.699219 60.0 
248.7444 120.0 
248.769394 152.0 
248.821854 220.0 
248.845749 72.0 
248.881516 128.0 
248.947464 72.0 
249.022827 36.0 
249.103088 680.0 
249.148163 1376.0 
249.191574 204.0 
249.212189 116.0 
249.229935 168.0 
249.234009 164.0 
249.28598 232.0 
249.297592 140.0 
249.306641 132.0 
249.349594 180.0 
249.390457 36.0 
249.439606 100.0 
249.494797 104.0 
249.588516 148.0 
249.69725 180.0 
249.743561 120.0 
249.764633 176.0 
249.80867 112.0 
249.848557 248.0 
249.879364 128.0 
249.90625 152.0 
249.935165 184.0 
249.979675 92.0 
250.048996 148.0 
250.115036 852.0 
250.151062 912.0 
250.209396 204.0 
250.241516 248.0 
250.326828 140.0 
250.337814 140.0 
250.352402 112.0 
250.367081 156.0 
250.511047 224.0 
250.590668 188.0 
250.661133 128.0 
250.696579 112.0 
250.739807 112.0 
250.762772 104.0 
250.787415 88.0 
250.858078 152.0 
250.919937 336.0 
250.968521 60.0 
251.002365 84.0 
251.039474 240.0 
251.076935 628.0 
251.116043 2676.0 
251.160599 3008.0 
251.212067 152.0 
251.251541 64.0 
251.285217 160.0 
251.310577 140.0 
251.322586 100.0 
251.338928 192.0 
251.390366 64.0 
251.41983 96.0 
251.49971 76.0 
251.523346 140.0 
251.573273 180.0 
251.597382 220.0 
251.635437 144.0 
251.654541 296.0 
251.682083 244.0 
251.739426 192.0 
251.800674 116.0 
251.827057 76.0 
251.858521 72.0 
251.877197 156.0 
251.924301 124.0 
252.000748 108.0 
252.085327 436.0 
252.130157 2040.0 
252.169724 1936.0 
252.232025 316.0 
252.274765 108.0 
252.301208 44.0 
252.339462 104.0 
252.39415 100.0 
252.435181 60.0 
252.460358 144.0 
252.483459 124.0 
252.521408 172.0 
252.549881 60.0 
252.60997 196.0 
252.642685 200.0 
252.69519 180.0 
252.782059 136.0 
252.82962 48.0 
252.867447 108.0 
252.929581 212.0 
252.98555 176.0 
253.008453 144.0 
253.060654 172.0 
253.096893 4720.0 
253.131393 2572.0 
253.174057 484.0 
253.225922 68.0 
253.270279 108.0 
253.290573 300.0 
253.332138 132.0 
253.37294 72.0 
253.402786 104.0 
253.43631 96.0 
253.461655 112.0 
253.512985 52.0 
253.545731 100.0 
253.615845 92.0 
253.65181 132.0 
253.694595 244.0 
253.754181 196.0 
253.799408 124.0 
253.883606 260.0 
253.911301 172.0 
253.930847 180.0 
253.945465 144.0 
253.985992 104.0 
254.024918 188.0 
254.110565 2064.0 
254.187653 1172.0 
254.254105 204.0 
254.298386 252.0 
254.328445 132.0 
254.380539 340.0 
254.48465 156.0 
254.510162 124.0 
254.533203 224.0 
254.586517 216.0 
254.639084 136.0 
254.684586 68.0 
254.711334 144.0 
254.720825 68.0 
254.730179 136.0 
254.755554 172.0 
254.784012 244.0 
254.838028 144.0 
254.880066 52.0 
254.894638 116.0 
254.909317 212.0 
254.933548 72.0 
254.970551 200.0 
254.979492 124.0 
254.993332 168.0 
255.022247 264.0 
255.073395 968.0 
255.112625 64596.0 
255.19722 364.0 
255.23111 132.0 
255.263229 152.0 
255.30127 144.0 
255.331543 180.0 
255.354691 148.0 
255.391708 112.0 
255.443542 172.0 
255.465637 176.0 
255.501831 152.0 
255.509766 88.0 
255.531891 108.0 
255.542404 156.0 
255.575836 64.0 
255.620361 164.0 
255.645645 208.0 
255.657486 160.0 
255.670425 76.0 
255.680832 120.0 
255.74765 160.0 
255.794113 100.0 
255.817444 220.0 
255.854919 156.0 
255.88414 148.0 
255.906219 204.0 
255.924332 140.0 
255.971054 336.0 
255.982285 108.0 
256.042938 368.0 
256.11615 11932.0 
256.168182 516.0 
256.218323 156.0 
256.275055 76.0 
256.310913 60.0 
256.323029 52.0 
256.328461 184.0 
256.362976 28.0 
256.415131 172.0 
256.470367 40.0 
256.506744 112.0 
256.521118 52.0 
256.529388 76.0 
256.553223 184.0 
256.584259 232.0 
256.616547 44.0 
256.652008 60.0 
256.679077 152.0 
256.701416 132.0 
256.743347 328.0 
256.812347 184.0 
256.819977 176.0 
256.845825 124.0 
256.897034 96.0 
256.948669 164.0 
257.019867 128.0 
257.12793 44628.0 
257.232849 60.0 
257.256012 240.0 
257.286255 292.0 
257.346313 76.0 
257.412506 136.0 
257.457855 140.0 
257.485291 144.0 
257.509338 164.0 
257.555908 76.0 
257.602753 96.0 
257.640198 180.0 
257.668365 40.0 
257.7052 228.0 
257.745331 160.0 
257.794495 136.0 
257.835724 180.0 
257.87027 56.0 
257.951965 192.0 
257.986694 280.0 
258.024292 196.0 
258.045776 472.0 
258.100861 2520.0 
258.131104 6392.0 
258.222565 76.0 
258.267609 208.0 
258.296875 252.0 
258.32663 72.0 
258.356018 192.0 
258.392914 156.0 
258.433014 260.0 
258.468353 132.0 
258.532288 180.0 
258.59845 84.0 
258.658081 264.0 
258.703339 224.0 
258.713257 108.0 
258.752625 144.0 
258.785889 80.0 
258.833649 252.0 
258.856171 124.0 
258.888733 152.0 
258.920837 112.0 
258.960571 124.0 
258.995483 188.0 
259.037811 152.0 
259.106964 4448.0 
259.138458 3420.0 
259.233917 152.0 
259.266632 132.0 
259.29361 120.0 
259.329468 172.0 
259.370148 228.0 
259.422577 52.0 
259.473877 160.0 
259.506836 156.0 
259.555756 52.0 
259.626831 136.0 
259.686981 64.0 
259.711121 192.0 
259.753479 76.0 
259.778259 172.0 
259.801025 160.0 
259.822998 332.0 
259.856964 116.0 
259.881287 80.0 
259.907257 80.0 
259.916199 152.0 
259.949707 152.0 
259.99054 156.0 
260.045502 340.0 
260.110443 1248.0 
260.162415 6432.0 
260.215881 72.0 
260.245087 80.0 
260.277374 116.0 
260.302948 168.0 
260.357544 248.0 
260.386749 84.0 
260.397125 128.0 
260.427643 204.0 
260.462433 116.0 
260.526459 180.0 
260.556366 148.0 
260.588013 44.0 
260.641479 40.0 
260.667175 72.0 
260.703247 160.0 
260.742737 140.0 
260.800018 228.0 
260.827087 180.0 
260.831604 204.0 
260.848999 160.0 
260.857819 112.0 
260.890503 140.0 
260.922607 120.0 
260.985901 236.0 
261.023987 124.0 
261.051239 128.0 
261.120422 840.0 
261.164886 1416.0 
261.259583 104.0 
261.280029 176.0 
261.303833 228.0 
261.360748 276.0 
261.382324 180.0 
261.43158 80.0 
261.461151 136.0 
261.505402 132.0 
261.551636 112.0 
261.582123 68.0 
261.66629 212.0 
261.714752 304.0 
261.774933 64.0 
261.831055 132.0 
261.880737 188.0 
261.910492 264.0 
261.964905 152.0 
262.045807 168.0 
262.067535 188.0 
262.116821 404.0 
262.158173 1844.0 
262.240936 68.0 
262.266724 192.0 
262.305389 124.0 
262.347443 88.0 
262.380463 124.0 
262.426819 108.0 
262.456726 268.0 
262.508514 44.0 
262.534332 144.0 
262.575562 132.0 
262.606323 128.0 
262.664062 108.0 
262.695587 136.0 
262.720001 176.0 
262.757507 128.0 
262.84079 196.0 
262.87207 40.0 
262.926849 48.0 
262.997955 40.0 
263.031464 96.0 
263.081909 508.0 
263.11203 860.0 
263.160248 608.0 
263.228271 92.0 
263.265381 144.0 
263.320404 168.0 
263.351562 120.0 
263.375946 136.0 
263.38504 104.0 
263.43457 176.0 
263.476135 164.0 
263.541473 144.0 
263.595673 116.0 
263.644165 160.0 
263.693359 160.0 
263.741852 132.0 
263.800629 132.0 
263.812653 144.0 
263.862366 184.0 
263.895386 96.0 
263.954163 148.0 
263.990784 44.0 
264.028534 216.0 
264.089142 628.0 
264.122894 1008.0 
264.174896 1824.0 
264.304565 60.0 
264.332092 128.0 
264.37793 120.0 
264.410034 88.0 
264.44696 104.0 
264.475677 120.0 
264.534302 124.0 
264.59198 140.0 
264.645355 172.0 
264.708618 256.0 
264.750183 140.0 
264.783325 140.0 
264.823822 92.0 
264.845245 152.0 
264.885559 80.0 
264.932251 260.0 
264.990265 140.0 
265.044403 160.0 
265.095306 5348.0 
265.131134 1696.0 
265.177826 940.0 
265.222778 136.0 
265.234619 156.0 
265.288177 116.0 
265.309998 120.0 
265.335449 116.0 
265.365997 156.0 
265.409485 192.0 
265.483124 212.0 
265.527893 156.0 
265.592834 124.0 
265.668121 116.0 
265.716614 140.0 
265.747681 140.0 
265.795135 60.0 
265.82251 72.0 
265.862762 100.0 
265.885468 220.0 
265.956055 104.0 
266.002106 192.0 
266.103333 1596.0 
266.141083 1480.0 
266.198578 184.0 
266.239899 68.0 
266.270477 156.0 
266.319824 164.0 
266.349945 104.0 
266.399048 248.0 
266.46347 120.0 
266.509521 148.0 
266.578552 128.0 
266.61792 76.0 
266.668732 116.0 
266.705933 72.0 
266.736786 60.0 
266.782501 104.0 
266.804169 124.0 
266.841766 124.0 
266.903625 208.0 
266.985962 128.0 
267.009308 128.0 
267.067932 388.0 
267.111969 6540.0 
267.147522 3644.0 
267.210175 108.0 
267.274445 300.0 
267.30661 184.0 
267.321106 88.0 
267.334259 236.0 
267.365448 152.0 
267.388428 176.0 
267.427643 124.0 
267.465302 108.0 
267.500458 92.0 
267.533325 112.0 
267.591675 124.0 
267.64035 132.0 
267.683563 252.0 
267.713104 80.0 
267.748718 240.0 
267.772797 108.0 
267.810791 252.0 
267.857391 88.0 
267.887787 76.0 
267.930634 112.0 
267.974701 204.0 
268.00177 140.0 
268.080872 976.0 
268.122498 2892.0 
268.147217 1344.0 
268.196167 216.0 
268.229401 148.0 
268.270264 212.0 
268.296356 104.0 
268.32019 128.0 
268.369812 60.0 
268.395966 72.0 
268.436554 172.0 
268.467621 76.0 
268.492676 176.0 
268.517212 120.0 
268.547424 172.0 
268.575256 68.0 
268.593567 112.0 
268.63446 200.0 
268.668121 160.0 
268.697113 236.0 
268.722412 204.0 
268.788849 124.0 
268.847778 136.0 
268.876129 332.0 
268.903656 92.0 
268.963226 152.0 
269.028961 340.0 
269.041992 100.0 
269.047394 200.0 
269.091431 2156.0 
269.127625 5184.0 
269.162445 2032.0 
269.223907 164.0 
269.268768 148.0 
269.322388 124.0 
269.374451 56.0 
269.405426 76.0 
269.414032 144.0 
269.443573 248.0 
269.466919 108.0 
269.473969 112.0 
269.520844 48.0 
269.569305 120.0 
269.595459 124.0 
269.634674 56.0 
269.664093 116.0 
269.718292 280.0 
269.771973 68.0 
269.801971 112.0 
269.867188 180.0 
269.908539 104.0 
269.967896 100.0 
269.989777 148.0 
270.097992 712.0 
270.133148 1708.0 
270.170349 908.0 
270.263336 152.0 
270.318176 124.0 
270.332458 88.0 
270.362183 84.0 
270.393463 140.0 
270.445831 112.0 
270.472015 168.0 
270.537476 80.0 
270.570953 140.0 
270.60144 192.0 
270.637787 256.0 
270.651642 92.0 
270.659058 148.0 
270.725677 168.0 
270.751892 136.0 
270.779785 52.0 
270.835876 224.0 
270.933868 96.0 
270.961731 148.0 
271.002655 248.0 
271.061798 176.0 
271.106964 8128.0 
271.143127 2536.0 
271.178131 552.0 
271.25177 84.0 
271.281128 112.0 
271.335785 172.0 
271.366364 244.0 
271.398102 88.0 
271.430695 176.0 
271.486572 128.0 
271.582825 172.0 
271.648407 76.0 
271.689789 144.0 
271.699951 124.0 
271.728455 164.0 
271.751404 104.0 
271.792938 88.0 
271.827118 172.0 
271.872833 204.0 
271.912567 96.0 
271.950287 168.0 
271.985626 68.0 
272.107697 1224.0 
272.146271 988.0 
272.198212 952.0 
272.248993 196.0 
272.285187 160.0 
272.311462 132.0 
272.352386 168.0 
272.389404 352.0 
272.416595 60.0 
272.486908 108.0 
272.527893 128.0 
272.532776 88.0 
272.604767 132.0 
272.68689 204.0 
272.755066 188.0 
272.781342 112.0 
272.825653 92.0 
272.847565 224.0 
272.871002 208.0 
272.918457 144.0 
272.965393 196.0 
273.023621 88.0 
273.042023 288.0 
273.12149 3552.0 
273.204498 364.0 
273.248352 160.0 
273.274658 176.0 
273.30368 88.0 
273.343781 140.0 
273.386536 280.0 
273.418182 52.0 
273.438721 220.0 
273.526398 100.0 
273.554413 100.0 
273.588135 148.0 
273.629181 68.0 
273.680908 132.0 
273.717377 120.0 
273.768433 128.0 
273.798065 56.0 
273.832489 248.0 
273.88446 104.0 
273.953979 60.0 
274.05722 96.0 
274.127258 724.0 
274.186829 124.0 
274.250641 128.0 
274.289001 112.0 
274.317017 128.0 
274.326447 156.0 
274.341766 120.0 
274.349945 156.0 
274.37439 160.0 
274.40802 272.0 
274.420135 72.0 
274.432617 216.0 
274.460175 164.0 
274.501526 96.0 
274.541718 100.0 
274.636505 188.0 
274.671509 156.0 
274.700043 124.0 
274.778625 212.0 
274.833191 72.0 
274.88269 60.0 
274.941833 272.0 
274.980469 88.0 
275.036316 352.0 
275.137207 9224.0 
275.199554 184.0 
275.270691 104.0 
275.314941 124.0 
275.362183 132.0 
275.424744 88.0 
275.463409 36.0 
275.500122 228.0 
275.538605 136.0 
275.585205 100.0 
275.640198 192.0 
275.664215 288.0 
275.745697 112.0 
275.79422 132.0 
275.845795 80.0 
275.90329 88.0 
275.950958 204.0 
275.995422 112.0 
276.016785 180.0 
276.045471 68.0 
276.137085 2100.0 
276.240631 192.0 
276.277863 124.0 
276.32663 96.0 
276.371857 120.0 
276.403992 32.0 
276.463806 164.0 
276.477478 96.0 
276.489319 124.0 
276.499969 116.0 
276.55777 76.0 
276.586212 120.0 
276.599548 164.0 
276.60495 328.0 
276.639038 164.0 
276.711975 112.0 
276.740601 164.0 
276.778564 112.0 
276.819305 148.0 
276.84671 176.0 
276.862244 144.0 
276.931 176.0 
276.957581 204.0 
276.967834 76.0 
276.99649 96.0 
277.035461 156.0 
277.095551 604.0 
277.131805 1432.0 
277.243866 136.0 
277.279083 96.0 
277.292694 60.0 
277.301453 88.0 
277.331146 148.0 
277.369843 60.0 
277.399231 220.0 
277.425659 176.0 
277.483765 140.0 
277.5047 164.0 
277.553223 220.0 
277.59198 128.0 
277.650208 176.0 
277.730408 140.0 
277.768097 96.0 
277.840118 208.0 
277.914978 188.0 
277.945557 136.0 
278.006653 136.0 
278.142212 1292.0 
278.187653 592.0 
278.227509 132.0 
278.282166 116.0 
278.318665 100.0 
278.387665 72.0 
278.420288 140.0 
278.491364 160.0 
278.524445 88.0 
278.573517 132.0 
278.579132 96.0 
278.645844 120.0 
278.694031 48.0 
278.743866 184.0 
278.801544 112.0 
278.860229 384.0 
278.933075 184.0 
278.969879 168.0 
279.003387 196.0 
279.111298 1812.0 
279.146759 3308.0 
279.266113 88.0 
279.299072 128.0 
279.382111 156.0 
279.435486 80.0 
279.477722 52.0 
279.51535 92.0 
279.542877 116.0 
279.581726 104.0 
279.631805 124.0 
279.683746 248.0 
279.756317 144.0 
279.799255 40.0 
279.846222 132.0 
279.893188 132.0 
279.937042 152.0 
279.971405 68.0 
279.993622 84.0 
280.064667 60.0 
280.117493 1208.0 
280.165222 5076.0 
280.297516 112.0 
280.365326 156.0 
280.402557 80.0 
280.458008 156.0 
280.506622 148.0 
280.578827 96.0 
280.605621 196.0 
280.641205 120.0 
280.674561 144.0 
280.722321 112.0 
280.768158 116.0 
280.827972 116.0 
280.874512 228.0 
280.881714 100.0 
280.906952 228.0 
280.977325 124.0 
281.036896 220.0 
281.090729 4492.0 
281.127563 2440.0 
281.166412 3888.0 
281.226135 120.0 
281.253082 304.0 
281.314972 136.0 
281.337799 188.0 
281.349182 88.0 
281.362915 232.0 
281.395264 136.0 
281.4245 264.0 
281.4487 120.0 
281.486267 188.0 
281.525482 112.0 
281.562225 84.0 
281.588959 104.0 
281.634094 164.0 
281.663483 196.0 
281.736511 140.0 
281.771057 184.0 
281.793457 216.0 
281.828156 160.0 
281.888428 112.0 
281.921387 128.0 
281.970367 176.0 
282.010498 260.0 
282.086395 4560.0 
282.13382 1380.0 
282.182495 8588.0 
282.251892 276.0 
282.281281 296.0 
282.310852 144.0 
282.333923 152.0 
282.378815 172.0 
282.430542 100.0 
282.436829 132.0 
282.473816 236.0 
282.497131 68.0 
282.527405 300.0 
282.561188 124.0 
282.587524 108.0 
282.638306 124.0 
282.667633 92.0 
282.719788 148.0 
282.744629 108.0 
282.783569 152.0 
282.839172 44.0 
282.873962 140.0 
282.930298 248.0 
282.969147 156.0 
282.975525 180.0 
282.993134 104.0 
283.107361 73352.0 
283.184021 2704.0 
283.257477 204.0 
283.300568 156.0 
283.361633 52.0 
283.371246 92.0 
283.40033 192.0 
283.44046 332.0 
283.477631 104.0 
283.491882 148.0 
283.504578 280.0 
283.531525 168.0 
283.559601 136.0 
283.587769 120.0 
283.641907 196.0 
283.661896 124.0 
283.709259 240.0 
283.736328 256.0 
283.798798 156.0 
283.832825 144.0 
283.86441 280.0 
283.898041 188.0 
283.955902 160.0 
284.015289 140.0 
284.022339 284.0 
284.046936 396.0 
284.109589 13692.0 
284.148804 1424.0 
284.231506 92.0 
284.243896 212.0 
284.316742 224.0 
284.364563 84.0 
284.414825 172.0 
284.423828 92.0 
284.432281 156.0 
284.476868 96.0 
284.505554 76.0 
284.555298 204.0 
284.584076 176.0 
284.625732 84.0 
284.658417 184.0 
284.667786 160.0 
284.725159 224.0 
284.74942 336.0 
284.832886 220.0 
284.865448 136.0 
284.898499 48.0 
284.921509 268.0 
284.948883 60.0 
284.978241 288.0 
285.054901 204.0 
285.120697 10496.0 
285.157318 5676.0 
285.264038 136.0 
285.307831 144.0 
285.324615 224.0 
285.355316 120.0 
285.370819 216.0 
285.42981 96.0 
285.459229 48.0 
285.467865 80.0 
285.495728 84.0 
285.53067 236.0 
285.569946 160.0 
285.603973 280.0 
285.661591 224.0 
285.693604 72.0 
285.720184 156.0 
285.761169 248.0 
285.803711 304.0 
285.838867 260.0 
285.899719 52.0 
285.949219 152.0 
285.995178 216.0 
286.048798 192.0 
286.127136 2616.0 
286.158051 2200.0 
286.218811 84.0 
286.246033 56.0 
286.280762 80.0 
286.293579 260.0 
286.302368 300.0 
286.325989 116.0 
286.357941 92.0 
286.378784 148.0 
286.406464 148.0 
286.435608 108.0 
286.448517 100.0 
286.509491 116.0 
286.54361 296.0 
286.596619 156.0 
286.680176 116.0 
286.720917 172.0 
286.773071 152.0 
286.804871 120.0 
286.836853 136.0 
286.878845 52.0 
286.911011 152.0 
286.969177 48.0 
287.016113 144.0 
287.068054 188.0 
287.14325 1376.0 
287.174164 8824.0 
287.270752 140.0 
287.293457 168.0 
287.333344 180.0 
287.359375 136.0 
287.404266 212.0 
287.437622 96.0 
287.487793 44.0 
287.547424 276.0 
287.603607 188.0 
287.634705 92.0 
287.680206 204.0 
287.720703 248.0 
287.750153 104.0 
287.794495 208.0 
287.848785 172.0 
287.879181 88.0 
287.911102 104.0 
287.971436 272.0 
288.021057 140.0 
288.105499 540.0 
288.1315 604.0 
288.175507 1968.0 
288.303955 24.0 
288.33017 116.0 
288.354492 212.0 
288.408661 124.0 
288.440277 144.0 
288.463928 128.0 
288.495453 148.0 
288.53244 168.0 
288.5755 144.0 
288.626221 48.0 
288.656647 116.0 
288.707275 120.0 
288.758118 112.0 
288.823517 260.0 
288.876495 168.0 
288.940765 48.0 
288.964447 88.0 
289.033295 192.0 
289.057922 160.0 
289.126709 1540.0 
289.182465 352.0 
289.269043 88.0 
289.292755 184.0 
289.316437 44.0 
289.39093 80.0 
289.420563 128.0 
289.453918 148.0 
289.486938 240.0 
289.544922 168.0 
289.580566 188.0 
289.60791 116.0 
289.666931 168.0 
289.730743 108.0 
289.783813 160.0 
289.812775 88.0 
289.848053 128.0 
289.934937 172.0 
289.972504 124.0 
290.044128 104.0 
290.146576 1436.0 
290.189117 204.0 
290.215363 140.0 
290.244812 128.0 
290.31723 100.0 
290.346161 72.0 
290.357666 100.0 
290.38385 100.0 
290.480011 172.0 
290.512756 72.0 
290.550232 172.0 
290.594177 72.0 
290.62262 84.0 
290.685791 120.0 
290.736694 112.0 
290.780823 136.0 
290.841187 160.0 
290.874969 108.0 
290.943268 84.0 
291.021851 132.0 
291.061584 232.0 
291.126892 840.0 
291.149384 1204.0 
291.221039 284.0 
291.268219 120.0 
291.296936 48.0 
291.32785 204.0 
291.370941 148.0 
291.382996 120.0 
291.421753 80.0 
291.456848 72.0 
291.490601 84.0 
291.523987 92.0 
291.576477 220.0 
291.609528 128.0 
291.65033 132.0 
291.69754 148.0 
291.775452 164.0 
291.820312 184.0 
291.844116 132.0 
291.906708 184.0 
291.949524 88.0 
291.975555 164.0 
292.017548 40.0 
292.041351 172.0 
292.119141 984.0 
292.158203 1156.0 
292.21701 132.0 
292.223602 56.0 
292.286926 324.0 
292.35437 60.0 
292.42923 68.0 
292.482117 156.0 
292.538635 88.0 
292.575623 136.0 
292.61322 168.0 
292.664612 144.0 
292.719147 220.0 
292.778229 144.0 
292.819 116.0 
292.865051 156.0 
292.895325 136.0 
292.944336 204.0 
292.974548 56.0 
293.008148 148.0 
293.038818 124.0 
293.070618 200.0 
293.125702 4428.0 
293.163452 1444.0 
293.20282 216.0 
293.263519 192.0 
293.367523 132.0 
293.399078 68.0 
293.427338 52.0 
293.468262 56.0 
293.509186 104.0 
293.577789 140.0 
293.621399 176.0 
293.641296 160.0 
293.707214 124.0 
293.734283 148.0 
293.76825 232.0 
293.858795 172.0 
293.9151 256.0 
293.958313 60.0 
293.98877 68.0 
293.998413 88.0 
294.00531 188.0 
294.020233 208.0 
294.084991 180.0 
294.128174 1308.0 
294.164062 1000.0 
294.287079 148.0 
294.375946 148.0 
294.410858 272.0 
294.503662 128.0 
294.546997 252.0 
294.613525 100.0 
294.639679 112.0 
294.715759 92.0 
294.721954 96.0 
294.755127 152.0 
294.78244 392.0 
294.828461 164.0 
294.924774 124.0 
294.963593 104.0 
294.99173 88.0 
295.046539 200.0 
295.142639 5256.0 
295.269531 272.0 
295.332886 112.0 
295.373871 352.0 
295.465271 148.0 
295.500366 164.0 
295.553375 152.0 
295.597809 152.0 
295.631958 116.0 
295.675049 128.0 
295.73053 76.0 
295.801086 112.0 
295.846527 120.0 
295.875549 348.0 
295.908844 124.0 
295.946808 180.0 
296.018188 84.0 
296.074951 124.0 
296.145294 1616.0 
296.181915 636.0 
296.223114 128.0 
296.267914 176.0 
296.330841 156.0 
296.342621 80.0 
296.354706 152.0 
296.425964 192.0 
296.463715 120.0 
296.518677 148.0 
296.585175 176.0 
296.628479 112.0 
296.641296 40.0 
296.650055 116.0 
296.68689 60.0 
296.724152 104.0 
296.761078 104.0 
296.80954 144.0 
296.870697 124.0 
296.910706 120.0 
296.937775 128.0 
296.98349 112.0 
297.035919 372.0 
297.06311 172.0 
297.122009 4520.0 
297.159393 3948.0 
297.224548 224.0 
297.248047 256.0 
297.27063 44.0 
297.296082 64.0 
297.336884 244.0 
297.400482 96.0 
297.437073 152.0 
297.472321 200.0 
297.503265 208.0 
297.540039 108.0 
297.565308 104.0 
297.580627 112.0 
297.696503 132.0 
297.744598 108.0 
297.83255 260.0 
297.879791 140.0 
297.934143 68.0 
297.960388 148.0 
298.05835 148.0 
298.068848 132.0 
298.08139 212.0 
298.129913 1120.0 
298.175873 3576.0 
298.274139 292.0 
298.315399 184.0 
298.324371 140.0 
298.346863 232.0 
298.422485 344.0 
298.481232 84.0 
298.537781 172.0 
298.587067 104.0 
298.680084 204.0 
298.739532 40.0 
298.750854 92.0 
298.823456 164.0 
298.914032 164.0 
298.93631 140.0 
298.970886 176.0 
299.0242 140.0 
299.100891 1388.0 
299.136688 3272.0 
299.174164 8820.0 
299.247803 148.0 
299.2724 220.0 
299.30365 56.0 
299.365082 232.0 
299.424255 112.0 
299.476868 80.0 
299.506714 148.0 
299.565094 180.0 
299.591797 168.0 
299.652283 184.0 
299.6763 152.0 
299.708954 256.0 
299.737244 276.0 
299.776062 196.0 
299.80838 144.0 
299.860016 168.0 
299.884155 88.0 
299.906555 160.0 
299.938965 228.0 
299.962891 152.0 
300.009277 60.0 
300.022888 88.0 
300.107239 540.0 
300.1427 700.0 
300.194855 25976.0 
300.292786 172.0 
300.344238 188.0 
300.393951 96.0 
300.421295 268.0 
300.472595 228.0 
300.544281 152.0 
300.5914 64.0 
300.638733 316.0 
300.670319 60.0 
300.708801 176.0 
300.738739 200.0 
300.78537 188.0 
300.829132 88.0 
300.871796 284.0 
300.895355 44.0 
300.941071 160.0 
300.949432 140.0 
300.972443 236.0 
300.998474 152.0 
301.034302 264.0 
301.117889 55744.0 
301.197357 4844.0 
301.297485 124.0 
301.326263 180.0 
301.356415 252.0 
301.404999 152.0 
301.494995 192.0 
301.549713 116.0 
301.616974 184.0 
301.664459 140.0 
301.717529 72.0 
301.732483 48.0 
301.792542 156.0 
301.83548 72.0 
301.884857 72.0 
301.897522 108.0 
301.90802 84.0 
301.962677 52.0 
302.038605 156.0 
302.074127 132.0 
302.11972 9216.0 
302.198853 1180.0 
302.280029 152.0 
302.321625 64.0 
302.348633 148.0 
302.418488 244.0 
302.455566 160.0 
302.485352 100.0 
302.544647 132.0 
302.583832 84.0 
302.614563 196.0 
302.656525 68.0 
302.706696 168.0 
302.804993 68.0 
302.859253 120.0 
302.924438 196.0 
302.995667 276.0 
303.031219 156.0 
303.056671 92.0 
303.128937 1708.0 
303.24231 140.0 
303.275909 128.0 
303.307404 120.0 
303.384613 144.0 
303.415314 128.0 
303.453461 44.0 
303.483337 164.0 
303.509155 132.0 
303.55899 128.0 
303.565613 188.0 
303.646423 148.0 
303.700958 172.0 
303.731506 100.0 
303.773743 276.0 
303.794617 104.0 
303.837494 204.0 
303.876587 44.0 
303.914581 40.0 
303.946655 84.0 
303.995667 272.0 
304.032043 156.0 
304.071472 104.0 
304.156158 972.0 
304.222626 120.0 
304.233917 92.0 
304.239594 68.0 
304.290955 84.0 
304.303345 92.0 
304.32782 148.0 
304.349548 140.0 
304.398834 116.0 
304.429382 244.0 
304.455048 144.0 
304.553558 92.0 
304.61261 144.0 
304.682098 60.0 
304.747223 172.0 
304.795532 80.0 
304.871826 112.0 
304.935303 196.0 
304.983521 184.0 
305.010071 96.0 
305.054932 192.0 
305.163116 1444.0 
305.254974 224.0 
305.312531 124.0 
305.33905 112.0 
305.384399 204.0 
305.436493 244.0 
305.516266 264.0 
305.588623 200.0 
305.627808 112.0 
305.715149 196.0 
305.760071 188.0 
305.807037 92.0 
305.853638 152.0 
305.922302 168.0 
305.965424 44.0 
305.989777 120.0 
306.037964 152.0 
306.075012 312.0 
306.127472 820.0 
306.162323 1044.0 
306.280518 220.0 
306.32843 132.0 
306.361603 136.0 
306.44397 100.0 
306.498322 152.0 
306.550812 188.0 
306.580414 216.0 
306.616791 40.0 
306.644684 100.0 
306.679535 76.0 
306.708923 64.0 
306.742279 172.0 
306.777557 100.0 
306.826996 216.0 
306.864288 180.0 
306.901581 168.0 
306.940155 128.0 
306.963928 168.0 
306.975891 76.0 
307.042145 108.0 
307.142517 3680.0 
307.1763 2656.0 
307.218567 208.0 
307.227631 224.0 
307.288727 104.0 
307.345642 112.0 
307.373566 68.0 
307.494781 92.0 
307.550568 144.0 
307.575989 244.0 
307.617859 76.0 
307.649292 52.0 
307.680725 104.0 
307.705139 52.0 
307.741913 188.0 
307.834351 72.0 
307.887909 144.0 
307.933441 136.0 
308.161713 4276.0 
308.258789 104.0 
308.342072 72.0 
308.39859 152.0 
308.450562 120.0 
308.49472 108.0 
308.531891 184.0 
308.583893 156.0 
308.630432 188.0 
308.676514 32.0 
308.716003 136.0 
308.743835 124.0 
308.779999 136.0 
308.829071 84.0 
308.858398 36.0 
308.914825 200.0 
308.962677 220.0 
309.036896 140.0 
309.072479 248.0 
309.121185 1892.0 
309.158325 3516.0 
309.273132 128.0 
309.3125 160.0 
309.366669 64.0 
309.397308 168.0 
309.428314 112.0 
309.440125 88.0 
309.447479 188.0 
309.477997 228.0 
309.544373 44.0 
309.595642 140.0 
309.654602 176.0 
309.735443 136.0 
309.766724 156.0 
309.818298 116.0 
309.863617 136.0 
309.885651 64.0 
309.899506 104.0 
309.954224 112.0 
310.03833 92.0 
310.073364 120.0 
310.125702 964.0 
310.159241 1228.0 
310.199646 496.0 
310.260681 300.0 
310.315247 140.0 
310.39917 132.0 
310.482117 128.0 
310.504364 128.0 
310.553192 108.0 
310.584259 84.0 
310.62854 156.0 
310.687012 52.0 
310.738342 184.0 
310.792267 104.0 
310.827362 84.0 
310.896637 124.0 
310.948639 124.0 
310.978271 108.0 
311.036438 140.0 
311.046722 80.0 
311.07486 184.0 
311.137726 16368.0 
311.208038 1448.0 
311.307648 160.0 
311.387665 132.0 
311.419922 172.0 
311.47644 64.0 
311.482452 156.0 
311.529633 260.0 
311.582855 164.0 
311.644135 152.0 
311.693207 124.0 
311.74942 132.0 
311.810455 204.0 
311.852264 120.0 
311.882507 140.0 
311.922668 112.0 
311.954132 260.0 
311.980103 60.0 
312.020996 148.0 
312.07782 60.0 
312.141418 3736.0 
312.258362 120.0 
312.311401 220.0 
312.347473 60.0 
312.405731 288.0 
312.447693 192.0 
312.520538 60.0 
312.5578 256.0 
312.585449 200.0 
312.613312 160.0 
312.646149 72.0 
312.707825 172.0 
312.741852 136.0 
312.817749 220.0 
312.855927 252.0 
312.926758 88.0 
312.96637 204.0 
313.015778 300.0 
313.025787 100.0 
313.041473 156.0 
313.154236 44224.0 
313.22464 472.0 
313.289001 140.0 
313.35675 152.0 
313.405212 220.0 
313.442871 64.0 
313.471039 76.0 
313.524963 44.0 
313.569122 136.0 
313.599701 88.0 
313.635315 68.0 
313.675323 104.0 
313.699371 200.0 
313.727264 260.0 
313.800842 56.0 
313.826172 156.0 
313.870819 100.0 
313.915649 48.0 
313.951538 44.0 
313.992432 64.0 
314.041138 48.0 
314.082458 96.0 
314.157166 9520.0 
314.211212 272.0 
314.257782 160.0 
314.275543 72.0 
314.284668 56.0 
314.313538 176.0 
314.347809 168.0 
314.407135 108.0 
314.438995 168.0 
314.469971 104.0 
314.503845 240.0 
314.537018 156.0 
314.610504 132.0 
314.637512 208.0 
314.71344 72.0 
314.74826 60.0 
314.793823 436.0 
314.838013 156.0 
314.880096 228.0 
314.909515 148.0 
314.94339 100.0 
314.985687 88.0 
315.011627 64.0 
315.05127 184.0 
315.165314 2264.0 
315.229156 52.0 
315.278748 392.0 
315.3125 48.0 
315.372833 164.0 
315.442108 220.0 
315.480103 72.0 
315.58728 128.0 
315.642761 96.0 
315.681854 112.0 
315.726196 140.0 
315.79129 124.0 
315.862152 248.0 
315.900208 76.0 
315.95932 168.0 
316.005066 124.0 
316.05542 172.0 
316.102173 248.0 
316.140533 452.0 
316.174866 612.0 
316.23822 212.0 
316.26825 60.0 
316.277802 52.0 
316.356445 56.0 
316.401794 228.0 
316.416138 160.0 
316.428955 80.0 
316.447052 64.0 
316.453644 212.0 
316.488464 52.0 
316.525024 84.0 
316.595001 92.0 
316.619476 164.0 
316.684509 132.0 
316.691559 120.0 
316.716675 204.0 
316.750519 56.0 
316.819885 124.0 
316.853271 128.0 
316.888 120.0 
316.956024 156.0 
317.003876 164.0 
317.132202 992.0 
317.155304 720.0 
317.228394 204.0 
317.267914 68.0 
317.304413 208.0 
317.367188 236.0 
317.4133 120.0 
317.445221 112.0 
317.470032 148.0 
317.494843 172.0 
317.57074 132.0 
317.60376 68.0 
317.654053 132.0 
317.677673 140.0 
317.726593 168.0 
317.753815 144.0 
317.856689 96.0 
317.897186 108.0 
317.931213 160.0 
317.958374 140.0 
318.013367 84.0 
318.054749 40.0 
318.079895 152.0 
318.134155 660.0 
318.20517 12740.0 
318.276489 220.0 
318.324402 96.0 
318.357239 136.0 
318.408905 88.0 
318.442474 32.0 
318.49704 176.0 
318.541046 48.0 
318.572388 132.0 
318.596222 240.0 
318.625122 360.0 
318.704468 192.0 
318.760468 228.0 
318.818329 152.0 
318.920166 108.0 
318.957703 116.0 
318.998444 240.0 
319.028778 204.0 
319.052948 156.0 
319.12851 3516.0 
319.179535 3132.0 
319.206299 3172.0 
319.283356 120.0 
319.32663 116.0 
319.380432 72.0 
319.444855 220.0 
319.469757 180.0 
319.492584 144.0 
319.535339 112.0 
319.576508 136.0 
319.623169 140.0 
319.715271 68.0 
319.776825 136.0 
319.811371 60.0 
319.846985 40.0 
319.887421 56.0 
319.911804 132.0 
319.939545 100.0 
319.971771 68.0 
320.053223 144.0 
320.135193 1132.0 
320.186157 1744.0 
320.271301 80.0 
320.30838 72.0 
320.341949 200.0 
320.375336 280.0 
320.420319 88.0 
320.455475 172.0 
320.46463 148.0 
320.478302 88.0 
320.488953 132.0 
320.529907 196.0 
320.566437 104.0 
320.598511 60.0 
320.723236 120.0 
320.824249 128.0 
320.835754 136.0 
320.880096 128.0 
320.906281 116.0 
320.957458 120.0 
321.011719 92.0 
321.053589 116.0 
321.078888 296.0 
321.158356 2240.0 
321.194458 3948.0 
321.244415 180.0 
321.277527 156.0 
321.376801 108.0 
321.422272 164.0 
321.46994 140.0 
321.544739 124.0 
321.581787 108.0 
321.592682 48.0 
321.605774 96.0 
321.645905 176.0 
321.713074 124.0 
321.743134 116.0 
321.793488 48.0 
321.850616 56.0 
321.879181 48.0 
321.913116 292.0 
321.953522 44.0 
322.036316 200.0 
322.123657 600.0 
322.166473 792.0 
322.190643 1420.0 
322.269531 128.0 
322.325867 152.0 
322.409637 148.0 
322.460968 56.0 
322.49942 124.0 
322.525818 144.0 
322.56366 116.0 
322.628906 152.0 
322.705566 132.0 
322.757141 268.0 
322.804688 168.0 
322.883392 120.0 
322.914276 156.0 
322.951324 272.0 
322.997833 124.0 
323.023926 204.0 
323.138245 1636.0 
323.175659 3384.0 
323.279968 100.0 
323.39502 72.0 
323.452301 76.0 
323.491669 88.0 
323.535522 80.0 
323.581177 52.0 
323.649658 184.0 
323.686188 156.0 
323.713654 116.0 
323.74118 180.0 
323.828003 108.0 
323.891388 96.0 
323.927002 240.0 
323.999969 120.0 
324.050354 84.0 
324.082611 48.0 
324.141602 924.0 
324.173187 1224.0 
324.283295 208.0 
324.323761 164.0 
324.376495 140.0 
324.435181 152.0 
324.47876 172.0 
324.523468 36.0 
324.557922 172.0 
324.606812 128.0 
324.617889 84.0 
324.631683 160.0 
324.646423 64.0 
324.657715 128.0 
324.68689 388.0 
324.720703 96.0 
324.763214 88.0 
324.794617 172.0 
324.839081 228.0 
324.874969 44.0 
324.925171 144.0 
324.956696 144.0 
324.983673 128.0 
325.017303 164.0 
325.052429 156.0 
325.079163 436.0 
325.153992 44168.0 
325.26535 248.0 
325.2995 92.0 
325.352417 268.0 
325.408569 164.0 
325.43866 136.0 
325.455139 56.0 
325.479767 292.0 
325.540497 104.0 
325.591309 400.0 
325.679474 168.0 
325.709595 224.0 
325.755493 148.0 
325.796906 140.0 
325.84082 260.0 
325.872772 56.0 
325.898438 116.0 
325.934113 64.0 
325.965271 192.0 
326.003754 128.0 
326.012146 140.0 
326.082642 160.0 
326.159424 14104.0 
326.294861 44.0 
326.354675 128.0 
326.428131 132.0 
326.491425 180.0 
326.547607 216.0 
326.599213 44.0 
326.666107 112.0 
326.714355 76.0 
326.750305 56.0 
326.793488 128.0 
326.828583 156.0 
326.86084 100.0 
326.869049 104.0 
326.882172 68.0 
326.898071 120.0 
326.93692 112.0 
327.007538 168.0 
327.075745 156.0 
327.167206 5832.0 
327.203339 3896.0 
327.254395 228.0 
327.289581 136.0 
327.302185 112.0 
327.381317 120.0 
327.436493 136.0 
327.469757 84.0 
327.495667 124.0 
327.53009 52.0 
327.589905 100.0 
327.63147 156.0 
327.688812 108.0 
327.720764 208.0 
327.777252 192.0 
327.816711 152.0 
327.852081 68.0 
327.876892 120.0 
327.924255 104.0 
327.990112 120.0 
328.026794 140.0 
328.061035 72.0 
328.099945 176.0 
328.171753 1652.0 
328.208008 968.0 
328.249939 180.0 
328.274445 200.0 
328.350281 116.0 
328.391815 148.0 
328.421875 252.0 
328.489471 72.0 
328.546112 152.0 
328.578827 68.0 
328.645508 104.0 
328.701691 164.0 
328.770508 44.0 
328.851349 104.0 
328.900543 84.0 
328.973724 188.0 
329.031708 160.0 
329.055084 144.0 
329.094116 212.0 
329.151947 2148.0 
329.219116 660.0 
329.273651 116.0 
329.303375 120.0 
329.420746 128.0 
329.477692 140.0 
329.53714 104.0 
329.549988 156.0 
329.623016 68.0 
329.662384 196.0 
329.715637 36.0 
329.749298 160.0 
329.822235 164.0 
329.87915 256.0 
329.903168 288.0 
329.94986 92.0 
330.014038 140.0 
330.019226 124.0 
330.044647 92.0 
330.0672 68.0 
330.158569 992.0 
330.234009 276.0 
330.287048 64.0 
330.322998 112.0 
330.387207 132.0 
330.471588 148.0 
330.506378 76.0 
330.549805 140.0 
330.599396 204.0 
330.6586 188.0 
330.698395 132.0 
330.729126 116.0 
330.75061 124.0 
330.785065 44.0 
330.814026 72.0 
330.838104 68.0 
330.868317 68.0 
330.902222 212.0 
330.943848 112.0 
331.001709 100.0 
331.029083 100.0 
331.053955 168.0 
331.162231 1928.0 
331.339142 124.0 
331.390289 140.0 
331.426117 108.0 
331.48407 140.0 
331.565582 172.0 
331.650116 152.0 
331.715729 124.0 
331.774902 68.0 
331.82843 156.0 
331.908203 80.0 
331.957336 80.0 
331.984344 124.0 
332.151917 1260.0 
332.262756 84.0 
332.325348 104.0 
332.371765 100.0 
332.426941 56.0 
332.535828 72.0 
332.561218 120.0 
332.628876 88.0 
332.644592 124.0 
332.77179 64.0 
332.839752 216.0 
332.882172 140.0 
332.917023 140.0 
332.971497 152.0 
333.015076 84.0 
333.061096 168.0 
333.153839 1236.0 
333.190521 644.0 
333.252228 140.0 
333.320251 52.0 
333.356934 132.0 
333.404053 68.0 
333.440186 40.0 
333.504944 152.0 
333.660431 68.0 
333.69101 140.0 
333.720093 100.0 
333.771149 124.0 
333.851013 128.0 
333.880096 104.0 
333.931 192.0 
333.972595 104.0 
334.050171 180.0 
334.128632 520.0 
334.155457 1336.0 
334.189941 864.0 
334.234528 112.0 
334.311462 204.0 
334.338501 52.0 
334.408936 80.0 
334.471405 148.0 
334.508911 88.0 
334.644287 100.0 
334.673401 152.0 
334.741119 40.0 
334.78656 108.0 
334.814453 104.0 
334.860229 40.0 
334.867096 152.0 
334.910126 92.0 
334.946533 96.0 
334.972046 100.0 
335.032928 124.0 
335.174011 1792.0 
335.306702 288.0 
335.40567 92.0 
335.442139 116.0 
335.474762 152.0 
335.500732 244.0 
335.568024 72.0 
335.591614 136.0 
335.632202 60.0 
335.675476 116.0 
335.740662 160.0 
335.825012 96.0 
335.868774 128.0 
335.936798 168.0 
335.980377 148.0 
336.012939 232.0 
336.057922 128.0 
336.094543 104.0 
336.181519 632.0 
336.259186 160.0 
336.336151 264.0 
336.401062 92.0 
336.427856 272.0 
336.45343 208.0 
336.496002 32.0 
336.544556 96.0 
336.618622 88.0 
336.65036 164.0 
336.760498 240.0 
336.809296 108.0 
336.849701 100.0 
336.881287 204.0 
336.912811 80.0 
336.963959 72.0 
337.024078 48.0 
337.073578 40.0 
337.10733 200.0 
337.189392 10468.0 
337.349243 76.0 
337.395233 48.0 
337.420837 36.0 
337.446411 116.0 
337.49762 64.0 
337.541595 132.0 
337.574554 172.0 
337.610321 136.0 
337.637787 72.0 
337.684357 116.0 
337.739716 148.0 
337.794403 52.0 
337.822449 44.0 
337.835724 80.0 
337.886383 144.0 
337.918243 100.0 
337.94873 120.0 
338.070099 164.0 
338.118378 208.0 
338.155762 680.0 
338.194153 2508.0 
338.269562 148.0 
338.306335 136.0 
338.357422 152.0 
338.394043 108.0 
338.437988 124.0 
338.488373 116.0 
338.547852 92.0 
338.593994 132.0 
338.636505 156.0 
338.678223 120.0 
338.722809 164.0 
338.735443 108.0 
338.743042 164.0 
338.795898 72.0 
338.815704 136.0 
338.844543 116.0 
338.875549 92.0 
338.93219 48.0 
338.946136 44.0 
339.000397 136.0 
339.030914 112.0 
339.068451 120.0 
339.131622 1696.0 
339.205383 21892.0 
339.270142 116.0 
339.341095 84.0 
339.367004 88.0 
339.42572 152.0 
339.488037 36.0 
339.500061 96.0 
339.58252 88.0 
339.614105 52.0 
339.668884 176.0 
339.713928 220.0 
339.756531 48.0 
339.803131 80.0 
339.836426 84.0 
339.887634 116.0 
339.932587 120.0 
339.969543 104.0 
340.021637 236.0 
340.049225 240.0 
340.143158 504.0 
340.157257 488.0 
340.209259 7028.0 
340.284821 52.0 
340.319 228.0 
340.344452 64.0 
340.353546 108.0 
340.385101 124.0 
340.436493 116.0 
340.506287 76.0 
340.535889 136.0 
340.566162 136.0 
340.604279 76.0 
340.618134 88.0 
340.644989 212.0 
340.697296 60.0 
340.721161 44.0 
340.757294 84.0 
340.77301 72.0 
340.783386 128.0 
340.837219 92.0 
340.903046 56.0 
340.965698 84.0 
340.989014 72.0 
341.016998 40.0 
341.078735 172.0 
341.165466 992.0 
341.21347 660.0 
341.302643 108.0 
341.343597 96.0 
341.49585 104.0 
341.52417 232.0 
341.572205 264.0 
341.612976 52.0 
341.638214 204.0 
341.675232 108.0 
341.74881 76.0 
341.875122 172.0 
341.926666 120.0 
341.960419 104.0 
341.995483 128.0 
342.048065 140.0 
342.088684 116.0 
342.168518 572.0 
342.263 52.0 
342.27713 112.0 
342.29306 112.0 
342.325378 184.0 
342.37561 104.0 
342.435242 156.0 
342.4505 72.0 
342.459656 128.0 
342.534668 88.0 
342.585999 152.0 
342.628754 96.0 
342.657501 376.0 
342.670471 276.0 
342.713501 108.0 
342.761414 104.0 
342.808136 100.0 
342.8349 84.0 
342.931732 128.0 
342.95932 132.0 
342.991028 200.0 
343.037842 100.0 
343.101837 132.0 
343.164978 5600.0 
343.300629 132.0 
343.345581 244.0 
343.402588 52.0 
343.462646 40.0 
343.501312 164.0 
343.510498 88.0 
343.565186 152.0 
343.597565 72.0 
343.60437 168.0 
343.622498 120.0 
343.63205 148.0 
343.703339 164.0 
343.734924 68.0 
343.761383 288.0 
343.808716 96.0 
343.903107 116.0 
343.911102 144.0 
343.952667 68.0 
344.031952 100.0 
344.079163 80.0 
344.168243 1524.0 
344.273895 36.0 
344.310822 56.0 
344.358826 100.0 
344.421631 272.0 
344.596954 156.0 
344.650665 164.0 
344.681427 176.0 
344.731964 116.0 
344.792694 68.0 
344.836212 216.0 
344.876129 204.0 
344.917053 204.0 
344.93985 184.0 
344.994415 112.0 
345.020294 124.0 
345.060944 112.0 
345.10141 168.0 
345.162689 960.0 
345.364197 116.0 
345.447968 128.0 
345.526978 52.0 
345.552856 72.0 
345.592529 100.0 
345.606293 72.0 
345.617432 132.0 
345.674957 148.0 
345.756378 52.0 
345.793274 72.0 
345.905548 192.0 
346.056244 40.0 
346.161743 668.0 
346.237671 224.0 
346.268463 116.0 
346.31546 52.0 
346.368317 120.0 
346.419189 48.0 
346.468567 132.0 
346.526611 108.0 
346.552551 116.0 
346.585114 56.0 
346.651337 108.0 
346.682251 132.0 
346.734589 164.0 
346.854675 160.0 
346.887299 212.0 
346.911865 244.0 
346.975067 120.0 
347.018585 224.0 
347.067566 140.0 
347.092651 84.0 
347.175476 13196.0 
347.293701 96.0 
347.346313 140.0 
347.426941 244.0 
347.459473 100.0 
347.488495 132.0 
347.561127 176.0 
347.605438 296.0 
347.644592 112.0 
347.67334 132.0 
347.707153 80.0 
347.769653 232.0 
347.847931 156.0 
347.889038 168.0 
347.954315 124.0 
347.980927 128.0 
348.01593 120.0 
348.177368 2900.0 
348.262512 116.0 
348.343506 120.0 
348.391632 196.0 
348.448517 120.0 
348.497681 192.0 
348.529541 164.0 
348.582031 56.0 
348.615723 156.0 
348.654449 164.0 
348.690063 44.0 
348.736328 284.0 
348.766205 140.0 
348.845032 140.0 
348.938751 40.0 
348.988617 76.0 
349.011078 132.0 
349.063019 156.0 
349.152618 840.0 
349.186462 800.0 
349.223114 3484.0 
349.285156 180.0 
349.343109 192.0 
349.452393 284.0 
349.497833 76.0 
349.576202 72.0 
349.613403 164.0 
349.660767 84.0 
349.759796 152.0 
349.86972 60.0 
349.932526 88.0 
349.9664 164.0 
349.995819 132.0 
350.024323 108.0 
350.070282 196.0 
350.149597 2860.0 
350.229919 860.0 
350.275665 144.0 
350.302307 168.0 
350.382812 168.0 
350.42215 172.0 
350.490082 128.0 
350.550079 136.0 
350.596436 152.0 
350.640289 72.0 
350.677765 204.0 
350.747406 240.0 
350.814972 96.0 
350.837494 112.0 
350.901947 64.0 
350.945984 96.0 
350.979553 92.0 
351.034576 152.0 
351.072754 192.0 
351.166809 1852.0 
351.203888 2004.0 
351.287018 36.0 
351.330139 100.0 
351.36142 272.0 
351.442078 144.0 
351.503754 112.0 
351.568939 108.0 
351.618774 68.0 
351.673676 184.0 
351.753937 148.0 
351.789154 104.0 
351.816864 76.0 
351.841431 88.0 
351.902863 56.0 
351.98703 100.0 
352.036285 132.0 
352.170349 580.0 
352.203156 996.0 
352.208191 508.0 
352.244598 392.0 
352.306793 132.0 
352.353088 40.0 
352.425385 124.0 
352.471313 156.0 
352.522797 164.0 
352.580139 204.0 
352.696899 148.0 
352.735657 164.0 
352.790344 160.0 
352.824005 48.0 
352.858368 144.0 
352.902405 132.0 
352.973572 72.0 
353.044617 120.0 
353.181702 1512.0 
353.218506 736.0 
353.302704 164.0 
353.351624 196.0 
353.433655 124.0 
353.489777 96.0 
353.581573 104.0 
353.622986 88.0 
353.66568 104.0 
353.708008 116.0 
353.741241 88.0 
353.789215 48.0 
353.822906 44.0 
353.854492 120.0 
353.876953 92.0 
353.966522 136.0 
354.086395 136.0 
354.186523 604.0 
354.264221 140.0 
354.289917 132.0 
354.362457 280.0 
354.405762 104.0 
354.448425 136.0 
354.490662 132.0 
354.539642 152.0 
354.573944 168.0 
354.635803 172.0 
354.688293 120.0 
354.753876 184.0 
354.820862 176.0 
354.871979 156.0 
354.901978 32.0 
354.958771 108.0 
355.036987 196.0 
355.082275 152.0 
355.200104 15468.0 
355.273956 264.0 
355.309448 120.0 
355.343384 72.0 
355.410095 52.0 
355.443298 284.0 
355.475281 120.0 
355.542725 140.0 
355.5578 180.0 
355.615662 148.0 
355.686462 120.0 
355.720459 176.0 
355.791199 208.0 
355.839386 136.0 
355.917603 96.0 
355.960144 244.0 
356.03302 248.0 
356.078766 260.0 
356.203308 4616.0 
356.274963 108.0 
356.32132 184.0 
356.375793 80.0 
356.410919 36.0 
356.448486 60.0 
356.527405 148.0 
356.555054 168.0 
356.597565 72.0 
356.629547 132.0 
356.638245 132.0 
356.736115 76.0 
356.763916 144.0 
356.795288 120.0 
356.819489 112.0 
356.899567 216.0 
356.936737 100.0 
356.967255 160.0 
357.01123 116.0 
357.058502 152.0 
357.111542 188.0 
357.145416 576.0 
357.215668 24456.0 
357.290649 200.0 
357.32074 176.0 
357.363159 76.0 
357.419006 212.0 
357.50296 208.0 
357.545807 112.0 
357.557159 100.0 
357.583252 212.0 
357.617126 76.0 
357.670502 160.0 
357.731995 96.0 
357.758514 96.0 
357.797546 60.0 
357.845123 252.0 
357.894073 148.0 
357.922577 128.0 
357.932617 112.0 
357.951202 76.0 
358.025543 76.0 
358.069946 140.0 
358.220184 5844.0 
358.296906 188.0 
358.340454 108.0 
358.347717 132.0 
358.393494 104.0 
358.461731 72.0 
358.503204 36.0 
358.55661 112.0 
358.609863 180.0 
358.668121 48.0 
358.708618 320.0 
358.765045 144.0 
358.794647 68.0 
358.855011 88.0 
358.914093 72.0 
358.95932 132.0 
359.012115 132.0 
359.038818 172.0 
359.08963 124.0 
359.209351 2176.0 
359.278931 120.0 
359.292297 100.0 
359.361389 116.0 
359.393127 96.0 
359.430267 256.0 
359.458435 52.0 
359.510101 88.0 
359.537506 112.0 
359.59314 80.0 
359.631409 204.0 
359.685394 92.0 
359.715179 180.0 
359.774323 180.0 
359.835876 76.0 
359.887604 148.0 
359.945343 108.0 
360.036011 80.0 
360.131958 344.0 
360.177887 1076.0 
360.204529 1000.0 
360.271881 120.0 
360.378632 160.0 
360.422638 176.0 
360.451721 128.0 
360.510773 332.0 
360.540924 84.0 
360.555145 168.0 
360.562286 60.0 
360.592346 160.0 
360.63559 128.0 
360.680969 84.0 
360.725098 124.0 
360.788544 140.0 
360.908203 36.0 
361.032593 244.0 
361.074921 324.0 
361.185242 1636.0 
361.250305 136.0 
361.308716 152.0 
361.379456 80.0 
361.435638 224.0 
361.495667 108.0 
361.554321 44.0 
361.582214 172.0 
361.623657 52.0 
361.667114 80.0 
361.71933 160.0 
361.785034 84.0 
361.812469 116.0 
361.904633 40.0 
361.958099 184.0 
361.991913 72.0 
362.064362 76.0 
362.099304 108.0 
362.148132 1776.0 
362.192108 732.0 
362.267792 120.0 
362.315765 100.0 
362.40152 160.0 
362.446564 124.0 
362.535553 92.0 
362.579498 200.0 
362.639374 88.0 
362.651398 92.0 
362.668335 100.0 
362.677521 96.0 
362.6922 144.0 
362.74176 128.0 
362.78949 144.0 
362.853943 52.0 
362.893188 148.0 
362.960114 40.0 
363.013214 92.0 
363.065918 40.0 
363.167053 3292.0 
363.23645 236.0 
363.260681 112.0 
363.305267 152.0 
363.332642 128.0 
363.372101 200.0 
363.42395 112.0 
363.471039 116.0 
363.521484 372.0 
363.579559 124.0 
363.615936 128.0 
363.636993 160.0 
363.645386 120.0 
363.751251 112.0 
363.822021 368.0 
363.890015 56.0 
363.939087 92.0 
363.979187 100.0 
363.990631 56.0 
364.021118 60.0 
364.049286 140.0 
364.102936 224.0 
364.168304 632.0 
364.236633 92.0 
364.280243 112.0 
364.334442 120.0 
364.370605 124.0 
364.426788 272.0 
364.455688 212.0 
364.480499 144.0 
364.536072 160.0 
364.600067 228.0 
364.666687 184.0 
364.712402 116.0 
364.75943 104.0 
364.770935 76.0 
364.802002 200.0 
364.842194 248.0 
364.871582 104.0 
364.902344 172.0 
364.960602 116.0 
365.01297 164.0 
365.051575 140.0 
365.065704 136.0 
365.186035 68644.0 
365.318634 136.0 
365.323425 200.0 
365.361053 96.0 
365.394806 144.0 
365.459381 124.0 
365.520172 120.0 
365.542877 180.0 
365.584076 136.0 
365.607361 144.0 
365.612885 108.0 
365.648071 148.0 
365.70636 136.0 
365.733215 156.0 
365.80658 112.0 
365.888397 132.0 
365.971497 316.0 
366.013123 80.0 
366.071777 92.0 
366.187714 17464.0 
366.272339 132.0 
366.341461 160.0 
366.401825 124.0 
366.440186 212.0 
366.490936 36.0 
366.525665 124.0 
366.556854 232.0 
366.590454 68.0 
366.642212 128.0 
366.669586 200.0 
366.714203 152.0 
366.760498 84.0 
366.816864 108.0 
366.883636 152.0 
366.927399 156.0 
366.980896 120.0 
367.044067 68.0 
367.072144 88.0 
367.099792 216.0 
367.110626 164.0 
367.191162 2796.0 
367.236542 7228.0 
367.348511 132.0 
367.390442 128.0 
367.43045 188.0 
367.478912 88.0 
367.505615 56.0 
367.538422 60.0 
367.58194 72.0 
367.650116 88.0 
367.701019 136.0 
367.749847 72.0 
367.784668 68.0 
367.8255 288.0 
367.865051 68.0 
367.904297 128.0 
367.937561 140.0 
367.963715 172.0 
368.026337 172.0 
368.064636 68.0 
368.114349 144.0 
368.161072 1336.0 
368.241241 1788.0 
368.287689 232.0 
368.356262 220.0 
368.382874 76.0 
368.421692 64.0 
368.456696 156.0 
368.501801 172.0 
368.515778 156.0 
368.570679 144.0 
368.588806 180.0 
368.651947 188.0 
368.691132 220.0 
368.749786 160.0 
368.782074 268.0 
368.826996 160.0 
368.880524 168.0 
368.956726 64.0 
368.961548 104.0 
369.016174 68.0 
369.041107 96.0 
369.096222 124.0 
369.167358 980.0 
369.25174 7324.0 
369.328278 176.0 
369.407043 140.0 
369.454163 104.0 
369.493469 144.0 
369.524933 136.0 
369.578857 324.0 
369.716309 124.0 
369.788727 296.0 
369.840027 72.0 
369.862244 156.0 
369.95166 68.0 
369.997589 200.0 
370.02301 152.0 
370.111359 84.0 
370.1604 244.0 
370.257568 2464.0 
370.311249 84.0 
370.369385 96.0 
370.419464 96.0 
370.468658 148.0 
370.505463 116.0 
370.556793 44.0 
370.595093 112.0 
370.642517 128.0 
370.671722 56.0 
370.705841 124.0 
370.719482 112.0 
370.786713 128.0 
370.852234 80.0 
370.882416 136.0 
370.932465 80.0 
370.98938 100.0 
371.03537 156.0 
371.070374 96.0 
371.101044 52.0 
371.191742 752.0 
371.252197 432.0 
371.366913 120.0 
371.448608 164.0 
371.534363 192.0 
371.567047 96.0 
371.622681 92.0 
371.649536 92.0 
371.727875 124.0 
371.774689 176.0 
371.839539 152.0 
371.912872 168.0 
371.961853 160.0 
372.010132 172.0 
372.163025 420.0 
372.22644 164.0 
372.263397 232.0 
372.32901 68.0 
372.367401 80.0 
372.401978 72.0 
372.453613 180.0 
372.496887 124.0 
372.511566 116.0 
372.545135 184.0 
372.59021 60.0 
372.643982 140.0 
372.685272 108.0 
372.730804 148.0 
372.764771 64.0 
372.821136 160.0 
372.909027 128.0 
372.966278 116.0 
373.012939 108.0 
373.059082 84.0 
373.100677 68.0 
373.191803 452.0 
373.26181 120.0 
373.3013 100.0 
373.377228 288.0 
373.412842 100.0 
373.545197 68.0 
373.621613 188.0 
373.667114 40.0 
373.716736 120.0 
373.782166 240.0 
373.808472 112.0 
373.856873 184.0 
373.933228 140.0 
373.979828 88.0 
374.037384 128.0 
374.088135 192.0 
374.131134 88.0 
374.1828 444.0 
374.199005 624.0 
374.266571 220.0 
374.31723 52.0 
374.371124 48.0 
374.42749 108.0 
374.460297 148.0 
374.502075 188.0 
374.529053 212.0 
374.558899 128.0 
374.608734 76.0 
374.660034 88.0 
374.699036 192.0 
374.76593 196.0 
374.796814 112.0 
374.848724 112.0 
374.928497 124.0 
374.990143 84.0 
375.059937 72.0 
375.12619 116.0 
375.131531 92.0 
375.205017 17872.0 
375.267487 180.0 
375.28186 128.0 
375.348511 112.0 
375.40921 108.0 
375.455627 216.0 
375.542786 100.0 
375.600647 200.0 
375.626343 72.0 
375.699249 92.0 
375.732361 108.0 
375.775574 128.0 
375.833069 100.0 
375.910126 184.0 
375.977448 120.0 
376.016235 84.0 
376.075256 160.0 
376.117706 76.0 
376.208923 6880.0 
376.335754 196.0 
376.410278 128.0 
376.446442 84.0 
376.512573 300.0 
376.572144 156.0 
376.625702 128.0 
376.669159 84.0 
376.716156 316.0 
376.785797 128.0 
376.855652 204.0 
376.886261 132.0 
376.959656 84.0 
376.991669 216.0 
377.048553 124.0 
377.085876 116.0 
377.220245 20924.0 
377.290771 276.0 
377.337982 64.0 
377.404938 168.0 
377.448517 108.0 
377.48822 168.0 
377.555725 88.0 
377.598419 72.0 
377.684174 92.0 
377.726501 176.0 
377.797791 156.0 
377.853607 148.0 
377.896881 128.0 
377.952637 124.0 
378.006287 92.0 
378.073608 204.0 
378.105011 124.0 
378.223541 4644.0 
378.33905 224.0 
378.383881 200.0 
378.447266 84.0 
378.484344 84.0 
378.526825 100.0 
378.580566 84.0 
378.650299 76.0 
378.684387 100.0 
378.751007 28.0 
378.822021 144.0 
378.855591 28.0 
378.899811 116.0 
378.941956 96.0 
379.010559 56.0 
379.037689 144.0 
379.103119 132.0 
379.190674 1036.0 
379.370728 168.0 
379.402039 108.0 
379.431 84.0 
379.47934 136.0 
379.492188 128.0 
379.593597 156.0 
379.629883 212.0 
379.675568 44.0 
379.704498 100.0 
379.787872 120.0 
379.832489 80.0 
379.878204 56.0 
379.93335 40.0 
379.964386 60.0 
380.02594 88.0 
380.07196 172.0 
380.114105 132.0 
380.161499 732.0 
380.194672 716.0 
380.31424 132.0 
380.342865 68.0 
380.368896 172.0 
380.425293 84.0 
380.513031 88.0 
380.546173 40.0 
380.57608 140.0 
380.639771 96.0 
380.694122 56.0 
380.729065 100.0 
380.778168 100.0 
380.808228 136.0 
380.835876 96.0 
380.863342 112.0 
380.960205 104.0 
381.051483 92.0 
381.091888 160.0 
381.179749 1428.0 
381.215393 308.0 
381.284637 80.0 
381.335175 128.0 
381.370148 228.0 
381.434143 104.0 
381.458374 160.0 
381.494537 44.0 
381.548218 84.0 
381.574799 60.0 
381.621277 120.0 
381.681427 76.0 
381.729492 172.0 
381.786407 120.0 
381.870392 180.0 
381.936859 244.0 
381.974731 232.0 
382.024597 160.0 
382.067596 136.0 
382.117401 108.0 
382.184692 696.0 
382.219696 272.0 
382.259155 156.0 
382.323517 160.0 
382.356079 148.0 
382.367584 72.0 
382.381561 108.0 
382.400055 76.0 
382.426514 244.0 
382.466522 60.0 
382.480896 136.0 
382.510162 104.0 
382.576416 176.0 
382.669983 140.0 
382.702545 164.0 
382.780792 156.0 
382.809662 240.0 
382.857788 224.0 
382.906464 56.0 
382.967133 84.0 
383.021057 188.0 
383.060822 60.0 
383.11618 316.0 
383.196747 96368.0 
383.290283 108.0 
383.340332 172.0 
383.393799 136.0 
383.400482 104.0 
383.458832 124.0 
383.546021 56.0 
383.613281 80.0 
383.665497 52.0 
383.716156 200.0 
383.746094 172.0 
383.802185 120.0 
383.846832 196.0 
383.888 192.0 
383.98175 48.0 
384.042145 172.0 
384.085571 112.0 
384.198242 28020.0 
384.287659 132.0 
384.325592 36.0 
384.339386 104.0 
384.365875 72.0 
384.394867 56.0 
384.43634 176.0 
384.476501 96.0 
384.517639 80.0 
384.59494 128.0 
384.65274 120.0 
384.686646 88.0 
384.761932 64.0 
384.800323 140.0 
384.830658 196.0 
384.885803 64.0 
384.965546 228.0 
385.009003 332.0 
385.079468 76.0 
385.114624 108.0 
385.195374 8780.0 
385.336212 136.0 
385.370209 264.0 
385.460602 116.0 
385.484711 44.0 
385.532379 148.0 
385.565826 124.0 
385.589996 96.0 
385.620422 88.0 
385.683716 136.0 
385.713074 140.0 
385.755463 56.0 
385.818024 48.0 
385.878082 128.0 
385.918182 92.0 
385.99939 220.0 
386.023895 264.0 
386.072174 72.0 
386.110748 116.0 
386.192535 2220.0 
386.246643 324.0 
386.296539 164.0 
386.347748 228.0 
386.379395 104.0 
386.429504 236.0 
386.508148 116.0 
386.52002 108.0 
386.552124 168.0 
386.571411 104.0 
386.58371 276.0 
386.652313 168.0 
386.70816 148.0 
386.858643 68.0 
386.909546 72.0 
386.989532 56.0 
387.046509 188.0 
387.11908 172.0 
387.146912 260.0 
387.186432 552.0 
387.265045 440.0 
387.331543 84.0 
387.346985 132.0 
387.421478 72.0 
387.47229 52.0 
387.55368 228.0 
387.641998 80.0 
387.683228 100.0 
387.765442 220.0 
387.85141 112.0 
387.880188 88.0 
387.893768 116.0 
387.950104 168.0 
387.979736 128.0 
388.032806 380.0 
388.096344 116.0 
388.164337 512.0 
388.269318 148.0 
388.308899 72.0 
388.358612 88.0 
388.384583 88.0 
388.449677 80.0 
388.49054 164.0 
388.557434 112.0 
388.601074 156.0 
388.644409 224.0 
388.672821 160.0 
388.720398 140.0 
388.820435 100.0 
388.855286 124.0 
388.937988 64.0 
389.01181 308.0 
389.084137 72.0 
389.181732 508.0 
389.236816 84.0 
389.28302 100.0 
389.332825 80.0 
389.377441 132.0 
389.483032 144.0 
389.560638 52.0 
389.596954 112.0 
389.700043 216.0 
389.737427 44.0 
389.775208 104.0 
389.848816 104.0 
389.886749 104.0 
389.947815 164.0 
390.051575 112.0 
390.17392 608.0 
390.222229 128.0 
390.283783 160.0 
390.31015 124.0 
390.387787 108.0 
390.426117 84.0 
390.477051 144.0 
390.514343 160.0 
390.58429 188.0 
390.625946 80.0 
390.712677 132.0 
390.755798 160.0 
390.841583 124.0 
390.889557 44.0 
390.968903 112.0 
391.007629 168.0 
391.043732 160.0 
391.076172 156.0 
391.106018 72.0 
391.191284 856.0 
391.248077 92.0 
391.277313 148.0 
391.289612 76.0 
391.321167 124.0 
391.358002 140.0 
391.415222 128.0 
391.483521 128.0 
391.554901 128.0 
391.589233 176.0 
391.619781 76.0 
391.669098 80.0 
391.705688 56.0 
391.744141 84.0 
391.85318 44.0 
391.909058 168.0 
391.944092 124.0 
391.954742 64.0 
392.014526 120.0 
392.072723 56.0 
392.194885 476.0 
392.326202 124.0 
392.338531 124.0 
392.355408 256.0 
392.403351 104.0 
392.450226 108.0 
392.511749 164.0 
392.579346 148.0 
392.616791 280.0 
392.693634 236.0 
392.758575 216.0 
392.799927 224.0 
392.8414 124.0 
392.877869 300.0 
392.912476 80.0 
392.953674 104.0 
393.003937 128.0 
393.01825 124.0 
393.048889 268.0 
393.073578 340.0 
393.090057 112.0 
393.104187 292.0 
393.216736 95396.0 
393.32019 84.0 
393.338593 200.0 
393.388428 68.0 
393.423859 164.0 
393.501404 128.0 
393.537506 76.0 
393.601685 232.0 
393.644226 152.0 
393.69101 88.0 
393.724701 372.0 
393.814545 116.0 
393.85318 92.0 
393.879303 200.0 
393.922974 160.0 
393.977692 424.0 
394.026062 216.0 
394.068207 164.0 
394.118835 200.0 
394.148346 216.0 
394.219299 22024.0 
394.303925 144.0 
394.323547 152.0 
394.334259 204.0 
394.380463 188.0 
394.423401 196.0 
394.460999 92.0 
394.523895 288.0 
394.554993 96.0 
394.636322 248.0 
394.662384 160.0 
394.712158 76.0 
394.748291 160.0 
394.779144 196.0 
394.822479 124.0 
394.859222 140.0 
394.873871 180.0 
394.954834 256.0 
395.006409 180.0 
395.049927 64.0 
395.077209 156.0 
395.085907 188.0 
395.10495 116.0 
395.137634 180.0 
395.23175 83400.0 
395.346466 372.0 
395.433533 444.0 
395.466644 80.0 
395.493286 232.0 
395.529968 124.0 
395.595886 140.0 
395.655762 128.0 
395.699768 156.0 
395.76059 100.0 
395.779022 112.0 
395.805847 192.0 
395.873627 144.0 
395.899933 152.0 
395.956604 128.0 
395.976807 232.0 
396.043243 172.0 
396.100952 264.0 
396.170929 568.0 
396.235382 21288.0 
396.330231 84.0 
396.396271 176.0 
396.432648 176.0 
396.463531 276.0 
396.477448 224.0 
396.529877 92.0 
396.57605 152.0 
396.649567 180.0 
396.699524 156.0 
396.741028 136.0 
396.778534 116.0 
396.817505 172.0 
396.845459 76.0 
396.892914 68.0 
396.924438 76.0 
396.962067 108.0 
397.003632 116.0 
397.086273 116.0 
397.115234 96.0 
397.126831 100.0 
397.165497 396.0 
397.237274 4088.0 
397.342987 100.0 
397.368835 312.0 
397.398834 76.0 
397.453125 100.0 
397.490753 72.0 
397.523132 84.0 
397.57193 60.0 
397.604462 88.0 
397.660492 144.0 
397.682648 96.0 
397.715668 104.0 
397.760986 112.0 
397.790497 104.0 
397.843445 164.0 
397.95755 108.0 
398.043671 180.0 
398.100433 216.0 
398.147156 216.0 
398.183411 120.0 
398.201263 156.0 
398.248199 424.0 
398.283386 104.0 
398.349915 124.0 
398.386841 128.0 
398.450287 56.0 
398.528046 96.0 
398.554626 124.0 
398.62085 372.0 
398.657684 120.0 
398.693451 184.0 
398.810791 144.0 
398.870697 56.0 
398.925201 100.0 
399.010223 148.0 
399.062683 36.0 
399.106201 48.0 
399.140289 92.0 
399.183624 340.0 
399.310669 80.0 
399.419739 104.0 
399.490082 80.0 
399.588989 140.0 
399.619843 172.0 
399.631592 80.0 
399.644104 176.0 
399.684387 100.0 
399.729858 156.0 
399.787079 140.0 
399.825562 92.0 
399.885284 116.0 
399.926971 144.0 
399.954376 132.0 
400.022644 180.0 
400.06488 88.0 
400.092743 68.0 
400.156403 264.0 
400.19632 536.0 
400.234497 156.0 
400.279938 96.0 
400.397034 100.0 
400.433228 160.0 
400.481323 80.0 
400.547638 148.0 
400.65152 120.0 
400.734192 68.0 
400.834229 188.0 
400.903839 128.0 
400.940704 100.0 
400.99292 160.0 
401.062286 144.0 
401.117035 132.0 
401.205444 14552.0 
401.324585 76.0 
401.374023 224.0 
401.387695 112.0 
401.473724 68.0 
401.51593 256.0 
401.551147 180.0 
401.598236 96.0 
401.674255 96.0 
401.718597 76.0 
401.806854 56.0 
401.868744 88.0 
401.880219 120.0 
401.918304 104.0 
401.965363 68.0 
401.97702 56.0 
402.074097 128.0 
402.092346 116.0 
402.103302 160.0 
402.119751 96.0 
402.135345 68.0 
402.207581 4540.0 
402.352661 124.0 
402.421997 92.0 
402.488068 100.0 
402.548431 60.0 
402.576385 76.0 
402.636292 92.0 
402.663513 64.0 
402.689392 116.0 
402.748138 108.0 
402.797333 112.0 
402.847565 148.0 
402.909088 192.0 
403.003815 108.0 
403.088715 216.0 
403.200745 24804.0 
403.32132 240.0 
403.349609 152.0 
403.366211 88.0 
403.449097 140.0 
403.496094 48.0 
403.531403 48.0 
403.587921 272.0 
403.65448 164.0 
403.701874 76.0 
403.730164 200.0 
403.794739 168.0 
403.815826 176.0 
403.863342 76.0 
403.929321 60.0 
404.007324 144.0 
404.104065 160.0 
404.203522 7488.0 
404.270264 192.0 
404.275726 220.0 
404.304749 232.0 
404.335693 128.0 
404.37146 52.0 
404.452515 80.0 
404.501221 116.0 
404.539581 152.0 
404.595642 52.0 
404.627655 68.0 
404.663696 44.0 
404.693604 128.0 
404.793701 120.0 
404.835876 56.0 
404.897827 164.0 
404.948029 88.0 
405.011078 92.0 
405.096222 92.0 
405.129486 120.0 
405.208008 1176.0 
405.313507 104.0 
405.388733 96.0 
405.433258 72.0 
405.49292 116.0 
405.531891 144.0 
405.595428 120.0 
405.633209 116.0 
405.669281 88.0 
405.740692 64.0 
405.793579 80.0 
405.821655 64.0 
405.881805 156.0 
405.982056 128.0 
406.11441 64.0 
406.18042 1012.0 
406.24527 328.0 
406.310974 40.0 
406.355103 52.0 
406.391205 232.0 
406.495941 100.0 
406.537659 92.0 
406.576996 108.0 
406.603394 132.0 
406.617676 64.0 
406.655731 96.0 
406.722961 116.0 
406.749573 184.0 
406.823212 100.0 
406.886108 164.0 
406.934296 168.0 
406.998535 116.0 
407.045502 84.0 
407.108337 80.0 
407.190918 1144.0 
407.253326 128.0 
407.344421 164.0 
407.4552 128.0 
407.660126 204.0 
407.749084 76.0 
407.865082 40.0 
407.905273 156.0 
407.935089 96.0 
407.964478 144.0 
408.013824 56.0 
408.068878 80.0 
408.188538 296.0 
408.24704 84.0 
408.287262 116.0 
408.492401 40.0 
408.535858 120.0 
408.588959 100.0 
408.617126 128.0 
408.697571 176.0 
408.88562 44.0 
408.945587 188.0 
408.956146 160.0 
408.995392 116.0 
409.035645 164.0 
409.083954 68.0 
409.212494 592.0 
409.253052 64.0 
409.319672 136.0 
409.393982 92.0 
409.430695 100.0 
409.526093 120.0 
409.595367 168.0 
409.712189 108.0 
409.792786 52.0 
409.830872 88.0 
409.864532 144.0 
409.919891 88.0 
409.972504 100.0 
410.054291 176.0 
410.145477 208.0 
410.201904 412.0 
410.216217 300.0 
410.336884 64.0 
410.381256 40.0 
410.417542 84.0 
410.44577 104.0 
410.502228 40.0 
410.655457 160.0 
410.70697 172.0 
410.803619 88.0 
410.834412 100.0 
411.084686 184.0 
411.227264 9740.0 
411.297028 40.0 
411.505371 112.0 
411.539246 36.0 
411.587708 76.0 
411.703461 176.0 
411.782166 212.0 
411.809052 168.0 
411.909424 104.0 
411.93634 152.0 
411.946167 72.0 
411.965546 140.0 
412.031158 140.0 
412.092621 92.0 
412.122314 204.0 
412.228577 2764.0 
412.309937 128.0 
412.339417 56.0 
412.38205 164.0 
412.430573 128.0 
412.492218 32.0 
412.53717 112.0 
412.602661 100.0 
412.649994 80.0 
412.724884 64.0 
412.763611 48.0 
412.808075 72.0 
412.85257 96.0 
412.988068 228.0 
413.045319 104.0 
413.079071 112.0 
413.171692 208.0 
413.24234 18760.0 
413.308167 164.0 
413.314636 296.0 
413.374817 124.0 
413.420837 172.0 
413.458954 72.0 
413.464722 132.0 
413.520111 100.0 
413.598938 68.0 
413.628082 164.0 
413.664429 172.0 
413.729401 40.0 
413.792145 148.0 
413.867584 148.0 
413.958893 64.0 
414.05011 124.0 
414.111267 120.0 
414.141388 128.0 
414.245331 5976.0 
414.326508 180.0 
414.388214 200.0 
414.423187 68.0 
414.463715 36.0 
414.54245 112.0 
414.603638 128.0 
414.642029 84.0 
414.709991 52.0 
414.744446 56.0 
414.803253 108.0 
414.83252 92.0 
414.869812 124.0 
415.036591 144.0 
415.144073 72.0 
415.212982 768.0 
415.242828 876.0 
415.379974 36.0 
415.48587 236.0 
415.562561 40.0 
415.607178 36.0 
415.722168 80.0 
415.777374 120.0 
415.827911 112.0 
415.879089 160.0 
415.921387 60.0 
415.972443 44.0 
416.004913 88.0 
416.049591 76.0 
416.107788 260.0 
416.156464 124.0 
416.198151 420.0 
416.253174 220.0 
416.368256 124.0 
416.608887 144.0 
416.622192 104.0 
416.632599 72.0 
416.720154 108.0 
416.749725 136.0 
416.787109 168.0 
416.834747 272.0 
416.882019 292.0 
416.952515 180.0 
417.045227 120.0 
417.097656 28.0 
417.17041 116.0 
417.232208 232.0 
417.28598 88.0 
417.299194 28.0 
417.312042 104.0 
417.341583 112.0 
417.405731 52.0 
417.47171 56.0 
417.508331 96.0 
417.55307 40.0 
417.60788 48.0 
417.662872 184.0 
417.738861 148.0 
417.855835 64.0 
418.000549 84.0 
418.050751 96.0 
418.079712 124.0 
418.117279 124.0 
418.184204 424.0 
418.214722 472.0 
418.305817 128.0 
418.354675 92.0 
418.441803 80.0 
418.513458 128.0 
418.594879 84.0 
418.646729 104.0 
418.708923 48.0 
418.737427 132.0 
418.76593 140.0 
418.85202 128.0 
418.895203 112.0 
418.947296 84.0 
418.983948 240.0 
419.038879 88.0 
419.108704 208.0 
419.186798 384.0 
419.272949 100.0 
419.346039 180.0 
419.397217 124.0 
419.447754 288.0 
419.532623 136.0 
419.643555 100.0 
419.737915 128.0 
419.851624 112.0 
419.873993 160.0 
419.937195 88.0 
419.992828 120.0 
420.050934 48.0 
420.096344 116.0 
420.191711 1808.0 
420.314697 224.0 
420.386688 52.0 
420.471313 264.0 
420.528473 160.0 
420.592651 188.0 
420.625916 104.0 
420.670197 128.0 
420.745331 156.0 
420.780029 220.0 
420.845551 68.0 
420.911804 228.0 
420.949768 132.0 
421.030884 264.0 
421.071533 300.0 
421.128754 424.0 
421.212341 91020.0 
421.35498 140.0 
421.402832 92.0 
421.466217 96.0 
421.49057 68.0 
421.5224 68.0 
421.549316 92.0 
421.608246 132.0 
421.623474 108.0 
421.637146 88.0 
421.685272 128.0 
421.697754 292.0 
421.75412 224.0 
421.820679 112.0 
421.872375 116.0 
421.902527 172.0 
421.936554 160.0 
421.967072 156.0 
422.078094 84.0 
422.215302 25208.0 
422.349365 108.0 
422.42981 212.0 
422.459778 176.0 
422.468842 80.0 
422.519653 92.0 
422.550751 136.0 
422.650879 120.0 
422.679199 88.0 
422.714539 236.0 
422.777252 64.0 
422.884674 128.0 
422.928558 60.0 
422.964539 128.0 
423.061737 40.0 
423.099731 180.0 
423.129913 64.0 
423.146088 92.0 
423.216034 4736.0 
423.277954 120.0 
423.346191 76.0 
423.372925 268.0 
423.399323 44.0 
423.440491 76.0 
423.488953 132.0 
423.543488 68.0 
423.586426 248.0 
423.633179 52.0 
423.708466 84.0 
423.772552 136.0 
423.823914 48.0 
423.864319 96.0 
423.920197 204.0 
423.950562 36.0 
423.986603 116.0 
424.035614 80.0 
424.092743 52.0 
424.138763 100.0 
424.232941 1020.0 
424.305389 64.0 
424.336731 116.0 
424.41272 232.0 
424.502716 204.0 
424.510498 184.0 
424.526123 160.0 
424.557312 56.0 
424.65451 112.0 
424.682678 136.0 
424.744568 116.0 
424.75708 164.0 
424.768524 88.0 
424.800049 176.0 
424.833618 240.0 
424.857269 168.0 
424.903839 100.0 
424.974457 104.0 
425.022369 140.0 
425.067688 116.0 
425.121796 84.0 
425.149567 172.0 
425.236267 404.0 
425.352173 104.0 
425.382355 184.0 
425.417603 72.0 
425.47644 44.0 
425.517517 112.0 
425.560394 36.0 
425.632477 152.0 
425.683868 196.0 
425.733612 192.0 
425.800232 92.0 
425.886993 108.0 
425.946014 120.0 
425.973358 272.0 
426.040985 112.0 
426.069458 92.0 
426.117157 40.0 
426.213745 564.0 
426.252045 1048.0 
426.318481 64.0 
426.359589 120.0 
426.494995 144.0 
426.597992 56.0 
426.678162 120.0 
426.713104 44.0 
426.77478 32.0 
426.818787 80.0 
426.857025 104.0 
426.894043 44.0 
427.019745 52.0 
427.128784 52.0 
427.162781 120.0 
427.242279 588.0 
427.354736 108.0 
427.4823 44.0 
427.618103 116.0 
427.704559 272.0 
427.835907 88.0 
427.9104 60.0 
428.023224 100.0 
428.056061 192.0 
428.122314 64.0 
428.192352 888.0 
428.23172 652.0 
428.402618 56.0 
428.441681 48.0 
428.627991 204.0 
428.664185 132.0 
428.731689 52.0 
428.770569 44.0 
428.831512 120.0 
428.948578 92.0 
429.046783 68.0 
429.106812 244.0 
429.195862 396.0 
429.239288 304.0 
429.276337 72.0 
429.311401 60.0 
429.39801 96.0 
429.45163 44.0 
429.574066 176.0 
429.633148 92.0 
429.670258 36.0 
429.703278 80.0 
429.766968 88.0 
429.828918 88.0 
429.970306 140.0 
430.000397 80.0 
430.032623 64.0 
430.044189 52.0 
430.055939 96.0 
430.120087 28.0 
430.148987 116.0 
430.204651 468.0 
430.396698 64.0 
430.446045 76.0 
430.62384 52.0 
430.831512 72.0 
430.892334 204.0 
430.925385 112.0 
430.953247 76.0 
431.014221 112.0 
431.074158 68.0 
431.103088 104.0 
431.246552 652.0 
431.299591 248.0 
431.371735 48.0 
431.425476 52.0 
431.466827 48.0 
431.544067 100.0 
431.57019 188.0 
431.626251 100.0 
431.702515 76.0 
431.760406 68.0 
431.814178 48.0 
431.85553 84.0 
432.018768 148.0 
432.10788 108.0 
432.22757 2256.0 
432.346222 80.0 
432.434814 64.0 
432.526703 40.0 
432.567261 188.0 
432.599243 148.0 
432.689941 120.0 
432.723083 112.0 
432.819824 36.0 
432.892181 124.0 
432.921234 128.0 
432.956482 68.0 
433.044952 144.0 
433.227356 1260.0 
433.286377 56.0 
433.463837 140.0 
433.499176 88.0 
433.540863 128.0 
433.591125 64.0 
433.710541 88.0 
433.822479 96.0 
433.890045 92.0 
433.920593 96.0 
434.004883 56.0 
434.042206 140.0 
434.107819 68.0 
434.22522 624.0 
434.266876 208.0 
434.33667 60.0 
434.41745 68.0 
434.465271 48.0 
434.544098 128.0 
434.631226 52.0 
434.971558 60.0 
435.0961 72.0 
435.198853 204.0 
435.216217 216.0 
435.230255 124.0 
435.282959 96.0 
435.324463 72.0 
435.403381 124.0 
435.561646 76.0 
435.602081 76.0 
435.76062 156.0 
435.931 64.0 
436.076019 104.0 
436.192535 308.0 
436.368256 208.0 
436.463074 148.0 
436.548492 96.0 
436.598602 88.0 
436.662689 92.0 
436.783325 108.0 
436.829071 64.0 
436.920593 136.0 
436.992126 144.0 
437.074554 52.0 
437.111694 108.0 
437.145294 132.0 
437.204041 332.0 
437.298462 104.0 
437.333954 108.0 
437.43454 96.0 
437.545441 116.0 
437.594849 144.0 
437.632324 40.0 
437.728638 88.0 
437.778046 116.0 
437.846222 120.0 
437.890503 184.0 
438.052948 196.0 
438.134735 120.0 
438.201904 444.0 
438.291382 124.0 
438.347717 96.0 
438.390442 76.0 
438.458923 120.0 
438.488098 92.0 
438.560089 108.0 
438.594666 184.0 
438.623138 48.0 
438.661377 160.0 
438.703247 92.0 
438.739349 128.0 
438.768921 80.0 
438.835815 52.0 
438.935028 216.0 
438.971985 120.0 
439.034454 100.0 
439.080505 324.0 
439.132538 104.0 
439.221497 39316.0 
439.314911 56.0 
439.400696 136.0 
439.434113 84.0 
439.473633 136.0 
439.519745 112.0 
439.627869 116.0 
439.681183 80.0 
439.7789 192.0 
439.849426 104.0 
439.913757 128.0 
439.97287 64.0 
439.998291 60.0 
440.03949 72.0 
440.138153 100.0 
440.22464 10988.0 
440.325775 144.0 
440.376038 96.0 
440.422302 56.0 
440.451538 32.0 
440.508881 156.0 
440.592194 76.0 
440.645874 52.0 
440.69986 56.0 
440.735626 32.0 
440.775696 40.0 
440.821503 88.0 
440.910187 140.0 
440.965485 80.0 
441.001648 104.0 
441.042816 96.0 
441.08902 152.0 
441.146881 132.0 
441.228973 1528.0 
441.331635 104.0 
441.366821 84.0 
441.480896 104.0 
441.539917 244.0 
441.615112 76.0 
441.668518 28.0 
441.795776 128.0 
441.862518 84.0 
441.922394 188.0 
441.964966 64.0 
442.004883 52.0 
442.044464 104.0 
442.167877 148.0 
442.247589 3364.0 
442.358215 128.0 
442.450104 132.0 
442.48233 152.0 
442.519562 124.0 
442.541199 92.0 
442.560638 72.0 
442.663879 136.0 
442.727783 88.0 
442.789673 44.0 
442.831543 72.0 
442.899719 204.0 
443.001312 76.0 
443.045197 224.0 
443.080658 112.0 
443.110046 200.0 
443.120697 156.0 
443.253021 1400.0 
443.486786 168.0 
443.560638 84.0 
443.608948 76.0 
443.653839 104.0 
443.731689 80.0 
443.799866 68.0 
443.849915 84.0 
443.90863 108.0 
443.959595 128.0 
444.018005 48.0 
444.059601 36.0 
444.109955 168.0 
444.172852 84.0 
444.262848 2924.0 
444.397797 124.0 
444.444519 112.0 
444.609222 72.0 
444.688965 72.0 
444.758789 152.0 
444.936646 68.0 
445.016418 40.0 
445.055298 156.0 
445.176941 136.0 
445.26413 1432.0 
445.467896 104.0 
445.591827 100.0 
445.625427 40.0 
445.722076 108.0 
445.886932 52.0 
446.056152 144.0 
446.091949 60.0 
446.154999 100.0 
446.245361 1308.0 
446.336578 148.0 
446.384735 112.0 
446.420563 76.0 
446.533447 60.0 
446.583923 152.0 
446.651611 44.0 
446.719421 88.0 
446.764801 68.0 
446.838501 132.0 
446.909485 92.0 
446.969482 80.0 
447.055115 84.0 
447.090332 44.0 
447.177185 108.0 
447.244934 400.0 
447.296661 120.0 
447.347076 156.0 
447.396057 144.0 
447.446594 60.0 
447.535309 56.0 
447.581329 140.0 
447.652924 168.0 
447.800323 128.0 
448.002502 164.0 
448.099396 96.0 
448.171051 108.0 
448.220428 100.0 
448.304199 144.0 
448.348022 80.0 
448.423889 148.0 
448.541901 32.0 
448.579865 52.0 
448.973022 144.0 
449.060547 132.0 
449.226685 128.0 
449.305206 100.0 
449.402252 68.0 
449.457092 32.0 
449.541504 52.0 
449.695801 136.0 
449.777863 96.0 
449.815002 80.0 
449.908722 80.0 
449.997375 104.0 
450.117615 44.0 
450.235352 1744.0 
450.305664 132.0 
450.352112 156.0 
450.432373 32.0 
450.492828 128.0 
450.523987 64.0 
450.584167 120.0 
450.692383 88.0 
450.730042 88.0 
450.960541 84.0 
451.05777 108.0 
451.104279 144.0 
451.169922 136.0 
451.235535 892.0 
451.298157 116.0 
451.498199 72.0 
451.539795 88.0 
451.57785 112.0 
451.64978 88.0 
451.780914 36.0 
451.848602 152.0 
451.980408 52.0 
452.047821 144.0 
452.142548 164.0 
452.233582 7296.0 
452.337982 128.0 
452.415466 72.0 
452.466522 168.0 
452.500397 100.0 
452.606232 36.0 
452.737671 228.0 
452.784088 72.0 
452.817993 92.0 
452.864563 52.0 
452.898468 80.0 
452.974701 80.0 
453.059418 52.0 
453.093323 88.0 
453.148407 124.0 
453.234955 2304.0 
453.301453 100.0 
453.340088 100.0 
453.423859 64.0 
453.485413 144.0 
453.575378 152.0 
453.724823 48.0 
453.775696 132.0 
453.810913 124.0 
453.847778 32.0 
453.897247 72.0 
453.931763 208.0 
453.998413 92.0 
454.015625 48.0 
454.032654 120.0 
454.089478 60.0 
454.136139 64.0 
454.232574 720.0 
454.326447 88.0 
454.37796 28.0 
454.428864 160.0 
454.474396 180.0 
454.619812 144.0 
454.738647 108.0 
454.840515 120.0 
454.914948 168.0 
455.140778 72.0 
455.175629 120.0 
455.231384 244.0 
455.32193 104.0 
455.46048 60.0 
455.532166 64.0 
455.684845 124.0 
455.840179 108.0 
455.949097 52.0 
456.051086 124.0 
456.089355 48.0 
456.11911 76.0 
456.148865 84.0 
456.199738 92.0 
456.277618 100.0 
456.313324 140.0 
456.341431 136.0 
456.476257 104.0 
456.531525 116.0 
456.574066 76.0 
456.671539 100.0 
456.825012 108.0 
456.854797 32.0 
456.926788 148.0 
457.041992 128.0 
457.07666 280.0 
457.106476 188.0 
457.231476 4544.0 
457.332825 108.0 
457.40802 64.0 
457.548492 80.0 
457.62088 80.0 
457.664429 104.0 
457.799866 124.0 
457.842316 120.0 
457.893402 52.0 
457.991394 140.0 
458.033966 144.0 
458.128418 140.0 
458.234497 1136.0 
458.391876 44.0 
458.53421 120.0 
458.673157 56.0 
458.749878 124.0 
458.783997 128.0 
458.813843 92.0 
458.86499 112.0 
458.907623 60.0 
458.984375 60.0 
459.018494 40.0 
459.065399 92.0 
459.129364 108.0 
459.159241 108.0 
459.191101 144.0 
459.23349 516.0 
459.330963 108.0 
459.427948 120.0 
459.477142 160.0 
459.530365 36.0 
459.671173 32.0 
459.876282 64.0 
459.905914 164.0 
459.977295 84.0 
460.085205 156.0 
460.256805 6496.0 
460.388367 124.0 
460.49939 44.0 
460.542114 60.0 
460.631805 48.0 
460.678802 120.0 
460.712982 56.0 
460.757965 152.0 
460.868866 72.0 
460.936737 116.0 
461.017059 124.0 
461.058838 128.0 
461.109589 108.0 
461.194489 212.0 
461.262085 2228.0 
461.324432 108.0 
461.355774 68.0 
461.418152 180.0 
461.5849 52.0 
461.627686 140.0 
461.815857 36.0 
461.875732 76.0 
461.926605 188.0 
461.986969 136.0 
462.036346 148.0 
462.076813 76.0 
462.165649 220.0 
462.273987 14032.0 
462.39209 124.0 
462.440552 48.0 
462.513306 56.0 
462.560394 88.0 
462.620331 120.0 
462.680267 60.0 
462.747803 88.0 
462.817291 80.0 
462.970703 92.0 
463.045227 176.0 
463.099915 40.0 
463.159363 196.0 
463.27771 4956.0 
463.395508 152.0 
463.438354 76.0 
463.506073 80.0 
463.584045 56.0 
463.655212 60.0 
463.832642 68.0 
463.909821 48.0 
464.012695 96.0 
464.150757 40.0 
464.213684 180.0 
464.27948 728.0 
464.33316 128.0 
464.385773 48.0 
464.427368 156.0 
464.532837 104.0 
464.565948 88.0 
464.617432 128.0 
464.66748 72.0 
464.725006 56.0 
464.787689 100.0 
464.827423 68.0 
464.84375 64.0 
464.913483 44.0 
465.020782 52.0 
465.067993 56.0 
465.132385 108.0 
465.195343 36.0 
465.286316 84.0 
465.39856 140.0 
465.443756 76.0 
465.527405 76.0 
465.570343 60.0 
465.611389 72.0 
465.658966 44.0 
465.71051 132.0 
465.759308 112.0 
465.793701 92.0 
465.852081 100.0 
465.901093 76.0 
465.959351 128.0 
466.011078 100.0 
466.054321 180.0 
466.128815 84.0 
466.211945 124.0 
466.266327 72.0 
466.305023 44.0 
466.392578 100.0 
466.421051 96.0 
466.53714 88.0 
466.685303 112.0 
466.7435 120.0 
466.773621 144.0 
466.863922 52.0 
466.930573 64.0 
466.957764 176.0 
466.997253 104.0 
467.027344 120.0 
467.087097 36.0 
467.218018 100.0 
467.289764 56.0 
467.388733 152.0 
467.444672 60.0 
467.487701 60.0 
467.646942 52.0 
467.677094 44.0 
467.729065 52.0 
467.819122 68.0 
467.883698 44.0 
467.944 76.0 
468.004272 36.0 
468.057007 240.0 
468.12915 96.0 
468.258331 56.0 
468.327271 96.0 
468.414734 156.0 
468.51297 108.0 
468.646057 36.0 
468.689148 96.0 
468.742737 148.0 
468.8078 120.0 
468.903381 168.0 
468.997528 112.0 
469.092194 108.0 
469.184631 104.0 
469.232239 268.0 
469.272369 52.0 
469.358185 212.0 
469.434753 120.0 
469.484253 60.0 
469.667786 92.0 
469.753876 92.0 
469.780975 116.0 
469.828644 140.0 
469.866791 192.0 
469.906616 100.0 
469.969788 76.0 
470.017975 120.0 
470.087158 152.0 
470.113739 164.0 
470.166473 48.0 
470.242981 36252.0 
470.345428 244.0 
470.40097 88.0 
470.474762 48.0 
470.509308 64.0 
470.621246 68.0 
470.682007 160.0 
470.716003 64.0 
470.860168 108.0 
470.893616 36.0 
470.939056 92.0 
471.018738 200.0 
471.062958 164.0 
471.118561 108.0 
471.245544 11708.0 
471.378662 44.0 
471.417572 168.0 
471.453735 72.0 
471.491516 72.0 
471.589844 88.0 
471.630646 228.0 
471.66272 104.0 
471.699829 116.0 
471.759155 104.0 
471.873383 128.0 
471.910645 104.0 
471.939026 212.0 
471.959656 76.0 
471.975159 136.0 
472.043182 220.0 
472.100555 76.0 
472.246918 1732.0 
472.332977 72.0 
472.360809 52.0 
472.389221 120.0 
472.436798 52.0 
472.589355 76.0 
472.638062 100.0 
472.708527 80.0 
472.777588 132.0 
472.843719 92.0 
472.883881 100.0 
472.982056 72.0 
473.0513 84.0 
473.085938 48.0 
473.146545 68.0 
473.20697 116.0 
473.258972 260.0 
473.344269 132.0 
473.423676 112.0 
473.614258 32.0 
473.71405 100.0 
473.773499 108.0 
473.838654 120.0 
473.939178 44.0 
474.064819 96.0 
474.171783 96.0 
474.237457 328.0 
474.301575 108.0 
474.388947 36.0 
474.434296 100.0 
474.61969 124.0 
474.721161 100.0 
474.758453 112.0 
474.81015 48.0 
474.8927 76.0 
474.953094 128.0 
475.038879 140.0 
475.096252 64.0 
475.168518 136.0 
475.236755 136.0 
475.290314 60.0 
475.341675 100.0 
475.372498 104.0 
475.569794 84.0 
475.643585 84.0 
475.704346 56.0 
475.734741 132.0 
475.917084 128.0 
476.020355 36.0 
476.088684 232.0 
476.149872 120.0 
476.229767 92.0 
476.336121 116.0 
476.373108 100.0 
476.436676 140.0 
476.555603 68.0 
476.68161 48.0 
476.727966 60.0 
476.809052 132.0 
477.077148 88.0 
477.142334 176.0 
477.246704 44.0 
477.316254 60.0 
477.359741 52.0 
477.41629 44.0 
477.568512 172.0 
477.694672 36.0 
477.790375 116.0 
477.865845 148.0 
477.893463 172.0 
477.929596 136.0 
478.007935 100.0 
478.040222 104.0 
478.086243 116.0 
478.168945 128.0 
478.266998 600.0 
478.321289 60.0 
478.415741 128.0 
478.665253 132.0 
478.783691 100.0 
478.987549 88.0 
479.109497 84.0 
479.143829 132.0 
479.263611 152.0 
479.350342 88.0 
479.478516 100.0 
479.523468 60.0 
479.584503 176.0 
479.636383 88.0 
479.664215 112.0 
479.815552 88.0 
479.880951 112.0 
480.046631 88.0 
480.160034 280.0 
480.284515 6536.0 
480.352661 156.0 
480.439209 44.0 
480.478455 48.0 
480.642334 188.0 
480.692261 80.0 
480.738434 132.0 
480.783905 52.0 
480.879944 92.0 
480.971588 52.0 
481.031189 92.0 
481.067627 68.0 
481.110199 84.0 
481.199707 80.0 
481.286469 2060.0 
481.352997 100.0 
481.421295 88.0 
481.486816 92.0 
481.614136 104.0 
481.672089 76.0 
481.740143 124.0 
481.818787 84.0 
481.879944 88.0 
481.910553 56.0 
482.097504 92.0 
482.123138 208.0 
482.190216 88.0 
482.291809 320.0 
482.369354 196.0 
482.383575 136.0 
482.579285 52.0 
482.688599 80.0 
482.762421 68.0 
482.888977 44.0 
482.994751 96.0 
483.028198 68.0 
483.143463 64.0 
483.27475 132.0 
483.49353 64.0 
483.532928 92.0 
483.578888 104.0 
483.655487 136.0 
483.699249 108.0 
483.823792 80.0 
483.925964 56.0 
483.959259 144.0 
484.001343 168.0 
484.053894 84.0 
484.128326 48.0 
484.176514 108.0 
484.229065 36.0 
484.291626 128.0 
484.347321 172.0 
484.545776 108.0 
484.668549 100.0 
484.761841 164.0 
484.95639 160.0 
485.061584 140.0 
485.140503 88.0 
485.171173 40.0 
485.285187 188.0 
485.343201 68.0 
485.418671 144.0 
485.478119 84.0 
485.600922 84.0 
485.669952 76.0 
485.744507 60.0 
485.800446 148.0 
485.830597 112.0 
485.881683 80.0 
485.916779 148.0 
485.960144 240.0 
486.036163 112.0 
486.081573 300.0 
486.137756 44.0 
486.20639 88.0 
486.248383 168.0 
486.32489 100.0 
486.365112 100.0 
486.404358 224.0 
486.434082 164.0 
486.544159 76.0 
486.711212 44.0 
486.750732 124.0 
486.818359 228.0 
486.876251 104.0 
486.936462 164.0 
486.970337 76.0 
487.004211 184.0 
487.082886 124.0 
487.10144 108.0 
487.116669 128.0 
487.167358 184.0 
487.215576 164.0 
487.273712 236.0 
487.312805 104.0 
487.348602 152.0 
487.402527 232.0 
487.432404 136.0 
487.483368 112.0 
487.58725 240.0 
487.671967 128.0 
487.686462 300.0 
487.707977 212.0 
487.719482 132.0 
487.775543 268.0 
487.847137 212.0 
487.879883 248.0 
487.966644 184.0 
487.972687 448.0 
488.018494 188.0 
488.051086 156.0 
488.082764 212.0 
488.11908 80.0 
488.153931 356.0 
488.255035 127284.0 
488.376251 388.0 
488.421082 132.0 
488.467407 68.0 
488.501007 124.0 
488.549866 84.0 
488.617706 80.0 
488.664337 196.0 
488.701508 84.0 
488.734619 120.0 
488.789795 300.0 
488.881744 184.0 
488.930115 240.0 
488.986969 252.0 
489.071899 116.0 
489.117676 180.0 
489.174622 288.0 
489.256897 34256.0 
489.384369 96.0 
489.395691 128.0 
489.419556 244.0 
489.431183 260.0 
489.44519 64.0 
489.482635 128.0 
489.5177 128.0 
489.547455 160.0 
489.596741 60.0 
489.646057 200.0 
489.704895 172.0 
489.779144 156.0 
489.850067 88.0 
489.946716 124.0 
489.985931 48.0 
490.016724 140.0 
490.081512 296.0 
490.162628 160.0 
490.258575 5932.0 
490.346893 96.0 
490.377472 88.0 
490.432159 92.0 
490.459564 100.0 
490.525421 80.0 
490.57608 100.0 
490.630951 92.0 
490.691895 172.0 
490.754639 168.0 
490.766785 76.0 
490.817719 160.0 
490.895813 116.0 
490.923889 88.0 
490.97406 76.0 
491.005737 60.0 
491.033173 176.0 
491.097565 116.0 
491.126556 168.0 
491.258698 768.0 
491.379669 88.0 
491.429321 36.0 
491.44635 32.0 
491.458344 60.0 
491.488586 148.0 
491.564819 140.0 
491.619141 88.0 
491.712952 92.0 
491.753906 136.0 
491.836884 116.0 
491.894562 64.0 
491.926208 208.0 
491.953186 88.0 
492.038452 164.0 
492.090332 92.0 
492.120361 96.0 
492.14209 96.0 
492.179291 116.0 
492.186676 140.0 
492.205566 48.0 
492.220703 156.0 
492.261383 72.0 
492.3125 240.0 
492.340485 252.0 
492.431488 88.0 
492.473785 180.0 
492.539368 96.0 
492.604156 160.0 
492.639496 172.0 
492.701355 68.0 
492.736694 60.0 
492.821899 56.0 
492.869263 52.0 
492.943176 108.0 
492.992798 124.0 
493.08609 60.0 
493.136627 104.0 
493.19516 100.0 
493.275482 244.0 
493.327545 116.0 
493.392761 80.0 
493.461548 76.0 
493.507385 76.0 
493.562836 44.0 
493.590118 96.0 
493.638397 40.0 
493.67926 68.0 
493.754852 132.0 
493.802032 68.0 
493.877228 28.0 
493.941376 152.0 
494.116119 28.0 
494.244446 56.0 
494.319672 64.0 
494.372772 104.0 
494.523254 72.0 
494.60733 44.0 
494.711365 112.0 
494.837555 96.0 
494.95517 36.0 
495.027954 72.0 
495.112091 52.0 
495.174103 84.0 
495.216431 72.0 
495.391144 92.0 
495.444305 52.0 
495.498566 96.0 
495.950958 60.0 
495.984955 44.0 
496.051453 68.0 
496.140106 120.0 
496.211029 80.0 
496.375092 84.0 
496.477081 128.0 
496.522766 80.0 
496.587982 80.0 
496.774261 120.0 
497.107056 44.0 
497.219116 96.0 
497.401459 48.0 
497.435486 80.0 
497.471008 84.0 
497.701874 64.0 
497.744629 108.0 
497.808441 52.0 
498.034943 64.0 
498.305939 52.0 
498.401276 168.0 
498.537018 56.0 
498.694336 40.0 
498.79248 108.0 
498.937042 144.0 
499.021515 84.0 
499.114899 152.0 
499.23053 92.0 
499.279449 80.0 
499.457367 100.0 
499.557007 180.0 
499.831055 44.0 
499.954712 148.0 
500.004639 84.0 
500.115906 80.0 
500.20047 44.0 
500.33847 60.0 
500.391907 56.0 
500.574463 52.0 
500.71698 88.0 
500.921875 44.0 
501.068878 60.0 
501.229889 88.0 
501.296143 32.0 
501.331787 44.0 
501.539246 124.0 
501.590302 72.0 
501.624115 124.0 
501.942505 76.0 
502.107513 72.0 
502.169952 40.0 
502.210114 80.0 
502.281464 52.0 
502.468842 68.0 
502.531311 120.0 
502.647308 132.0 
502.806366 108.0 
502.936462 76.0 
502.97757 112.0 
503.026703 48.0 
503.066315 100.0 
503.193268 152.0 
503.454132 188.0 
503.625031 52.0 
503.70993 88.0 
503.858643 120.0 
503.924347 124.0 
503.955627 48.0 
504.02713 80.0 
504.181549 148.0 
504.257172 152.0 
504.308685 36.0 
504.38913 92.0 
504.438324 44.0 
504.518768 100.0 
504.63501 40.0 
504.724457 72.0 
504.782593 60.0 
504.837372 92.0 
504.90332 124.0 
504.965942 56.0 
505.028564 192.0 
505.114075 100.0 
505.188354 80.0 
505.254822 76.0 
505.320526 60.0 
505.373047 80.0 
505.426727 96.0 
505.473969 108.0 
505.55899 72.0 
505.626709 76.0 
505.681824 60.0 
505.719421 120.0 
505.761383 124.0 
505.791748 64.0 
505.87973 112.0 
506.007782 44.0 
506.063141 88.0 
506.110657 152.0 
506.169006 232.0 
506.181427 76.0 
506.264618 53404.0 
506.398041 92.0 
506.439819 168.0 
506.493683 60.0 
506.572052 56.0 
506.62442 44.0 
506.664886 180.0 
506.740204 240.0 
506.78949 144.0 
506.821472 116.0 
506.876221 80.0 
506.93396 276.0 
507.004974 68.0 
507.069305 184.0 
507.079346 200.0 
507.147797 192.0 
507.266693 19728.0 
507.373627 188.0 
507.446228 124.0 
507.491669 60.0 
507.572357 108.0 
507.58548 52.0 
507.605652 104.0 
507.678101 76.0 
507.695892 44.0 
507.709412 100.0 
507.765198 48.0 
507.817596 76.0 
507.868378 76.0 
507.913208 48.0 
507.956177 76.0 
508.00946 48.0 
508.061249 56.0 
508.116425 76.0 
508.168457 72.0 
508.266937 2940.0 
508.354706 124.0 
508.390015 108.0 
508.429199 40.0 
508.487549 44.0 
508.55365 76.0 
508.586304 88.0 
508.628937 88.0 
508.68158 52.0 
508.745361 68.0 
508.807678 76.0 
508.86261 80.0 
508.88974 108.0 
508.958923 44.0 
508.994843 32.0 
509.071167 44.0 
509.120575 32.0 
509.210388 100.0 
509.27066 264.0 
509.426422 188.0 
509.474976 40.0 
509.546753 116.0 
509.608704 84.0 
509.659332 52.0 
509.689301 80.0 
509.822571 104.0 
509.852875 100.0 
509.916962 112.0 
509.96524 88.0 
510.005676 116.0 
510.053772 144.0 
510.163025 80.0 
510.219116 100.0 
510.262329 88.0 
510.322906 136.0 
510.412567 52.0 
510.459442 52.0 
510.482605 52.0 
510.549713 120.0 
510.582214 124.0 
510.632721 72.0 
510.702637 44.0 
510.764008 68.0 
510.794525 84.0 
510.889587 100.0 
510.971588 76.0 
511.039185 132.0 
511.090515 96.0 
511.124481 68.0 
511.166412 92.0 
511.238037 80.0 
511.287048 72.0 
511.340851 52.0 
511.544098 68.0 
511.575623 132.0 
511.611633 72.0 
511.679169 32.0 
511.719666 60.0 
511.757385 128.0 
511.809723 60.0 
511.859253 108.0 
511.940308 52.0 
511.978485 76.0 
512.007874 108.0 
512.043884 56.0 
512.093445 88.0 
512.172913 168.0 
512.22406 60.0 
512.404297 108.0 
512.525085 108.0 
512.593506 112.0 
512.71521 64.0 
512.793457 76.0 
512.929504 152.0 
512.985657 108.0 
513.017212 32.0 
513.093872 32.0 
513.177368 68.0 
513.481628 64.0 
513.513245 44.0 
513.589905 60.0 
513.630493 100.0 
513.995911 48.0 
514.117798 56.0 
514.21521 48.0 
514.27124 60.0 
514.366028 36.0 
514.429199 60.0 
514.578186 56.0 
514.645935 64.0 
514.722717 72.0 
514.894287 36.0 
515.029785 68.0 
515.599121 96.0 
515.635254 104.0 
515.791016 60.0 
515.95166 88.0 
516.213928 52.0 
516.468628 60.0 
516.964905 52.0 
517.377258 36.0 
517.503113 80.0 
517.775269 48.0 
517.970032 88.0 
518.069702 64.0 
518.404968 68.0 
518.491089 68.0 
518.554565 28.0 
518.59082 72.0 
518.858643 48.0 
518.921753 68.0 
518.967041 68.0 
519.007874 32.0 
519.175659 96.0 
519.252747 84.0 
519.461426 120.0 
519.592957 128.0 
519.683716 80.0 
519.720032 36.0 
520.024109 64.0 
520.071838 152.0 
520.146606 60.0 
520.255554 72.0 
520.705139 60.0 
520.923157 44.0 
521.145752 40.0 
521.227539 104.0 
521.31842 84.0 
521.700256 60.0 
521.74115 48.0 
521.809387 76.0 
521.868469 100.0 
521.982178 148.0 
522.092834 76.0 
522.285583 140.0 
522.346008 104.0 
522.446106 112.0 
522.514343 36.0 
522.861145 128.0 
522.892029 112.0 
522.967102 88.0 
523.005798 60.0 
523.074097 80.0 
523.115051 60.0 
523.283508 56.0 
523.365479 120.0 
523.456543 92.0 
523.506653 52.0 
523.670593 52.0 
523.702454 152.0 
523.758484 140.0 
523.830017 96.0 
523.880127 92.0 
523.953003 92.0 
524.07605 120.0 
524.12616 216.0 
524.1745 152.0 
524.192932 92.0 
524.205505 120.0 
524.273621 11484.0 
524.39502 28.0 
524.472534 88.0 
524.654846 80.0 
524.75061 88.0 
524.923889 48.0 
525.04248 76.0 
525.115417 248.0 
525.146729 88.0 
525.278381 3880.0 
525.49408 32.0 
525.597656 76.0 
525.653748 196.0 
525.795227 68.0 
525.926086 120.0 
526.041687 64.0 
526.085999 92.0 
526.174133 56.0 
526.217957 48.0 
526.283691 572.0 
526.333923 232.0 
526.438965 108.0 
526.502869 64.0 
526.701843 120.0 
526.831787 36.0 
526.89502 52.0 
526.977966 60.0 
527.051331 64.0 
527.128723 56.0 
527.191223 60.0 
527.276489 196.0 
527.471558 48.0 
527.537964 116.0 
527.688538 104.0 
527.768677 56.0 
527.882996 52.0 
527.919617 40.0 
527.960754 36.0 
528.036499 64.0 
528.077393 72.0 
528.128662 56.0 
528.142334 40.0 
528.155273 84.0 
528.230652 100.0 
528.267212 108.0 
528.331299 124.0 
528.381592 44.0 
528.468506 40.0 
528.560059 60.0 
528.669861 80.0 
528.910095 132.0 
529.150146 52.0 
529.274109 68.0 
529.338257 32.0 
529.40094 92.0 
529.475647 32.0 
529.617615 76.0 
530.199463 56.0 
530.231567 36.0 
530.616638 76.0 
531.575317 56.0 
531.685425 52.0 
532.764465 40.0 
532.833435 104.0 
533.044739 44.0 
533.081543 56.0 
533.142639 40.0 
533.325134 84.0 
533.518188 64.0 
533.679138 88.0 
533.899841 72.0 
533.987244 68.0 
534.134399 56.0 
534.212585 56.0 
534.332214 36.0 
534.419678 64.0 
535.119263 40.0 
535.496887 64.0 
535.556763 44.0 
536.068176 36.0 
536.326233 36.0 
536.450684 44.0 
536.916443 44.0 
536.976379 64.0 
537.036316 76.0 
537.087097 48.0 
537.248535 40.0 
537.280823 88.0 
537.58075 168.0 
537.894592 72.0 
537.999817 96.0 
538.374756 56.0 
538.531799 36.0 
538.614929 116.0 
538.9245 68.0 
539.003052 64.0 
539.118591 72.0 
539.229797 60.0 
539.988464 76.0 
540.376343 88.0 
540.658569 32.0 
540.769653 120.0 
541.593872 64.0 
541.788391 96.0 
541.90863 80.0 
542.075684 52.0 
542.307434 48.0 
542.622681 48.0 
542.733948 60.0 
543.200623 64.0 
543.658508 64.0 
544.246582 88.0 
544.446289 56.0 
544.645996 100.0 
544.74353 84.0 
545.282532 44.0 
545.617249 32.0 
546.22644 72.0 
546.863953 100.0 
546.980286 52.0 
547.180481 52.0 
547.590271 128.0 
547.641541 88.0 
548.057861 76.0 
548.251831 28.0 
548.331055 40.0 
548.526855 120.0 
548.745972 76.0 
548.937134 40.0 
549.021057 64.0 
549.702209 72.0 
549.772217 60.0 
550.178284 116.0 
550.407043 56.0 
550.49115 68.0 
550.54718 76.0 
550.677917 152.0 
550.738647 68.0 
551.135742 56.0 
551.191833 64.0 
551.247925 128.0 
551.476929 68.0 
552.566528 84.0 
553.282593 96.0 
553.914795 72.0 
554.078735 80.0 
554.664551 92.0 
555.049011 64.0 
555.194336 44.0 
555.302246 68.0 
555.37262 44.0 
555.466431 48.0 
555.555542 56.0 
556.250061 56.0 
556.428467 76.0 
556.536438 108.0 
556.752441 56.0 
556.945068 48.0 
557.466553 136.0 
557.499451 112.0 
558.115234 68.0 
558.712585 116.0 
558.848999 92.0 
559.625671 120.0 
559.846985 44.0 
560.138977 80.0 
560.181396 48.0 
560.317993 84.0 
560.366272 100.0 
560.591309 108.0 
560.820435 108.0 
560.977783 48.0 
561.255981 104.0 
561.51532 96.0 
561.8927 76.0 
562.185303 60.0 
563.351562 92.0 
563.63501 68.0 
563.838196 48.0 
563.88031 40.0 
564.041443 60.0 
564.258911 48.0 
564.533203 84.0 
565.349915 132.0 
565.507812 84.0 
566.511658 60.0 
566.601685 92.0 
566.753296 36.0 
566.848328 76.0 
567.137146 76.0 
567.322021 152.0 
567.359985 64.0 
567.466858 152.0 
567.578064 68.0 
567.958435 80.0 
568.066589 76.0 
568.18042 80.0 
568.360718 60.0 
568.968262 76.0 
569.272156 100.0 
569.443115 52.0 
569.533386 84.0 
569.661621 32.0 
569.846924 44.0 
570.36969 80.0 
570.873657 92.0 
571.016357 52.0 
571.161926 92.0 
571.496826 80.0 
571.72522 48.0 
572.572632 40.0 
573.072388 88.0 
573.339722 124.0 
573.511292 108.0 
573.661255 52.0 
574.112 60.0 
574.598572 40.0 
574.651062 56.0 
574.932617 52.0 
575.123535 56.0 
576.293518 88.0 
576.656738 48.0 
576.781006 84.0 
577.507812 96.0 
577.603455 172.0 
578.249451 36.0 
578.464844 132.0 
579.187927 68.0 
579.474243 52.0 
579.666992 44.0 
579.738892 188.0 
579.829956 80.0 
579.902832 100.0 
579.99292 56.0 
580.088806 36.0 
580.151123 108.0 
580.457947 80.0 
580.534668 64.0 
580.726562 108.0 
580.803284 80.0 
580.937622 28.0 
581.134277 52.0 
581.340637 100.0 
581.65741 28.0 
581.868652 80.0 
582.06073 72.0 
582.16156 44.0 
582.478577 52.0 
582.694763 56.0 
583.365906 92.0 
583.478149 56.0 
583.732971 92.0 
583.91095 92.0 
584.011902 76.0 
584.141785 52.0 
584.223572 76.0 
584.353455 96.0 
584.531494 84.0 
584.979126 100.0 
585.672546 84.0 
585.836304 76.0 
585.971252 132.0 
586.71344 112.0 
586.911133 52.0 
587.436829 64.0 
587.504333 84.0 
587.576721 156.0 
587.634644 84.0 
588.551697 132.0 
588.657959 64.0 
588.933228 72.0 
589.348694 68.0 
589.923828 36.0 
590.151062 96.0 
590.334839 48.0 
590.562134 100.0 
590.774963 72.0 
591.210449 76.0 
591.584839 240.0 
591.951111 68.0 
592.096436 96.0 
592.324097 64.0 
592.391907 40.0 
592.537231 72.0 
592.634155 48.0 
593.540527 44.0 
593.710266 40.0 
594.515625 72.0 
594.569031 84.0 
594.657776 96.0 
595.175842 48.0 
595.224365 48.0 
595.496338 44.0 
595.816956 44.0 
596.113342 40.0 
596.774414 44.0 
597.48938 60.0 
598.183899 84.0 
598.852661 80.0 
599.018005 80.0 
599.203125 48.0 
600.675415 120.0 
600.729065 36.0 
600.836426 112.0 
601.534302 40.0 
602.002991 52.0 
602.55011 60.0 
602.838379 104.0 
603.007751 52.0 
603.332031 100.0 
603.723206 60.0 
603.948242 36.0 
603.992249 68.0 
604.212402 48.0 
604.261292 56.0 
604.359131 32.0 
604.784912 56.0 
605.827942 48.0 
606.033752 88.0 
606.107239 68.0 
606.295288 76.0 
606.401306 76.0 
606.685608 88.0 
606.79834 140.0 
607.068054 44.0 
607.132019 84.0 
607.347595 32.0 
607.499695 48.0 
607.568359 84.0 
607.646851 44.0 
607.926575 36.0 
608.088501 80.0 
608.61377 32.0 
609.424255 72.0 
609.832153 44.0 
610.451599 52.0 
610.963135 108.0 
611.386292 76.0 
611.445374 52.0 
611.775146 40.0 
611.986877 80.0 
612.045959 84.0 
612.252808 72.0 
612.336487 48.0 
613.938232 52.0 
614.347656 76.0 
614.387146 88.0 
614.999023 48.0 
615.033569 56.0 
615.290283 92.0 
615.460266 132.0 
615.601379 120.0 
615.868042 64.0 
616.021179 96.0 
616.149658 36.0 
616.717957 64.0 
616.970032 112.0 
617.073853 48.0 
617.444763 44.0 
618.038391 100.0 
618.860046 144.0 
618.934326 72.0 
619.05249 64.0 
619.226501 108.0 
619.360229 64.0 
619.682251 72.0 
619.776367 100.0 
620.182739 68.0 
620.267029 52.0 
620.485168 64.0 
620.609131 80.0 
620.822327 116.0 
620.961182 32.0 
621.105042 136.0 
621.710388 32.0 
621.864197 32.0 
621.993286 76.0 
622.370605 48.0 
622.524536 96.0 
622.716003 100.0 
622.882141 116.0 
623.219971 36.0 
623.259705 76.0 
623.89093 72.0 
624.030151 56.0 
624.825928 76.0 
625.028137 100.0 
625.318542 100.0 
625.6073 44.0 
626.364197 80.0 
626.638245 96.0 
626.717957 76.0 
626.952148 52.0 
627.266174 28.0 
627.914368 32.0 
627.989197 184.0 
628.103882 56.0 
628.173767 80.0 
628.243591 96.0 
628.557922 52.0 
628.827393 48.0 
629.171814 80.0 
629.226746 56.0 
629.346619 36.0 
629.481384 48.0 
629.736145 100.0 
629.890991 88.0 
630.440552 60.0 
630.500549 72.0 
631.245422 72.0 
631.380432 108.0 
631.565491 48.0 
632.185913 72.0 
632.616333 48.0 
633.18219 92.0 
633.222229 60.0 
633.93866 88.0 
634.21936 36.0 
634.565247 48.0 
635.096802 76.0 
635.453003 44.0 
635.683838 104.0 
636.587402 80.0 
636.719788 64.0 
637.200256 64.0 
637.235413 80.0 
637.742981 88.0 
637.893799 168.0 
638.778809 56.0 
638.87439 108.0 
639.292053 32.0 
640.731262 68.0 
640.943726 108.0 
640.986694 100.0 
641.548584 68.0 
641.597778 100.0 
641.664551 88.0 
641.719971 72.0 
642.158691 64.0 
642.602661 36.0 
642.653076 32.0 
642.920532 108.0 
642.98114 68.0 
643.692932 36.0 
643.758606 28.0 
644.192932 60.0 
644.253601 100.0 
644.39502 96.0 
644.642639 44.0 
644.925659 88.0 
645.547546 68.0 
645.861084 112.0 
646.609924 56.0 
646.645386 68.0 
646.680786 120.0 
646.751648 44.0 
646.928833 152.0 
647.060486 32.0 
647.571899 68.0 
647.688416 152.0 
647.865723 64.0 
648.106262 84.0 
648.691772 28.0 
648.772888 80.0 
649.001038 140.0 
650.035828 120.0 
650.124451 112.0 
650.685547 84.0 
650.949585 140.0 
651.874146 92.0 
652.280762 44.0 
652.417969 64.0 
652.510986 84.0 
652.667114 68.0 
652.946838 72.0 
653.104492 68.0 
653.399536 100.0 
654.112 156.0 
654.305481 44.0 
655.222229 44.0 
655.706299 88.0 
656.001953 60.0 
656.098816 152.0 
656.226257 52.0 
656.261963 60.0 
656.603638 112.0 
656.659729 52.0 
657.185181 80.0 
657.317871 92.0 
657.579712 80.0 
658.206055 60.0 
658.502258 148.0 
658.916016 164.0 
659.329956 84.0 
660.050781 44.0 
660.326904 56.0 
660.777283 92.0 
660.838501 84.0 
660.971497 68.0 
661.007324 64.0 
661.708557 36.0 
661.821228 64.0 
661.872437 68.0 
662.389709 60.0 
664.178711 132.0 
665.400085 88.0 
665.466797 84.0 
665.774902 48.0 
666.504395 100.0 
667.069763 112.0 
667.223938 160.0 
667.604492 92.0 
667.938782 32.0 
668.082825 188.0 
668.849609 88.0 
669.323242 180.0 
669.451965 168.0 
669.663147 68.0 
669.827942 88.0 
669.946472 92.0 
670.054077 72.0 
670.068787 64.0 
670.296814 96.0 
670.630066 96.0 
670.925659 72.0 
671.008118 60.0 
671.188599 72.0 
671.389709 52.0 
672.447388 52.0 
672.758667 92.0 
672.793213 88.0 
672.855164 68.0 
673.650513 76.0 
673.707336 120.0 
673.789978 144.0 
673.96051 64.0 
674.11145 92.0 
674.198181 84.0 
674.281189 72.0 
674.404907 52.0 
674.715088 68.0 
675.816772 84.0 
676.344604 172.0 
676.562073 76.0 
676.73291 48.0 
676.769165 172.0 
676.908936 48.0 
677.116089 108.0 
677.16272 40.0 
677.530518 48.0 
677.856934 88.0 
678.341309 88.0 
678.681152 88.0 
678.924866 48.0 
678.99231 52.0 
679.028564 104.0 
679.09082 72.0 
679.666687 44.0 
680.118225 72.0 
680.471191 32.0 
680.642578 92.0 
681.276184 92.0 
681.717896 68.0 
681.793701 148.0 
681.936157 76.0 
682.0401 80.0 
682.346802 96.0 
683.522339 64.0 
683.563965 80.0 
684.219788 128.0 
684.2771 84.0 
684.70929 60.0 
684.766602 88.0 
685.045715 52.0 
685.219788 108.0 
687.018433 36.0 
687.675964 144.0 
687.921265 48.0 
688.11969 100.0 
688.579224 60.0 
689.054565 64.0 
689.153809 88.0 
689.370911 76.0 
689.4151 96.0 
689.963928 48.0 
690.094666 48.0 
690.204468 96.0 
690.43573 72.0 
690.513 40.0 
690.622864 92.0 
690.790222 60.0 
691.433838 60.0 
691.690308 68.0 
692.339539 48.0 
692.47052 72.0 
692.711426 60.0 
693.544617 72.0 
693.995483 60.0 
694.525146 76.0 
694.944824 80.0 
695.511658 116.0 
695.816101 68.0 
696.409546 84.0 
696.519836 68.0 
698.690979 60.0 
698.932983 68.0 
699.001404 128.0 
699.285583 116.0 
699.38031 76.0 
699.701477 84.0 
699.764648 52.0 
700.038452 96.0 
700.307068 64.0 
700.702148 168.0 
700.981384 100.0 
701.434692 36.0 
702.410217 88.0 
702.747864 132.0 
703.133118 120.0 
703.729614 48.0 
704.004211 44.0 
704.27356 72.0 
704.490112 64.0 
704.923401 56.0 
705.087219 28.0 
705.293335 116.0 
705.441345 40.0 
706.049438 100.0 
706.551941 72.0 
706.781494 176.0 
706.874695 52.0 
707.284973 68.0 
707.679321 68.0 
708.371155 92.0 
708.791626 92.0 
709.061951 44.0 
709.825317 116.0 
710.361023 144.0 
710.520142 72.0 
711.162292 76.0 
711.273743 36.0 
711.330505 80.0 
711.502014 88.0 
711.581665 48.0 
711.725037 64.0 
711.863098 84.0 
712.00116 72.0 
712.128601 96.0 
712.383606 60.0 
712.436707 52.0 
712.888367 80.0 
712.962769 196.0 
714.494629 44.0 
715.260498 92.0 
715.329712 104.0 
715.48407 80.0 
716.836975 44.0 
717.903198 56.0 
718.196533 80.0 
718.495239 104.0 
718.580627 56.0 
718.687317 56.0 
718.970154 64.0 
719.397156 48.0 
719.584045 84.0 
719.765564 28.0 
719.835022 112.0 
720.005859 56.0 
720.075317 92.0 
720.214172 44.0 
721.341675 44.0 
721.646423 44.0 
721.703674 124.0 
722.338257 88.0 
722.88208 96.0 
723.042603 52.0 
723.192505 40.0 
723.406616 192.0 
723.556519 152.0 
724.017029 64.0 
724.059814 108.0 
724.129456 64.0 
724.466919 44.0 
724.899719 108.0 
726.627502 76.0 
726.783142 84.0 
727.013855 68.0 
727.502319 52.0 
727.545288 44.0 
727.593567 68.0 
727.980164 68.0 
728.023132 36.0 
728.200378 76.0 
728.640015 76.0 
729.344849 68.0 
729.549133 120.0 
730.576294 64.0 
730.716187 68.0 
731.092834 84.0 
731.214539 152.0 
731.631104 100.0 
732.278625 64.0 
733.01001 108.0 
733.263306 76.0 
733.394592 88.0 
733.527405 136.0 
734.063416 164.0 
734.487244 96.0 
735.107727 100.0 
735.221069 36.0 
735.528687 60.0 
736.257629 60.0 
736.900391 52.0 
737.024719 80.0 
737.473267 48.0 
737.948975 148.0 
738.170654 100.0 
739.247192 100.0 
739.328369 92.0 
739.577332 80.0 
739.853394 48.0 
739.934631 84.0 
740.37323 92.0 
740.416565 84.0 
740.524902 100.0 
740.600708 92.0 
740.979919 60.0 
741.044922 92.0 
741.342957 76.0 
741.597717 48.0 
742.177795 52.0 
742.269958 68.0 
742.562805 48.0 
743.137817 116.0 
743.208374 52.0 
743.387451 48.0 
743.582825 132.0 
743.752441 96.0 
745.010925 64.0 
745.35321 108.0 
745.760803 80.0 
747.452209 76.0 
748.557251 124.0 
748.796875 56.0 
749.483276 172.0 
750.589844 76.0 
751.402527 104.0 
751.691711 48.0 
751.997375 48.0 
752.335815 164.0 
752.888855 136.0 
753.154907 84.0 
753.253235 80.0 
753.378906 76.0 
753.433533 108.0 
754.707031 100.0 
754.810913 180.0 
755.100769 32.0 
755.587585 168.0 
755.680603 120.0 
755.757202 92.0 
756.709595 96.0 
756.819092 68.0 
757.815979 32.0 
758.007751 44.0 
758.506531 56.0 
759.553833 72.0 
759.888489 64.0 
760.409851 88.0 
760.514099 80.0 
760.859985 44.0 
760.997192 68.0 
761.07959 32.0 
761.332153 92.0 
761.870483 160.0 
762.051758 28.0 
762.167175 64.0 
762.392456 88.0 
762.793701 64.0 
762.865173 48.0 
762.947632 76.0 
763.052124 160.0 
763.151062 112.0 
763.261047 88.0 
763.827515 52.0 
765.91925 92.0 
766.090027 60.0 
766.161682 92.0 
766.503296 52.0 
766.54187 64.0 
767.258423 204.0 
767.401733 120.0 
767.699524 140.0 
767.815308 44.0 
768.686951 48.0 
768.742188 96.0 
768.940857 116.0 
769.658508 128.0 
770.069153 156.0 
770.29364 76.0 
770.840637 148.0 
771.100403 160.0 
771.205383 108.0 
771.907532 56.0 
772.333374 28.0 
772.930908 64.0 
773.512024 152.0 
773.949402 92.0 
774.646362 52.0 
775.187805 176.0 
775.883057 68.0 
776.34082 72.0 
776.526306 128.0 
776.565125 48.0 
776.831421 104.0 
777.308594 72.0 
778.013489 68.0 
778.168945 48.0 
778.57428 48.0 
779.129761 56.0 
779.252014 68.0 
780.085632 68.0 
780.330261 148.0 
780.469238 44.0 
780.652771 68.0 
781.147766 76.0 
781.253479 60.0 
781.626282 76.0 
782.110474 116.0 
782.683899 132.0 
782.761841 140.0 
782.811951 188.0 
782.901062 60.0 
783.229675 192.0 
784.61731 44.0 
784.745544 128.0 
784.92395 136.0 
785.208374 148.0 
785.570923 180.0 
785.755066 172.0 
786.681458 152.0 
787.262146 32.0 
787.379456 48.0 
787.49115 156.0 
787.675476 128.0 
787.803955 44.0 
787.887756 60.0 
788.239746 52.0 
788.385437 56.0 
788.614197 168.0 
788.776306 144.0 
789.111755 76.0 
789.329834 92.0 
789.536743 60.0 
790.023376 68.0 
790.638855 116.0 
791.013916 64.0 
791.053101 64.0 
791.137024 96.0 
792.217896 204.0 
793.338745 76.0 
793.602234 88.0 
794.213501 176.0 
794.303284 160.0 
794.762146 96.0 
794.847473 112.0 
795.237366 188.0 
795.734314 60.0 
796.059998 52.0 
796.166687 84.0 
796.486877 52.0 
796.526184 36.0 
796.599182 148.0 
796.801453 44.0 
797.256592 60.0 
797.706238 88.0 
797.950134 148.0 
798.099792 96.0 
798.195435 100.0 
798.291016 116.0 
798.493469 120.0 
798.583435 68.0 
798.904114 64.0 
799.005371 60.0 
799.134766 76.0 
799.736938 88.0 
799.804443 100.0 
800.339294 36.0 
801.544739 48.0 
801.584167 76.0 
801.679993 40.0 
802.114014 96.0 
802.199585 88.0 
802.993591 64.0 
803.19104 172.0 
803.416687 84.0 
803.732605 60.0 
805.189087 92.0 
805.443298 44.0 
805.495239 144.0 
805.539307 176.0 
805.782227 128.0 
805.838745 76.0 
805.906555 84.0 
806.172119 104.0 
806.417236 172.0 
806.980469 128.0 
807.161377 68.0 
807.251892 48.0 
807.319275 48.0 
807.444153 32.0 
808.06073 92.0 
808.213501 68.0 
808.332336 48.0 
808.875671 248.0 
809.249329 64.0 
809.311646 68.0 
809.877991 40.0 
810.302856 80.0 
810.484131 80.0 
810.574829 56.0 
810.965881 236.0 
811.6745 52.0 
811.924072 64.0 
813.796692 184.0 
813.93866 148.0 
814.018127 96.0 
814.262329 116.0 
814.364563 128.0 
814.569092 72.0 
815.671509 52.0 
815.711243 84.0 
816.183167 76.0 
816.272522 152.0 
816.564209 44.0 
816.700684 128.0 
816.831543 60.0 
816.888428 68.0 
816.933899 92.0 
817.776062 48.0 
817.827332 56.0 
818.151794 140.0 
818.578857 68.0 
818.817993 84.0 
819.792236 92.0 
819.889099 96.0 
819.946106 144.0 
820.035583 108.0 
820.139893 80.0 
820.578857 92.0 
820.624451 60.0 
820.784119 40.0 
820.926697 112.0 
821.266846 68.0 
821.325928 48.0 
821.982056 64.0 
822.084778 80.0 
822.649841 76.0 
823.712891 52.0 
823.980469 72.0 
824.220459 188.0 
824.706238 100.0 
824.992065 104.0 
825.335083 52.0 
825.643921 96.0 
825.695374 72.0 
826.273132 92.0 
826.387573 60.0 
826.725159 84.0 
826.828186 156.0 
826.921631 132.0 
826.959839 108.0 
827.01709 140.0 
827.131531 140.0 
827.870117 92.0 
828.019043 160.0 
828.093506 40.0 
828.838257 96.0 
828.884094 72.0 
829.296753 60.0 
829.474426 96.0 
829.583374 172.0 
830.082153 68.0 
831.656067 72.0 
831.906738 48.0 
832.119141 168.0 
832.394775 124.0 
832.536255 196.0 
832.676147 76.0 
832.974854 104.0 
833.721802 84.0 
834.221863 128.0 
834.43457 84.0 
835.337524 48.0 
836.609314 152.0 
836.914429 112.0 
837.064148 120.0 
837.242676 68.0 
837.327454 104.0 
838.41626 68.0 
838.936707 76.0 
839.034729 100.0 
839.253845 100.0 
839.738281 96.0 
840.470947 68.0 
840.638245 140.0 
840.765198 36.0 
841.47522 64.0 
841.723511 152.0 
841.83905 72.0 
841.983398 160.0 
842.150879 68.0 
842.266418 80.0 
842.485962 56.0 
842.601501 156.0 
842.769043 120.0 
843.115784 80.0 
843.254456 156.0 
843.381653 128.0 
843.994446 36.0 
844.451294 32.0 
844.497559 56.0 
845.151306 188.0 
845.290161 112.0 
845.683716 56.0 
846.149658 112.0 
846.778015 72.0 
847.160339 56.0 
847.461609 84.0 
847.745544 60.0 
847.817688 212.0 
848.16864 52.0 
848.58606 76.0 
848.65564 108.0 
848.783203 152.0 
848.932068 136.0 
849.061584 132.0 
849.121399 84.0 
849.223938 128.0 
849.276184 228.0 
849.722839 112.0 
850.169678 144.0 
850.291504 76.0 
850.68042 136.0 
851.17395 92.0 
851.371399 96.0 
851.544678 120.0 
851.870911 168.0 
852.254395 132.0 
852.922729 60.0 
853.033142 156.0 
853.224976 148.0 
853.71344 148.0 
853.847168 156.0 
854.010071 52.0 
854.085693 80.0 
854.167114 148.0 
854.452454 84.0 
854.871094 116.0 
855.004944 48.0 
855.208679 44.0 
855.470642 72.0 
855.732605 48.0 
856.26001 168.0 
856.687744 144.0 
856.740173 92.0 
856.827576 108.0 
857.023743 84.0 
858.197266 140.0 
858.377991 168.0 
858.541321 140.0 
858.669617 60.0 
858.727966 52.0 
858.821289 88.0 
858.990417 72.0 
859.678894 92.0 
859.999939 172.0 
860.887329 108.0 
861.226074 48.0 
861.477295 60.0 
861.62915 112.0 
861.847046 84.0 
862.868225 36.0 
862.986206 156.0 
863.069214 192.0 
863.213196 44.0 
863.763 72.0 
863.821472 188.0 
863.985291 64.0 
864.06134 112.0 
864.552856 72.0 
864.816223 192.0 
864.909912 84.0 
865.231873 332.0 
865.512878 108.0 
865.659302 124.0 
866.051697 164.0 
866.20282 120.0 
866.701965 64.0 
866.907104 36.0 
867.123962 72.0 
867.258728 156.0 
867.422852 104.0 
867.598755 180.0 
867.716003 40.0 
868.190979 40.0 
868.308289 176.0 
868.407959 164.0 
868.531128 172.0 
868.73645 56.0 
868.783386 68.0 
869.622498 84.0 
870.186096 56.0 
870.321106 44.0 
870.479675 272.0 
871.231506 104.0 
871.519409 108.0 
871.572266 116.0 
872.453918 88.0 
872.689087 148.0 
872.800781 64.0 
873.512451 144.0 
873.606567 144.0 
874.118469 48.0 
874.236145 80.0 
874.38916 108.0 
875.183899 112.0 
875.454773 136.0 
875.560791 76.0 
875.855286 156.0 
876.037903 96.0 
876.267639 64.0 
876.491577 84.0 
877.002869 176.0 
877.263672 36.0 
878.354614 100.0 
878.448975 264.0 
878.96228 132.0 
879.871277 180.0 
880.544434 92.0 
881.230957 92.0 
881.596069 120.0 
881.779297 112.0 
882.122131 92.0 
882.269897 32.0 
882.476807 32.0 
882.973572 48.0 
883.13324 144.0 
883.210144 116.0 
883.452698 84.0 
884.139099 96.0 
884.221924 164.0 
884.340332 96.0 
884.429077 76.0 
885.204651 104.0 
885.370483 48.0 
885.542236 88.0 
885.743652 112.0 
885.805481 128.0 
886.028015 48.0 
886.388672 60.0 
886.623413 136.0 
886.80426 184.0 
886.893188 128.0 
887.071045 88.0 
887.272583 232.0 
887.460266 152.0 
887.521606 160.0 
887.626404 132.0 
888.138428 132.0 
888.203674 56.0 
888.547729 84.0 
888.874084 112.0 
889.556641 120.0 
889.639709 76.0 
890.0672 80.0 
890.114746 72.0 
890.822083 80.0 
890.875 60.0 
890.987854 88.0 
891.350281 68.0 
891.641296 104.0 
891.867371 156.0 
891.950562 60.0 
892.08728 136.0 
892.15863 108.0 
892.253784 64.0 
892.515381 72.0 
892.646179 228.0 
893.199341 140.0 
893.318298 96.0 
893.907349 148.0 
894.103699 104.0 
894.204895 136.0 
894.246582 76.0 
894.597778 36.0 
894.895447 48.0 
895.240845 72.0 
896.134338 60.0 
896.307129 40.0 
896.545471 120.0 
897.19519 104.0 
897.624512 188.0 
897.909546 136.0 
898.710144 96.0 
899.121887 176.0 
899.294983 156.0 
899.354675 124.0 
899.456177 172.0 
899.52179 140.0 
899.563599 64.0 
899.718811 128.0 
899.891968 144.0 
900.071106 352.0 
900.483154 104.0 
900.566772 220.0 
900.662354 144.0 
901.182129 44.0 
901.247803 96.0 
901.534546 172.0 
901.556274 168.0 
901.988892 52.0 
902.162292 204.0 
902.341614 124.0 
902.736267 44.0 
902.933655 48.0 
903.136963 68.0 
904.004517 168.0 
904.106262 100.0 
904.585083 180.0 
905.104797 184.0 
906.046326 156.0 
906.945251 156.0 
907.580688 56.0 
907.877563 64.0 
908.086853 160.0 
908.366394 124.0 
908.510376 40.0 
908.732361 116.0 
908.774353 68.0 
908.852356 164.0 
908.906372 160.0 
909.146362 144.0 
909.332458 132.0 
909.446472 148.0 
909.536499 140.0 
909.77063 48.0 
910.347046 144.0 
910.389099 124.0 
910.461182 88.0 
910.523743 172.0 
910.659363 184.0 
911.177856 128.0 
911.566528 164.0 
911.650696 120.0 
911.698242 48.0 
911.788879 152.0 
911.930969 148.0 
912.3479 56.0 
912.762817 128.0 
912.824707 148.0 
912.943176 88.0 
913.039429 140.0 
913.292236 128.0 
913.5401 260.0 
913.695068 76.0 
914.495422 132.0 
914.760315 56.0 
914.934875 120.0 
915.001099 156.0 
915.338318 80.0 
915.398499 148.0 
915.645447 228.0 
915.862244 136.0 
915.98877 212.0 
916.079102 216.0 
916.121277 160.0 
916.194946 224.0 
916.297485 48.0 
916.452637 96.0 
916.994995 116.0 
917.181885 92.0 
917.525513 60.0 
917.818726 132.0 
919.075562 100.0 
919.154053 60.0 
919.208313 120.0 
919.395447 144.0 
920.047302 100.0 
920.1922 92.0 
920.306946 132.0 
920.530396 228.0 
920.838379 56.0 
920.898743 144.0 
921.001465 76.0 
921.502869 44.0 
922.143433 100.0 
922.474426 168.0 
922.560547 76.0 
923.28009 92.0 
923.358704 124.0 
923.497803 84.0 
923.776062 176.0 
923.866821 68.0 
924.030151 164.0 
924.223755 156.0 
924.490051 152.0 
924.595947 232.0 
924.750305 152.0 
925.065369 72.0 
925.258362 120.0 
925.513062 172.0 
925.62207 100.0 
925.705994 144.0 
925.779541 80.0 
925.917053 112.0 
926.367065 40.0 
926.470032 104.0 
926.572998 156.0 
926.772949 160.0 
927.27594 128.0 
927.372925 156.0 
927.524475 92.0 
928.408752 132.0 
928.658325 136.0 
929.519836 124.0 
930.114624 148.0 
930.217834 160.0 
930.260315 164.0 
930.764221 92.0 
931.171143 112.0 
931.371582 100.0 
931.714233 168.0 
932.270752 76.0 
932.368042 116.0 
932.434875 164.0 
932.538208 84.0 
932.896851 76.0 
933.425781 60.0 
933.705566 108.0 
933.754211 132.0 
933.796753 116.0 
934.0401 168.0 
934.53894 112.0 
934.672791 80.0 
935.524902 36.0 
935.585815 52.0 
935.868225 124.0 
936.078979 112.0 
936.121643 92.0 
936.37738 216.0 
936.936096 100.0 
937.084045 136.0 
937.138855 84.0 
937.364319 156.0 
937.486206 108.0 
937.589844 44.0 
937.851929 92.0 
938.351807 60.0 
938.613953 184.0 
938.68103 172.0 
938.760315 40.0 
939.126282 180.0 
939.24823 108.0 
939.82782 104.0 
940.102417 80.0 
940.517456 64.0 
940.657837 88.0 
940.804382 148.0 
940.889832 40.0 
941.097412 68.0 
941.268433 72.0 
941.628723 136.0 
941.818054 116.0 
941.978882 160.0 
942.044067 104.0 
942.416748 184.0 
942.61499 92.0 
942.703979 312.0 
942.789551 160.0 
942.997314 40.0 
943.076782 104.0 
943.376343 56.0 
943.565857 40.0 
943.659241 88.0 
943.841003 136.0 
943.975525 88.0 
944.054993 44.0 
944.140625 72.0 
944.262939 52.0 
944.452576 88.0 
944.507629 144.0 
944.57489 108.0 
945.015381 68.0 
945.076599 84.0 
945.490723 212.0 
945.743652 144.0 
945.835449 64.0 
946.374207 132.0 
946.661987 132.0 
946.955994 80.0 
947.035583 168.0 
947.102966 68.0 
947.274475 112.0 
947.323486 56.0 
947.458313 128.0 
947.819763 96.0 
948.120056 88.0 
948.181335 72.0 
948.665588 108.0 
948.89856 144.0 
948.978271 148.0 
949.315552 124.0 
949.566956 72.0 
949.63446 176.0 
949.849121 180.0 
950.369202 104.0 
950.487183 36.0 
950.549744 104.0 
950.775635 92.0 
950.836975 68.0 
950.90448 148.0 
951.076355 108.0 
951.260498 80.0 
951.671875 156.0 
952.464111 172.0 
952.537842 176.0 
952.593079 56.0 
953.16449 192.0 
953.2229 64.0 
953.533203 168.0 
953.625427 204.0 
953.895874 152.0 
954.227844 132.0 
954.725952 56.0 
954.793579 136.0 
954.904297 112.0 
954.996582 56.0 
955.039612 96.0 
955.162231 64.0 
955.328735 172.0 
955.541748 124.0 
955.66095 48.0 
955.913269 40.0 
956.030212 184.0 
956.103821 112.0 
956.8349 104.0 
957.082825 180.0 
957.162903 148.0 
957.409241 68.0 
957.500671 108.0 
957.80957 84.0 
958.068298 108.0 
958.136047 68.0 
958.308594 48.0 
958.364014 108.0 
958.641296 100.0 
958.91864 160.0 
959.707764 120.0 
959.954407 196.0 
960.127075 56.0 
960.36145 116.0 
960.86731 136.0 
960.916687 196.0 
961.286865 96.0 
961.49054 212.0 
961.922607 156.0 
962.151001 88.0 
962.922913 144.0 
962.978516 72.0 
963.089661 52.0 
963.262634 64.0 
963.349121 188.0 
963.774475 180.0 
964.393433 204.0 
964.776672 100.0 
964.953796 164.0 
965.036377 168.0 
965.308411 148.0 
965.432129 80.0 
965.753723 132.0 
965.802551 112.0 
965.93927 140.0 
966.18634 416.0 
966.619873 60.0 
966.817932 128.0 
966.861206 132.0 
966.910767 104.0 
967.232605 48.0 
967.375 212.0 
967.529724 104.0 
967.573059 60.0 
967.864075 112.0 
968.442749 88.0 
968.557739 140.0 
968.675415 128.0 
968.867493 148.0 
968.972778 104.0 
969.084351 76.0 
969.307373 172.0 
969.697815 160.0 
969.815613 72.0 
969.883789 144.0 
969.939575 172.0 
970.249512 156.0 
970.404541 108.0 
970.609131 132.0 
970.677368 128.0 
971.109436 168.0 
971.738037 100.0 
971.948975 284.0 
971.998657 132.0 
972.166199 212.0 
972.315125 124.0 
972.457336 228.0 
972.596741 152.0 
972.668945 40.0 
972.966919 168.0 
973.035217 44.0 
973.078674 40.0 
973.358093 148.0 
973.414001 188.0 
973.457458 144.0 
973.563049 176.0 
973.972961 108.0 
974.027344 84.0 
974.339478 100.0 
974.569336 124.0 
974.842773 168.0 
974.898682 56.0 
974.960876 164.0 
975.054077 44.0 
975.228088 240.0 
975.377258 140.0 
975.545105 72.0 
975.706787 128.0 
975.924377 144.0 
976.222839 168.0 
976.651978 108.0 
976.851074 324.0 
977.363159 168.0 
977.63501 96.0 
977.709717 68.0 
978.929932 204.0 
979.266235 132.0 
979.448364 132.0 
979.495483 164.0 
979.608826 140.0 
979.652405 128.0 
979.870483 160.0 
979.995117 56.0 
980.101013 80.0 
980.157104 48.0 
980.375183 116.0 
980.443787 152.0 
980.942383 64.0 
981.179321 152.0 
981.328918 72.0 
981.391296 48.0 
981.441162 136.0 
981.528442 56.0 
981.653198 152.0 
981.703064 172.0 
981.908875 136.0 
982.135925 140.0 
982.311035 140.0 
982.925781 168.0 
983.000671 100.0 
983.119202 124.0 
983.587341 192.0 
983.674744 152.0 
983.812073 48.0 
984.04657 228.0 
984.117981 208.0 
984.639465 204.0 
984.723755 84.0 
984.836182 148.0 
984.889526 160.0 
985.292175 172.0 
985.335938 76.0 
985.685852 64.0 
985.742065 80.0 
986.091187 88.0 
986.379578 112.0 
986.42334 116.0 
986.474365 72.0 
986.65448 168.0 
986.765808 112.0 
987.036072 104.0 
987.098572 92.0 
987.32373 128.0 
987.473816 136.0 
987.573914 212.0 
987.617676 136.0 
987.999268 152.0 
988.287048 104.0 
988.455994 128.0 
988.572205 144.0 
988.73761 208.0 
989.035645 176.0 
989.507568 56.0 
989.563965 108.0 
990.252808 216.0 
990.534668 124.0 
991.038635 152.0 
991.161194 152.0 
991.236389 44.0 
991.455688 156.0 
991.505859 164.0 
991.572693 120.0 
991.737732 216.0 
992.01355 108.0 
992.687378 144.0 
992.791077 188.0 
992.891418 116.0 
993.054443 168.0 
993.443359 168.0 
993.524963 92.0 
993.570251 96.0 
993.719421 160.0 
994.183777 96.0 
994.434814 56.0 
994.798889 104.0 
995.269775 200.0 
996.130249 124.0 
996.293152 384.0 
996.557434 40.0 
996.771057 132.0 
996.840332 84.0 
997.022461 148.0 
997.066467 164.0 
997.259094 192.0 
997.305298 68.0 
997.575562 132.0 
997.81488 128.0 
997.908813 156.0 
998.179199 156.0 
998.303711 144.0 
998.684875 136.0 
998.776672 152.0 
999.56311 60.0 
999.651184 68.0 
999.915527 144.0 
1000.016235 52.0 
1000.141785 84.0 
1000.318359 132.0 
1000.482056 176.0 
1000.702393 40.0 
1000.784241 96.0 
1000.88501 140.0 
1000.960571 68.0 
1001.048706 76.0 
1001.246765 160.0 
1001.552551 116.0 
1001.659668 180.0 
1001.904175 128.0 
1001.987244 100.0 
1002.304688 116.0 
1002.541748 124.0 
1002.68042 92.0 
1002.756042 184.0 
1002.938843 128.0 
1002.989258 152.0 
1003.096436 128.0 
1003.235107 160.0 
1003.317078 168.0 
1003.556641 120.0 
1003.71936 188.0 
1003.841125 144.0 
1003.922363 136.0 
1003.993225 116.0 
1004.168335 152.0 
1004.275574 176.0 
1004.868591 100.0 
1005.22821 80.0 
1005.314148 136.0 
1005.385986 124.0 
1005.509399 204.0 
1005.676636 172.0 
1005.853088 164.0 
1005.985657 56.0 
1006.14978 56.0 
1006.19397 124.0 
1006.646484 180.0 
1006.906372 192.0 
1007.059143 104.0 
1007.318115 60.0 
1007.520264 36.0 
1007.839111 172.0 
1007.956238 64.0 
1008.06366 112.0 
1008.499756 64.0 
1008.702026 136.0 
1009.245728 168.0 
1009.30896 152.0 
1009.890808 104.0 
1010.072632 80.0 
1010.088135 60.0 
1010.108032 92.0 
1010.308289 144.0 
1010.523438 92.0 
1010.68158 88.0 
1010.757507 80.0 
1010.801819 176.0 
1010.896729 176.0 
1011.023315 144.0 
1011.409424 92.0 
1011.460022 136.0 
1011.674988 256.0 
1011.725891 44.0 
1011.971313 200.0 
1012.080383 212.0 
1012.346436 208.0 
1012.53009 180.0 
1012.606079 180.0 
1012.656799 172.0 
1012.720093 140.0 
1013.062195 184.0 
1013.556396 132.0 
1014.38031 160.0 
1014.494385 164.0 
1014.538757 124.0 
1014.830444 128.0 
1014.919189 100.0 
1015.096741 156.0 
1015.204529 112.0 
1015.257751 124.0 
1015.420166 84.0 
1015.521667 200.0 
1015.889587 140.0 
1015.953003 168.0 
1016.307007 172.0 
1016.430176 96.0 
1016.987366 76.0 
1017.501587 156.0 
1017.819031 124.0 
1017.878296 108.0 
1018.212769 112.0 
1018.289001 204.0 
1018.549438 96.0 
1018.803528 52.0 
1018.943298 184.0 
1019.070374 140.0 
1019.114807 124.0 
1019.426208 128.0 
1019.986389 144.0 
1020.182556 72.0 
1020.392395 132.0 
1020.595825 124.0 
1020.805908 128.0 
1020.988159 236.0 
1021.352661 168.0 
1021.429016 88.0 
1021.679749 148.0 
1021.821899 148.0 
1021.912476 204.0 
1022.058838 236.0 
1022.497925 132.0 
1022.625244 128.0 
1022.688904 140.0 
1022.875732 228.0 
1023.032654 84.0 
1023.159973 120.0 
1023.338257 260.0 
1023.465576 48.0 
1023.529236 160.0 
1023.592957 88.0 
1023.637512 68.0 
1023.682068 40.0 
1024.019653 104.0 
1024.299927 140.0 
1024.80957 140.0 
1025.00708 124.0 
1025.149902 136.0 
1025.77832 136.0 
1026.109741 48.0 
1026.333008 168.0 
1026.422241 132.0 
1026.492432 84.0 
1026.74585 156.0 
1026.887817 92.0 
1026.973755 156.0 
1027.26416 160.0 
1027.359863 56.0 
1027.493774 84.0 
1027.5448 100.0 
1027.895752 80.0 
1028.004272 116.0 
1028.304199 88.0 
1028.44458 172.0 
1028.610596 88.0 
1028.719116 84.0 
1028.974487 88.0 
1029.07666 48.0 
1029.172363 80.0 
1029.670532 100.0 
1029.772705 164.0 
1030.271606 112.0 
1030.385986 68.0 
1031.031372 152.0 
1031.07605 208.0 
1031.24231 172.0 
1031.293457 120.0 
1031.536255 164.0 
1031.689697 92.0 
1031.836792 132.0 
1032.55127 88.0 
1032.815186 36.0 
1032.92395 136.0 
1033.128662 144.0 
1033.327026 144.0 
1033.634155 84.0 
1034.31897 180.0 
1034.412109 176.0 
1034.594238 84.0 
1035.100098 96.0 
1035.215332 144.0 
1035.272949 92.0 
1035.330566 96.0 
1035.458618 160.0 
1035.509888 204.0 
1036.035156 160.0 
1036.189087 136.0 
1036.381104 64.0 
1036.481201 92.0 
1036.541382 64.0 
1037.143799 168.0 
1037.286377 188.0 
1037.611816 84.0 
1037.797729 140.0 
1038.060669 212.0 
1038.131104 136.0 
1038.253052 132.0 
1038.400513 120.0 
1038.625 80.0 
1038.682739 112.0 
1038.753296 132.0 
1038.83667 128.0 
1039.015625 72.0 
1039.106201 180.0 
1039.202393 120.0 
1039.272583 136.0 
1039.560669 92.0 
1039.638794 80.0 
1040.511719 104.0 
1040.627319 40.0 
1040.73645 192.0 
1040.826294 136.0 
1040.890625 152.0 
1041.224487 32.0 
1041.383423 184.0 
1041.598877 164.0 
1041.712646 152.0 
1042.078857 184.0 
1042.169189 148.0 
1042.217773 144.0 
1042.297363 160.0 
1042.451538 48.0 
1042.541504 164.0 
1042.605835 100.0 
1042.806519 88.0 
1042.875732 92.0 
1043.126465 120.0 
1043.171387 160.0 
1043.409302 92.0 
1043.467163 144.0 
1043.692261 76.0 
1043.750122 84.0 
1044.039185 156.0 
1044.31604 128.0 
1044.598999 156.0 
1044.695557 128.0 
1044.946411 148.0 
1045.40332 204.0 
1045.544922 32.0 
1045.840942 148.0 
1046.092041 160.0 
1046.227173 64.0 
1046.433228 144.0 
1046.504028 148.0 
1046.697266 144.0 
1046.81958 100.0 
1047.096558 148.0 
1047.186646 48.0 
1047.27063 128.0 
1047.502319 92.0 
1047.58606 52.0 
1047.644043 112.0 
1047.689087 188.0 
1047.998413 124.0 
1048.082153 132.0 
1048.21106 104.0 
1048.317505 132.0 
1048.449463 160.0 
1048.494629 60.0 
1048.752441 128.0 
1048.920044 88.0 
1048.978027 80.0 
1049.087646 148.0 
1049.13269 148.0 
1049.182739 204.0 
1049.207275 156.0 
1049.221436 136.0 
1049.313232 80.0 
1049.377686 60.0 
1049.429199 164.0 
1049.53894 136.0 
1049.616333 132.0 
1049.824341 172.0 
1049.8479 44.0 
1049.872559 168.0 
1049.970947 72.0 
1050.035522 68.0 
1050.241943 308.0 
1050.37085 96.0 
1050.568604 256.0 
1050.758667 120.0 
1051.112915 156.0 
1051.235474 80.0 
1051.461304 60.0 
1051.512939 92.0 
1051.62915 112.0 
1051.766602 108.0 
1052.216553 184.0 
1052.410278 184.0 
1052.558838 116.0 
1052.694458 156.0 
1052.823608 148.0 
1052.907593 124.0 
1053.223999 164.0 
1053.295044 44.0 
1053.540527 116.0 
1053.760254 120.0 
1053.921753 36.0 
1053.986328 124.0 
1054.277222 108.0 
1054.456665 140.0 
1054.73999 124.0 
1054.970947 132.0 
1055.110962 180.0 
1055.169189 84.0 
1055.233887 100.0 
1055.809326 96.0 
1055.932251 144.0 
1055.996948 112.0 
1056.052002 164.0 
1056.236206 160.0 
1056.410889 96.0 
1056.475586 52.0 
1056.598511 60.0 
1056.689087 112.0 
1056.753784 100.0 
1056.889648 164.0 
1057.070923 152.0 
1057.400879 192.0 
1057.633911 148.0 
1058.087158 208.0 
1058.268433 244.0 
1058.310425 120.0 
1058.417358 132.0 
1058.485229 152.0 
1058.825317 116.0 
1058.948364 112.0 
1059.200928 76.0 
1059.427734 88.0 
1059.518433 56.0 
1059.67395 180.0 
1059.898071 108.0 
1059.92334 112.0 
1060.125854 172.0 
1060.328369 92.0 
1060.503418 192.0 
1060.846924 80.0 
1060.931274 144.0 
1060.983154 88.0 
1061.177612 144.0 
1061.302368 188.0 
1061.43103 100.0 
1061.66394 160.0 
1061.858521 188.0 
1061.936279 132.0 
1062.383911 148.0 
1062.455322 60.0 
1062.533081 148.0 
1062.721313 28.0 
1062.825073 208.0 
1062.883545 100.0 
1063.013306 84.0 
1063.195068 136.0 
1063.266357 108.0 
1063.422119 100.0 
1063.805176 184.0 
1063.954468 144.0 
1064.032349 80.0 
1064.233643 112.0 
1064.421997 52.0 
1064.480347 124.0 
1064.542847 136.0 
1064.688232 148.0 
1064.805176 128.0 
1064.858521 88.0 
1065.026001 140.0 
1065.097412 172.0 
1065.174561 160.0 
1065.558594 160.0 
1065.922485 144.0 
1066.193604 176.0 
1066.403442 232.0 
1066.536743 172.0 
1066.608032 144.0 
1066.754517 68.0 
1066.85376 204.0 
1067.001465 124.0 
1067.313599 328.0 
1067.359131 120.0 
1067.476196 200.0 
1067.762329 72.0 
1067.885864 116.0 
1068.328247 144.0 
1068.438843 52.0 
1068.692627 88.0 
1068.77063 152.0 
1069.206665 140.0 
1069.258667 156.0 
1069.391602 152.0 
1069.477295 104.0 
1069.603638 128.0 
1069.739014 152.0 
1069.851074 180.0 
1069.987793 88.0 
1070.319824 136.0 
1070.485596 68.0 
1070.580322 112.0 
1070.769165 168.0 
1070.878662 160.0 
1071.10144 88.0 
1071.449585 132.0 
1071.524902 148.0 
1071.583496 132.0 
1071.637329 60.0 
1071.772461 60.0 
1072.143921 84.0 
1072.189453 100.0 
1072.287231 92.0 
1072.33667 124.0 
1072.476318 152.0 
1072.534912 48.0 
1072.722656 152.0 
1072.899048 140.0 
1072.95874 156.0 
1073.071899 152.0 
1073.159546 200.0 
1073.258667 80.0 
1073.362915 104.0 
1073.506348 120.0 
1073.589722 280.0 
1073.878174 200.0 
1073.975952 164.0 
1074.073853 128.0 
1074.119507 180.0 
1074.478271 176.0 
1074.628418 224.0 
1074.700195 152.0 
1074.804565 88.0 
1074.869751 172.0 
1074.969971 128.0 
1075.215698 124.0 
1075.267944 80.0 
1075.457153 208.0 
1075.692139 124.0 
1075.821289 152.0 
1076.206787 236.0 
1076.364624 176.0 
1076.757812 152.0 
1076.998169 128.0 
1077.442383 56.0 
1077.540405 92.0 
1078.285278 132.0 
1078.52063 136.0 
1078.612183 132.0 
1078.854004 136.0 
1079.12854 80.0 
1079.364258 196.0 
1079.41626 148.0 
1079.553589 184.0 
1079.684448 68.0 
1079.769409 96.0 
1079.834839 116.0 
1079.91333 120.0 
1080.262817 152.0 
1080.364746 168.0 
1080.430176 28.0 
1080.645996 80.0 
1080.711426 128.0 
1080.783447 136.0 
1081.6604 152.0 
1081.791382 176.0 
1081.928833 28.0 
1081.974609 124.0 
1082.092529 36.0 
1082.164551 92.0 
1082.426514 128.0 
1082.478882 120.0 
1082.616333 164.0 
1082.819336 140.0 
1082.878296 172.0 
1083.395874 136.0 
1083.496948 196.0 
1083.78894 80.0 
1083.8479 136.0 
1084.083862 160.0 
1084.247681 92.0 
1084.391846 144.0 
1084.522949 172.0 
1084.713013 84.0 
1084.817871 208.0 
1085.017822 140.0 
1085.064575 184.0 
1085.128906 136.0 
1085.25061 104.0 
1085.316162 152.0 
1085.486694 160.0 
1085.703125 140.0 
1086.090088 148.0 
1086.225708 172.0 
1086.326172 156.0 
1086.470581 120.0 
1086.562378 168.0 
1086.62146 140.0 
1086.818237 144.0 
1086.956055 80.0 
1087.03479 128.0 
1087.126709 124.0 
1087.218628 96.0 
1087.290771 200.0 
1087.398071 136.0 
1087.559937 132.0 
1087.763428 156.0 
1087.835571 108.0 
1087.973389 336.0 
1088.019409 148.0 
1088.190063 152.0 
1088.708862 60.0 
1089.027466 164.0 
1089.122681 128.0 
1089.221191 76.0 
1089.300049 104.0 
1089.345947 112.0 
1089.507446 156.0 
1089.575928 96.0 
1089.734253 132.0 
1089.81897 116.0 
1089.871582 100.0 
1090.04895 140.0 
1090.318481 60.0 
1090.522217 84.0 
1090.890259 140.0 
1091.126953 156.0 
1091.390015 228.0 
1091.642456 180.0 
1091.973511 88.0 
1092.119995 140.0 
1092.231812 132.0 
1092.376465 64.0 
1092.554199 80.0 
1092.60022 156.0 
1092.777832 72.0 
1092.863403 136.0 
1092.968628 96.0 
1093.053223 160.0 
1093.172607 56.0 
1093.396362 108.0 
1093.495117 116.0 
1093.814453 92.0 
1094.100708 252.0 
1094.423462 156.0 
1094.535278 172.0 
1094.62085 56.0 
1094.841064 136.0 
1094.963379 152.0 
1095.009399 160.0 
1095.055542 68.0 
1095.477173 116.0 
1095.628662 100.0 
1095.780151 124.0 
1095.826294 232.0 
1095.938354 184.0 
1096.366699 148.0 
1096.544556 136.0 
1096.650024 144.0 
1096.696167 52.0 
1096.953247 68.0 
1097.16626 216.0 
1097.454346 156.0 
1097.645508 168.0 
1098.258911 124.0 
1098.318237 76.0 
1098.443604 40.0 
1098.890991 180.0 
1098.997803 148.0 
1099.056763 136.0 
1099.281494 52.0 
1099.529053 176.0 
1099.79187 96.0 
1099.954712 64.0 
1100.126343 164.0 
1100.636597 144.0 
1100.890625 152.0 
1101.044189 168.0 
1101.196167 168.0 
1101.497192 296.0 
1101.625122 204.0 
1101.819214 124.0 
1101.876709 140.0 
1101.975586 100.0 
1102.093994 176.0 
1102.18042 64.0 
1102.226685 128.0 
1102.458008 108.0 
1102.548218 180.0 
1103.070435 148.0 
1103.211548 144.0 
1103.277588 64.0 
1103.3396 96.0 
1103.518433 180.0 
1103.846313 120.0 
1104.074707 172.0 
1104.365601 248.0 
1104.653198 164.0 
1104.812012 160.0 
1105.435791 128.0 
1105.465576 36.0 
1105.484863 120.0 
1105.546387 128.0 
1105.883911 108.0 
1106.075928 172.0 
1106.196899 216.0 
1106.354004 180.0 
1106.446655 168.0 
1106.512817 44.0 
1106.69165 140.0 
1106.744629 156.0 
1106.930054 52.0 
1107.327393 152.0 
1107.499512 116.0 
1107.729004 124.0 
1107.890381 224.0 
1108.016235 144.0 
1108.234985 164.0 
1108.28125 120.0 
1108.380737 208.0 
1108.440308 124.0 
1108.546387 68.0 
1108.725342 128.0 
1108.930786 96.0 
1109.129639 152.0 
1109.295288 140.0 
1109.441162 164.0 
1109.541138 52.0 
1109.646729 132.0 
1109.801147 136.0 
1109.885376 116.0 
1110.011353 68.0 
1110.144043 176.0 
1110.24353 44.0 
1110.316406 108.0 
1110.409302 72.0 
1110.495483 136.0 
1110.670898 240.0 
1110.893555 132.0 
1111.271729 136.0 
1111.570312 168.0 
1111.618164 136.0 
1111.782593 36.0 
1111.842407 188.0 
1111.921997 92.0 
1112.001709 200.0 
1112.426514 124.0 
1112.546021 136.0 
1112.632324 100.0 
1112.708496 148.0 
1112.754028 128.0 
1112.897827 144.0 
1113.130249 120.0 
1113.176758 112.0 
1113.774536 100.0 
1113.834351 44.0 
1114.08667 84.0 
1114.153198 132.0 
1114.213013 84.0 
1114.325928 120.0 
1114.391479 148.0 
1114.448242 168.0 
1114.678101 100.0 
1114.737915 132.0 
1114.824219 176.0 
1114.90979 164.0 
1114.942017 72.0 
1114.967163 144.0 
1115.256226 92.0 
1115.349365 148.0 
1115.464966 156.0 
1115.788086 32.0 
1115.947632 192.0 
1115.994263 52.0 
1116.18042 84.0 
1116.393188 124.0 
1116.517822 124.0 
1116.581421 140.0 
1116.725708 216.0 
1116.830322 160.0 
1116.85376 116.0 
1116.880981 72.0 
1116.901855 140.0 
1117.115723 212.0 
1117.204712 132.0 
1117.322388 184.0 
1117.481689 256.0 
1117.770264 44.0 
1117.949951 144.0 
1118.302612 116.0 
1118.4823 188.0 
1118.761963 100.0 
1118.808594 160.0 
1118.915039 320.0 
1119.041626 156.0 
1119.181396 128.0 
1119.307861 52.0 
1119.394531 92.0 
1119.734131 148.0 
1119.900635 148.0 
1120.033813 96.0 
1120.147095 152.0 
1120.193726 192.0 
1120.240356 208.0 
1120.307007 160.0 
1120.404297 236.0 
1120.4823 116.0 
1120.680054 168.0 
1120.780273 120.0 
1120.954468 116.0 
1121.100342 120.0 
1121.179932 176.0 
1121.286499 188.0 
1121.494019 188.0 
1121.616943 140.0 
1121.739746 172.0 
1121.854492 132.0 
1121.999756 76.0 
1122.046387 84.0 
1122.219727 260.0 
1122.326416 144.0 
1122.449707 76.0 
1122.5625 148.0 
1122.613159 68.0 
1122.666504 96.0 
1122.743896 128.0 
1122.839966 96.0 
1122.944214 204.0 
1123.030273 112.0 
1123.233521 120.0 
1123.32019 120.0 
1123.389526 208.0 
1123.491333 164.0 
1123.59375 40.0 
1123.854004 68.0 
1123.947388 208.0 
1124.054077 240.0 
1124.254395 92.0 
1124.347778 144.0 
1124.64209 84.0 
1124.774902 120.0 
1124.841675 72.0 
1124.901733 56.0 
1124.998169 180.0 
1125.168823 192.0 
1125.362427 52.0 
1125.422485 156.0 
1125.515991 64.0 
1125.582764 168.0 
1125.816772 108.0 
1126.043945 204.0 
1126.188599 212.0 
1126.364258 156.0 
1126.47876 184.0 
1126.610352 148.0 
1126.711548 96.0 
1126.778442 192.0 
1126.918701 188.0 
1127.279541 40.0 
1127.326294 164.0 
1127.425171 160.0 
1127.616699 136.0 
1127.770752 120.0 
1127.847656 104.0 
1127.994751 168.0 
1128.041504 84.0 
1128.361084 140.0 
1128.592285 92.0 
1128.645996 156.0 
1128.750244 116.0 
1128.858887 184.0 
1129.742676 204.0 
1130.000977 124.0 
1130.12146 100.0 
1130.208496 168.0 
1130.255249 132.0 
1130.356812 120.0 
1130.422607 96.0 
1130.482788 108.0 
1130.539062 172.0 
1130.616699 300.0 
1130.717041 132.0 
1130.864258 148.0 
1130.971436 56.0 
1131.212402 92.0 
1131.567139 112.0 
1131.64856 100.0 
1131.769531 112.0 
1131.903687 144.0 
1131.968994 156.0 
1132.029175 96.0 
1132.143066 168.0 
1132.357422 192.0 
1132.477905 104.0 
1132.544922 48.0 
1132.799438 152.0 
1132.980347 264.0 
1133.046143 132.0 
1133.348877 124.0 
1133.444946 144.0 
1133.526245 128.0 
1133.603516 104.0 
1133.759033 132.0 
1133.908447 64.0 
1134.164673 144.0 
1134.266357 160.0 
1134.43457 32.0 
1134.484863 180.0 
1134.709473 180.0 
1134.804321 116.0 
1135.22583 128.0 
1135.292847 356.0 
1135.339844 132.0 
1135.628174 76.0 
1135.745239 88.0 
1135.809326 160.0 
1135.889771 52.0 
1136.010498 168.0 
1136.164917 180.0 
1136.281494 168.0 
1136.392944 104.0 
1136.478516 148.0 
1136.594238 88.0 
1136.871094 192.0 
1137.077515 84.0 
1137.305664 152.0 
1137.453369 148.0 
1137.648071 128.0 
1137.813843 96.0 
1137.856812 164.0 
1137.982056 164.0 
1138.104614 108.0 
1138.198608 68.0 
1138.317749 140.0 
1138.386597 160.0 
1138.849976 48.0 
1138.915527 160.0 
1139.064941 160.0 
1139.206055 76.0 
1139.273193 168.0 
1139.363037 176.0 
1139.521851 144.0 
1139.568848 72.0 
1139.830933 176.0 
1139.884644 140.0 
1140.069092 160.0 
1140.765137 108.0 
1140.832397 116.0 
1140.963623 172.0 
1141.238403 152.0 
1141.340576 196.0 
1141.359619 116.0 
1141.450928 264.0 
1141.635864 176.0 
1141.800659 132.0 
1141.96875 100.0 
1142.049438 112.0 
1142.157104 120.0 
1142.210938 132.0 
1142.352173 136.0 
1142.456665 68.0 
1142.827148 224.0 
1143.15918 124.0 
1143.216187 216.0 
1143.327881 152.0 
1143.453125 136.0 
1143.564087 84.0 
1143.617188 132.0 
1143.711426 72.0 
1144.108398 92.0 
1144.176025 108.0 
1144.260864 180.0 
1144.499146 172.0 
1144.560425 116.0 
1144.627075 96.0 
1144.822388 132.0 
1145.058105 124.0 
1145.307373 172.0 
1145.431152 156.0 
1145.536377 136.0 
1145.59021 148.0 
1145.745239 80.0 
1146.216797 120.0 
1146.323486 164.0 
1146.62793 136.0 
1146.796387 96.0 
1146.877319 144.0 
1147.093018 144.0 
1147.27832 180.0 
1147.378784 152.0 
1147.490845 52.0 
1147.585205 120.0 
1148.158325 104.0 
1148.302612 172.0 
1148.556274 164.0 
1148.799194 88.0 
1148.852661 108.0 
1148.934082 132.0 
1149.028564 176.0 
1149.102783 164.0 
1149.296265 248.0 
1149.339844 212.0 
1149.752075 224.0 
1149.878784 76.0 
1149.966553 156.0 
1150.088013 96.0 
1150.155518 300.0 
1150.651978 128.0 
1150.75769 140.0 
1151.161499 116.0 
1151.523438 176.0 
1151.549316 104.0 
1151.677734 140.0 
1151.74231 152.0 
1151.87561 120.0 
1151.985596 60.0 
1152.056641 176.0 
1152.161255 160.0 
1152.208496 164.0 
1152.31665 196.0 
1152.384155 136.0 
1152.47876 36.0 
1152.573364 164.0 
1152.634155 88.0 
1152.809814 144.0 
1153.004395 180.0 
1153.127563 96.0 
1153.228882 92.0 
1153.282959 92.0 
1153.364136 148.0 
1153.418213 88.0 
1153.600708 88.0 
1153.833008 284.0 
1153.932007 64.0 
1154.040161 188.0 
1154.155029 32.0 
1154.324829 204.0 
1154.60144 176.0 
1154.851685 120.0 
1155.379272 108.0 
1155.645874 176.0 
1155.758179 48.0 
1155.832642 144.0 
1155.981445 48.0 
1156.069458 172.0 
1156.171021 52.0 
1156.279297 116.0 
1156.345093 172.0 
1156.644775 144.0 
1156.908813 100.0 
1157.03064 132.0 
1157.247192 144.0 
1157.504028 172.0 
1157.633301 156.0 
1157.829712 136.0 
1157.918945 176.0 
1158.012573 188.0 
1158.143921 168.0 
1158.379883 212.0 
1158.439331 184.0 
1158.559082 188.0 
1158.635742 132.0 
1158.75769 96.0 
1158.805176 104.0 
1158.876221 156.0 
1159.028687 116.0 
1159.188599 172.0 
1159.509888 140.0 
1159.719971 244.0 
1159.79187 184.0 
1159.845093 204.0 
1159.916626 184.0 
1160.07251 172.0 
1160.140259 40.0 
1160.19458 184.0 
1160.377563 84.0 
1160.628418 88.0 
1160.703003 100.0 
1160.865479 164.0 
1160.977295 200.0 
1161.177734 88.0 
1161.340576 172.0 
1161.522339 216.0 
1161.856079 80.0 
1161.957886 176.0 
1162.168213 148.0 
1162.487183 120.0 
1162.572388 184.0 
1162.663574 140.0 
1162.738281 120.0 
1162.925049 128.0 
1163.0177 200.0 
1163.220093 116.0 
1163.484863 100.0 
1163.55957 176.0 
1163.923218 188.0 
1164.082397 180.0 
1164.16394 192.0 
1164.36084 156.0 
1164.476318 140.0 
1164.551025 184.0 
1164.775146 180.0 
1164.840088 116.0 
1164.921387 188.0 
1165.080933 108.0 
1165.223633 184.0 
1165.305054 152.0 
1165.366211 108.0 
1165.420654 108.0 
1165.483765 164.0 
1165.61084 72.0 
1165.712769 168.0 
1165.784912 144.0 
1165.950684 76.0 
1166.086548 152.0 
1166.215698 156.0 
1166.27356 112.0 
1166.378906 128.0 
1166.548828 68.0 
1166.650757 132.0 
1166.766357 148.0 
1166.8479 120.0 
1166.990723 84.0 
1167.065552 132.0 
1167.185669 148.0 
1167.371582 52.0 
1167.425903 32.0 
1167.677612 144.0 
1167.861206 56.0 
1167.936035 60.0 
1168.03125 132.0 
1168.350952 212.0 
1168.453003 64.0 
1168.507446 244.0 
1168.620605 120.0 
1168.704834 116.0 
1168.765991 228.0 
1168.897217 56.0 
1169.079102 104.0 
1169.358154 52.0 
1169.426147 124.0 
1169.535034 148.0 
1169.814941 116.0 
1170.236328 64.0 
1170.309692 208.0 
1170.428467 108.0 
1170.474609 136.0 
1170.932983 140.0 
1170.956909 88.0 
1170.980469 124.0 
1171.135254 140.0 
1171.207642 120.0 
1171.259644 104.0 
1171.337402 140.0 
1171.414429 96.0 
1171.557495 144.0 
1171.639282 160.0 
1171.768799 112.0 
1171.907349 128.0 
1172.034424 32.0 
1172.082153 148.0 
1172.21167 84.0 
1172.327515 132.0 
1172.375244 128.0 
1172.484253 56.0 
1172.723877 120.0 
1172.811401 196.0 
1172.859131 160.0 
1173.043213 64.0 
1173.1604 40.0 
1173.726562 156.0 
1174.039551 128.0 
1174.140991 156.0 
1174.461548 80.0 
1174.543335 124.0 
1174.710449 224.0 
1174.857178 116.0 
1175.020874 68.0 
1175.109619 112.0 
1175.239258 104.0 
1175.491699 180.0 
1175.546265 132.0 
1175.621338 92.0 
1175.734131 128.0 
1175.950195 68.0 
1176.092285 144.0 
1176.249268 160.0 
1176.331299 140.0 
1176.3927 172.0 
1176.713501 132.0 
1176.802368 80.0 
1176.940796 84.0 
1177.382812 108.0 
1177.656006 140.0 
1177.833252 156.0 
1177.961548 76.0 
1178.02478 88.0 
1178.209229 156.0 
1178.263916 140.0 
1178.509888 124.0 
1178.630859 128.0 
1178.680298 128.0 
1178.755859 76.0 
1178.87207 272.0 
1178.954102 152.0 
1179.029297 76.0 
1179.118042 180.0 
1179.243652 140.0 
1179.368774 124.0 
1179.432495 256.0 
1179.710205 120.0 
1179.7948 180.0 
1179.866821 120.0 
1179.958862 80.0 
1180.205078 92.0 
1180.455688 208.0 
1180.786377 112.0 
1180.841064 164.0 
1180.911621 136.0 
1181.032593 132.0 
1181.093018 120.0 
1181.182983 144.0 
1181.234375 160.0 
1181.287964 96.0 
1181.436157 164.0 
1181.593506 156.0 
1181.682495 84.0 
1181.819336 148.0 
1182.004028 144.0 
1182.093018 116.0 
1182.270996 120.0 
1182.613159 136.0 
1182.986328 148.0 
1183.093994 200.0 
1183.204102 180.0 
1183.311401 144.0 
1183.424438 164.0 
1183.598999 100.0 
1183.698608 188.0 
1183.773438 140.0 
1183.802612 104.0 
1183.835693 216.0 
1183.907104 160.0 
1184.246338 120.0 
1184.407104 132.0 
1184.501831 176.0 
1184.596802 152.0 
1184.740723 172.0 
1185.161011 132.0 
1185.311523 48.0 
1185.44165 172.0 
1185.568115 232.0 
1185.702148 108.0 
1185.750122 192.0 
1186.051514 120.0 
1186.332764 164.0 
1186.623779 132.0 
1186.79895 160.0 
1186.942993 116.0 
1187.224121 96.0 
1187.532715 128.0 
1187.724854 120.0 
1187.868896 40.0 
1188.026611 212.0 
1188.085449 204.0 
1188.162109 168.0 
1188.360962 280.0 
1188.459717 124.0 
1188.548828 156.0 
1188.640503 120.0 
1188.844604 132.0 
1189.000977 48.0 
1189.083374 184.0 
1189.37854 72.0 
1189.488403 64.0 
1189.543213 104.0 
1189.605103 180.0 
1189.653076 188.0 
1189.782959 224.0 
1189.93457 80.0 
1189.985718 132.0 
1190.05896 136.0 
1190.212158 140.0 
1190.489868 148.0 
1190.580078 148.0 
1190.641357 104.0 
1190.731201 216.0 
1190.871826 132.0 
1191.053955 144.0 
1191.122681 52.0 
1191.214844 124.0 
1191.232056 52.0 
1191.266724 120.0 
1191.277344 92.0 
1191.32666 292.0 
1191.521118 84.0 
1191.665405 156.0 
1191.850952 68.0 
1191.967773 156.0 
1192.283813 136.0 
1192.579468 116.0 
1192.737793 196.0 
1192.888794 76.0 
1193.012451 84.0 
1193.274292 104.0 
1193.47998 80.0 
1193.679443 120.0 
1193.878906 208.0 
1193.995728 120.0 
1194.043945 176.0 
1194.112671 176.0 
1194.172729 168.0 
1194.250244 180.0 
1194.307739 340.0 
1194.430908 136.0 
1194.511597 144.0 
1194.712402 128.0 
1194.766235 116.0 
1194.825928 136.0 
1195.048218 152.0 
1195.158325 192.0 
1195.279907 84.0 
1195.394897 76.0 
1195.454224 116.0 
1195.523071 80.0 
1195.79834 132.0 
1195.867188 104.0 
1196.225098 164.0 
1196.273315 320.0 
1196.335327 164.0 
1196.596924 244.0 
1196.713989 156.0 
1196.863647 124.0 
1197.037598 52.0 
1197.140869 148.0 
1197.230347 80.0 
1197.326782 52.0 
1197.547241 148.0 
1197.616089 120.0 
1197.760742 68.0 
1197.82959 124.0 
1197.891602 76.0 
1197.939819 68.0 
1198.132812 188.0 
1198.353271 160.0 
1198.446289 72.0 
1198.849365 56.0 
1198.952759 148.0 
1199.059204 116.0 
1199.258789 132.0 
1199.319336 108.0 
1199.474854 112.0 
1199.552368 96.0 
1199.66272 152.0 
1199.752319 140.0 
1199.800537 172.0 
1199.890259 136.0 
1200.097046 140.0 
1200.298096 216.0 
1200.53833 136.0 
1200.731445 64.0 
1200.800659 140.0 
1200.910767 72.0 
1201.283325 48.0 
1201.379883 148.0 
1201.469604 84.0 
1201.658203 128.0 
1201.862915 108.0 
1202.06604 116.0 
1202.125122 160.0 
1202.180298 68.0 
1202.228638 100.0 
1202.435669 176.0 
1202.67749 144.0 
1202.732422 92.0 
1202.884277 140.0 
1203.012207 112.0 
1203.10498 132.0 
1203.415894 124.0 
1203.471313 132.0 
1203.588501 124.0 
1203.712769 152.0 
1203.899292 76.0 
1203.988281 156.0 
1204.070068 136.0 
1204.200928 152.0 
1204.291382 128.0 
1204.339233 332.0 
1204.4104 72.0 
1204.479492 136.0 
1204.617554 40.0 
1205.108154 152.0 
1205.207275 136.0 
1205.343018 100.0 
1205.439819 168.0 
1205.7854 232.0 
1205.850952 184.0 
1206.055054 160.0 
1206.227783 48.0 
1206.310669 144.0 
1206.483521 104.0 
1206.794678 176.0 
1206.998779 184.0 
1207.244141 160.0 
1207.569214 116.0 
1207.617554 144.0 
1208.074097 84.0 
1208.136353 168.0 
1208.254028 208.0 
1208.73938 128.0 
1208.800659 88.0 
1208.959839 140.0 
1209.049805 168.0 
1209.24353 104.0 
1209.393921 144.0 
1209.471924 112.0 
1209.553833 164.0 
1209.679565 144.0 
1210.047852 164.0 
1210.240479 156.0 
1210.316528 108.0 
1210.443481 144.0 
1210.572754 132.0 
1210.628174 112.0 
1210.690552 136.0 
1210.752808 208.0 
1210.841797 192.0 
1211.064575 180.0 
1211.175415 180.0 
1211.265381 112.0 
1211.437256 212.0 
1211.574585 152.0 
1211.707275 152.0 
1211.916626 148.0 
1212.124512 80.0 
1212.287476 164.0 
1212.491821 92.0 
1212.574951 136.0 
1212.639893 104.0 
1212.764282 164.0 
1212.917969 156.0 
1213.124634 196.0 
1213.19812 160.0 
1213.270508 128.0 
1213.372192 116.0 
1213.455322 88.0 
1213.760498 212.0 
1214.01709 60.0 
1214.086426 52.0 
1214.24585 136.0 
1214.367676 64.0 
1214.453979 124.0 
1214.516357 156.0 
1214.726562 248.0 
1214.922607 128.0 
1215.106079 64.0 
1215.189331 140.0 
1215.251831 172.0 
1215.376709 68.0 
1215.515503 56.0 
1215.640381 196.0 
1215.712036 156.0 
1215.806885 60.0 
1216.153931 292.0 
1216.523682 104.0 
1216.732178 148.0 
1216.855103 80.0 
1216.959229 108.0 
1217.028687 160.0 
1217.223145 120.0 
1217.313354 76.0 
1217.396729 100.0 
1217.500854 120.0 
1217.549561 72.0 
1217.702271 104.0 
1217.799561 176.0 
1217.848145 92.0 
1217.966309 132.0 
1218.119019 280.0 
1218.209351 120.0 
1218.265015 112.0 
1218.311523 140.0 
1218.362183 88.0 
1218.465088 180.0 
1218.474731 144.0 
1218.534912 144.0 
1218.633179 140.0 
1218.848633 40.0 
1219.084106 152.0 
1219.486206 108.0 
1219.564453 196.0 
1219.760132 148.0 
1219.863281 148.0 
1220.020142 220.0 
1220.27356 64.0 
1220.398682 292.0 
1220.546021 260.0 
1220.683716 184.0 
1220.807129 172.0 
1220.899292 128.0 
1221.009399 156.0 
1221.027466 168.0 
1221.049072 60.0 
1221.185547 52.0 
1221.28125 144.0 
1221.38623 44.0 
1221.573975 116.0 
1221.935791 124.0 
1222.116699 148.0 
1222.34021 128.0 
1222.401978 136.0 
1222.482056 128.0 
1222.56897 100.0 
1222.687378 96.0 
1222.805664 188.0 
1222.908569 96.0 
1223.118896 104.0 
1223.188477 120.0 
1223.244141 120.0 
1223.369507 276.0 
1223.523315 164.0 
1223.627075 172.0 
1223.717529 152.0 
1223.845093 104.0 
1223.954346 68.0 
1224.15625 168.0 
1224.212036 152.0 
1224.2677 140.0 
1224.319946 128.0 
1224.455688 184.0 
1224.760376 188.0 
1225.096558 144.0 
1225.19397 164.0 
1225.709717 160.0 
1225.946655 224.0 
1226.029419 164.0 
1226.093018 136.0 
1226.357788 96.0 
1226.420532 208.0 
1226.529541 164.0 
1226.657593 116.0 
1226.809326 124.0 
1226.873657 152.0 
1227.075928 176.0 
1227.152588 80.0 
1227.442993 280.0 
1227.536133 132.0 
1227.675537 168.0 
1227.766846 172.0 
1227.911499 120.0 
1228.015015 120.0 
1228.036499 80.0 
1228.057617 128.0 
1228.18396 160.0 
1228.312256 96.0 
1228.388306 220.0 
1228.528809 120.0 
1228.617188 76.0 
1228.840454 92.0 
1228.93811 220.0 
1229.026123 224.0 
1229.126587 152.0 
1229.316895 156.0 
1229.461548 196.0 
1229.812866 272.0 
1230.033813 72.0 
1230.119629 236.0 
1230.201416 120.0 
1230.25354 144.0 
1230.599365 192.0 
1230.715698 164.0 
1230.948486 240.0 
1231.234863 72.0 
1231.334106 160.0 
1231.440186 136.0 
1231.642578 308.0 
1231.919312 200.0 
1232.180908 152.0 
1232.282349 120.0 
1232.352539 152.0 
1232.527222 80.0 
1232.946533 60.0 
1233.126953 156.0 
1233.449707 80.0 
1233.547607 136.0 
1233.68042 132.0 
1233.746704 168.0 
1233.867188 228.0 
1234.162842 164.0 
1234.269897 152.0 
1234.337646 60.0 
1234.477661 152.0 
1234.551758 224.0 
1234.652344 128.0 
1234.82019 148.0 
1234.932129 80.0 
1235.065063 160.0 
1235.214233 132.0 
1235.414795 160.0 
1235.477783 164.0 
1235.593628 128.0 
1235.708618 204.0 
1235.771606 152.0 
1235.841553 172.0 
1236.145752 176.0 
1236.219482 116.0 
1236.401367 80.0 
1236.495361 152.0 
1236.637817 180.0 
1236.758301 216.0 
1236.814331 128.0 
1236.968384 120.0 
1237.059326 116.0 
1237.122314 96.0 
1237.206299 116.0 
1237.550415 216.0 
1237.668457 120.0 
1237.854126 92.0 
1237.873535 192.0 
1237.962524 112.0 
1238.074585 88.0 
1238.144653 112.0 
1238.244873 192.0 
1238.396851 184.0 
1238.571899 188.0 
1238.677979 220.0 
1238.778198 136.0 
1238.893433 216.0 
1238.999268 36.0 
1239.083252 68.0 
1239.349609 116.0 
1239.657837 172.0 
1239.749023 128.0 
1239.994263 160.0 
1240.099365 180.0 
1240.330688 60.0 
1240.499023 128.0 
1240.555054 164.0 
1240.604126 156.0 
1240.807495 132.0 
1240.89856 260.0 
1241.059814 140.0 
1241.221069 144.0 
1241.322998 136.0 
1241.407715 156.0 
1241.673462 288.0 
1241.810181 164.0 
1241.94043 192.0 
1242.048706 104.0 
1242.126221 176.0 
1242.231079 132.0 
1242.294189 100.0 
1242.483643 108.0 
1242.553833 124.0 
1242.609985 80.0 
1242.67688 192.0 
1242.885498 172.0 
1242.967651 300.0 
1243.064575 140.0 
1243.143188 184.0 
1243.318726 176.0 
1243.367798 68.0 
1243.578369 108.0 
1243.71875 144.0 
1243.822754 136.0 
1243.861206 160.0 
1244.029541 116.0 
1244.132935 212.0 
1244.195679 144.0 
1244.371826 148.0 
1244.441895 172.0 
1244.589233 132.0 
1245.003662 100.0 
1245.130005 56.0 
1245.186157 124.0 
1245.235352 56.0 
1245.347778 68.0 
1245.447754 124.0 
1245.586548 88.0 
1245.716309 160.0 
1245.846558 56.0 
1245.90979 100.0 
1245.965942 68.0 
1246.338379 176.0 
1246.579224 172.0 
1246.719971 132.0 
1246.823242 188.0 
1247.174683 164.0 
1247.293823 76.0 
1247.392578 148.0 
1247.533203 68.0 
1247.631592 292.0 
1247.962769 112.0 
1248.039307 144.0 
1248.219727 204.0 
1248.365234 164.0 
1248.419067 120.0 
1248.545654 156.0 
1248.808838 152.0 
1249.021606 128.0 
1249.073242 56.0 
1249.143555 112.0 
1249.260376 120.0 
1249.453125 128.0 
1249.509399 80.0 
1249.840088 168.0 
1249.987793 96.0 
1250.339722 240.0 
1250.395996 220.0 
1250.452271 80.0 
1250.538452 188.0 
1250.621216 100.0 
1250.733887 156.0 
1250.895752 176.0 
1250.945068 168.0 
1251.008423 108.0 
1251.339355 152.0 
1251.447876 144.0 
1251.662231 112.0 
1251.944946 36.0 
1252.268921 136.0 
1252.38855 76.0 
1252.458984 52.0 
1252.703857 132.0 
1252.832397 52.0 
1252.907959 192.0 
1252.982788 220.0 
1253.057983 148.0 
1253.255127 88.0 
1253.381958 208.0 
1253.469604 100.0 
1253.6427 208.0 
1253.790649 64.0 
1253.889404 296.0 
1253.938721 132.0 
1254.002197 144.0 
1254.171265 100.0 
1254.375732 132.0 
1254.474365 172.0 
1254.551514 168.0 
1254.615356 48.0 
1254.685913 116.0 
1254.74939 96.0 
1254.855103 260.0 
1254.984375 168.0 
1255.098389 168.0 
1255.186523 124.0 
1255.513916 180.0 
1255.651978 152.0 
1255.715454 192.0 
1255.932617 156.0 
1255.994507 280.0 
1256.124512 324.0 
1256.251587 116.0 
1256.343262 96.0 
1256.59021 76.0 
1256.704346 136.0 
1256.830078 96.0 
1256.942993 108.0 
1257.00647 128.0 
1257.112305 144.0 
1257.49585 236.0 
1257.550415 124.0 
1257.604004 144.0 
1257.648438 204.0 
1257.754639 72.0 
1257.886353 180.0 
1257.994629 124.0 
1258.051147 48.0 
1258.121704 112.0 
1258.227661 140.0 
1258.400391 188.0 
1258.630005 216.0 
1258.693604 104.0 
1258.7854 164.0 
1258.845337 164.0 
1259.074341 180.0 
1259.13855 124.0 
1259.230347 96.0 
1259.519897 172.0 
1259.668335 208.0 
1259.78833 116.0 
1260.077881 184.0 
1260.178101 144.0 
1260.235596 124.0 
1260.414062 252.0 
1260.544434 112.0 
1260.789429 144.0 
1260.936157 176.0 
1261.091187 88.0 
1261.307495 148.0 
1261.512695 204.0 
1261.688354 160.0 
1261.880371 196.0 
1261.99292 56.0 
1262.047729 320.0 
1262.122559 108.0 
1262.248047 136.0 
1262.447876 124.0 
1262.544067 176.0 
1262.672363 108.0 
1262.778442 32.0 
1263.34436 80.0 
1263.443359 100.0 
1263.535645 236.0 
1263.579346 124.0 
1263.761719 60.0 
1263.941406 164.0 
1264.063599 164.0 
1264.223145 196.0 
1264.313721 160.0 
1264.367798 56.0 
1264.508057 156.0 
1264.582642 112.0 
1264.646362 176.0 
1264.789429 164.0 
1264.859741 252.0 
1264.982178 100.0 
1265.085205 104.0 
1265.240967 124.0 
1265.333008 172.0 
1265.425415 152.0 
1265.56665 152.0 
1265.859985 348.0 
1265.956177 132.0 
1266.083618 148.0 
1266.189819 288.0 
1266.331543 196.0 
1266.413818 124.0 
1266.537964 104.0 
1266.664429 100.0 
1266.76355 100.0 
1266.997437 272.0 
1267.106201 100.0 
1267.280762 172.0 
1267.337524 176.0 
1267.394165 156.0 
1267.623535 172.0 
1267.812256 80.0 
1267.946899 128.0 
1268.128662 188.0 
1268.173706 228.0 
1268.230469 212.0 
1268.349854 104.0 
1268.421509 104.0 
1268.634521 136.0 
1268.71582 176.0 
1268.840088 100.0 
1268.996094 224.0 
1269.251343 164.0 
1269.315186 184.0 
1269.371826 160.0 
1269.584595 152.0 
1269.69812 56.0 
1269.752563 228.0 
1269.872437 180.0 
1269.939209 140.0 
1269.995972 156.0 
1270.086182 224.0 
1270.244263 112.0 
1270.309326 136.0 
1270.449219 160.0 
1270.542236 36.0 
1270.591919 76.0 
1270.641479 48.0 
1270.733765 164.0 
1270.86145 124.0 
1270.988892 76.0 
1270.999023 124.0 
1271.060181 32.0 
1271.152466 56.0 
1271.213989 156.0 
1271.322754 184.0 
1271.45459 124.0 
1271.521484 120.0 
1271.602783 268.0 
1271.741455 188.0 
1271.835083 112.0 
1271.964722 108.0 
1272.060913 52.0 
1272.150879 172.0 
1272.309326 128.0 
1272.419189 164.0 
1272.515259 152.0 
1272.657227 128.0 
1272.822388 172.0 
1273.047607 280.0 
1273.346069 112.0 
1273.438477 124.0 
1273.646362 364.0 
1273.814941 260.0 
1273.983154 124.0 
1274.042236 96.0 
1274.104004 172.0 
1274.152222 124.0 
1274.18335 60.0 
1274.210327 176.0 
1274.269653 196.0 
1274.528931 112.0 
1274.724365 68.0 
1274.901978 156.0 
1274.980225 116.0 
1275.05835 88.0 
1275.108154 228.0 
1275.22937 144.0 
1275.281982 136.0 
1275.337646 152.0 
1275.506226 100.0 
1275.619873 104.0 
1275.666748 128.0 
1276.334229 148.0 
1276.444702 152.0 
1276.686401 152.0 
1276.808472 156.0 
1276.921143 176.0 
1276.999512 216.0 
1277.089966 136.0 
1277.236328 184.0 
1277.303101 136.0 
1277.376221 176.0 
1277.505493 152.0 
1277.623291 200.0 
1277.689453 140.0 
1277.848267 108.0 
1278.038086 180.0 
1278.214355 164.0 
1278.30127 76.0 
1278.50061 232.0 
1278.625854 112.0 
1278.840332 136.0 
1279.340454 184.0 
1279.475708 164.0 
1279.703613 176.0 
1279.813232 132.0 
1279.905396 196.0 
1279.974121 116.0 
1280.043701 104.0 
1280.216309 308.0 
1280.458496 104.0 
1280.651245 116.0 
1280.885864 80.0 
1281.108154 304.0 
1281.28479 36.0 
1281.353027 244.0 
1281.527832 248.0 
1281.655273 164.0 
1281.71228 68.0 
1281.811768 104.0 
1281.904663 356.0 
1282.004395 152.0 
1282.082886 104.0 
1282.223022 96.0 
1282.403564 128.0 
1282.460571 208.0 
1282.546143 92.0 
1282.617432 124.0 
1282.674438 64.0 
1282.845459 120.0 
1282.906372 120.0 
1283.066528 152.0 
1283.244751 156.0 
1283.401611 156.0 
1283.522827 140.0 
1283.783569 72.0 
1283.929321 176.0 
1283.986206 160.0 
1284.121826 176.0 
1284.264526 104.0 
1284.509766 104.0 
1284.690552 208.0 
1284.763916 168.0 
1284.813843 112.0 
1285.027832 204.0 
1285.077759 128.0 
1285.163452 184.0 
1285.241943 160.0 
1285.398926 192.0 
1285.527344 40.0 
1285.621216 156.0 
1285.698608 196.0 
1285.861328 184.0 
1285.946899 132.0 
1285.975342 104.0 
1286.112061 116.0 
1286.18396 160.0 
1286.25061 364.0 
1286.365723 132.0 
1286.571899 152.0 
1286.704468 108.0 
1286.759399 188.0 
1286.926514 60.0 
1287.026367 116.0 
1287.086182 120.0 
1287.183472 224.0 
1287.340576 140.0 
1287.433472 76.0 
1287.594727 152.0 
1287.704834 280.0 
1287.89563 124.0 
1288.069092 92.0 
1288.177612 152.0 
1288.276245 132.0 
1288.369141 164.0 
1288.504883 120.0 
1288.562866 196.0 
1288.619263 120.0 
1288.747803 144.0 
1288.833618 108.0 
1288.912231 132.0 
1288.976562 80.0 
1289.047974 108.0 
1289.169434 116.0 
1289.2948 256.0 
1289.433228 204.0 
1289.576782 72.0 
1289.654785 200.0 
1289.719727 240.0 
1289.821899 152.0 
1289.919922 76.0 
1289.984253 132.0 
1290.127197 296.0 
1290.185913 192.0 
1290.356201 168.0 
1290.663086 168.0 
1290.878052 156.0 
1290.952637 156.0 
1291.121216 60.0 
1291.199829 116.0 
1291.37146 180.0 
1291.448364 160.0 
1291.629028 124.0 
1291.717773 156.0 
1291.936646 84.0 
1292.251343 152.0 
1292.412842 280.0 
1292.559082 104.0 
1292.637817 76.0 
1292.869141 88.0 
1292.938354 172.0 
1293.065674 164.0 
1293.178833 80.0 
1293.260498 108.0 
1293.332031 160.0 
1293.401367 152.0 
1293.522583 232.0 
1293.58252 164.0 
1293.698364 220.0 
1293.903687 132.0 
1294.212646 144.0 
1294.348633 120.0 
1294.43457 56.0 
1294.556274 168.0 
1294.606445 92.0 
1295.046387 332.0 
1295.096558 184.0 
1295.160522 148.0 
1295.496094 140.0 
1295.731079 116.0 
1295.946045 160.0 
1296.031982 68.0 
1296.21106 128.0 
1296.3125 108.0 
1296.383057 116.0 
1296.56604 108.0 
1296.626709 168.0 
1296.684082 428.0 
1296.81311 156.0 
1297.020996 52.0 
1297.243164 72.0 
1297.436768 100.0 
1297.522827 196.0 
1297.698364 188.0 
1297.813843 108.0 
1297.946045 136.0 
1298.103638 44.0 
1298.182495 180.0 
1298.304443 184.0 
1298.386475 144.0 
1298.454956 96.0 
1298.533936 212.0 
1298.59021 196.0 
1298.69165 88.0 
1298.777832 120.0 
1298.918091 144.0 
1299.05835 140.0 
1299.236938 128.0 
1299.308594 140.0 
1299.447266 136.0 
1299.56958 156.0 
1299.674561 124.0 
1299.724731 132.0 
1299.924194 184.0 
1300.220703 144.0 
1300.284546 116.0 
1300.600342 200.0 
1300.650635 224.0 
1300.794189 104.0 
1300.944946 188.0 
1301.095703 144.0 
1301.196167 116.0 
1301.267944 152.0 
1301.454712 104.0 
1301.504883 136.0 
1301.622925 224.0 
1301.8927 112.0 
1302.047485 180.0 
1302.166504 212.0 
1302.237427 136.0 
1302.330811 152.0 
1302.420044 76.0 
1302.439575 152.0 
1302.46582 216.0 
1302.553467 40.0 
1302.708618 128.0 
1302.772339 140.0 
1302.82959 128.0 
1302.902222 156.0 
1303.049927 164.0 
1303.14978 96.0 
1303.312744 204.0 
1303.372559 124.0 
1303.621338 168.0 
1303.753418 204.0 
1303.854004 108.0 
1303.940308 148.0 
1304.035156 156.0 
1304.198975 204.0 
1304.283936 308.0 
1304.355225 252.0 
1304.580078 104.0 
1304.690674 160.0 
1304.810181 188.0 
1305.00415 92.0 
1305.054565 184.0 
1305.119263 52.0 
1305.18396 216.0 
1305.255859 136.0 
1305.349365 64.0 
1305.417114 196.0 
1305.485107 100.0 
1305.57251 120.0 
1305.708984 212.0 
1305.787109 88.0 
1305.881592 100.0 
1306.089355 236.0 
1306.205078 168.0 
1306.327515 104.0 
1306.413818 132.0 
1306.524658 148.0 
1306.615356 172.0 
1306.756958 116.0 
1306.783691 196.0 
1306.852783 160.0 
1307.001709 188.0 
1307.349243 112.0 
1307.435669 176.0 
1307.593994 72.0 
1307.665894 168.0 
1307.917847 132.0 
1307.968262 112.0 
1308.018677 180.0 
1308.133789 136.0 
1308.207642 80.0 
1308.392944 72.0 
1308.56958 84.0 
1308.733765 144.0 
1308.845825 148.0 
1308.961792 132.0 
1309.066772 56.0 
1309.133423 184.0 
1309.295654 132.0 
1309.386719 88.0 
1309.437134 116.0 
1309.505615 112.0 
1309.718018 180.0 
1309.793701 168.0 
1309.955688 80.0 
1310.019043 208.0 
1310.099854 104.0 
1310.174927 132.0 
1310.315918 100.0 
1310.378662 312.0 
1310.532104 80.0 
1310.676392 180.0 
1310.863892 104.0 
1311.115845 184.0 
1311.207031 180.0 
1311.486206 176.0 
1311.903809 76.0 
1311.951904 144.0 
1312.046997 64.0 
1312.197021 140.0 
1312.384521 48.0 
1312.478271 176.0 
1312.607056 164.0 
1312.725952 116.0 
1312.802734 136.0 
1312.896484 80.0 
1313.213867 52.0 
1313.358154 124.0 
1313.408569 68.0 
1313.487915 100.0 
1313.603394 104.0 
1313.736816 120.0 
1313.841431 160.0 
1314.115601 100.0 
1314.17041 188.0 
1314.26709 136.0 
1314.332031 160.0 
1314.382568 52.0 
1314.505249 56.0 
1314.562988 164.0 
1314.671265 84.0 
1314.721802 172.0 
1314.803955 152.0 
1314.826782 192.0 
1314.995972 176.0 
1315.133179 140.0 
1315.270264 68.0 
1315.379395 108.0 
1315.449829 120.0 
1315.549683 176.0 
1315.567871 140.0 
1315.665161 160.0 
1315.692871 196.0 
1315.920044 72.0 
1316.172729 108.0 
1316.591553 92.0 
1316.728882 56.0 
1316.801025 76.0 
1316.873291 68.0 
1316.923828 64.0 
1317.0177 84.0 
1317.317627 144.0 
1317.667847 120.0 
1317.953491 152.0 
1318.058105 148.0 
1318.321167 140.0 
1318.378784 116.0 
1318.575562 124.0 
1318.619995 304.0 
1318.750854 144.0 
1318.860352 168.0 
1318.925049 88.0 
1319.13501 108.0 
1319.236206 112.0 
1319.406494 248.0 
1319.60437 152.0 
1319.918823 164.0 
1320.035889 120.0 
1320.127441 220.0 
1320.226807 172.0 
1320.53772 224.0 
1320.773071 156.0 
1320.848755 136.0 
1320.899414 116.0 
1321.051392 108.0 
1321.174316 180.0 
1321.246704 100.0 
1321.297363 80.0 
1321.599365 140.0 
1321.754028 152.0 
1321.861694 112.0 
1321.914307 168.0 
1322.093262 164.0 
1322.211792 116.0 
1322.281494 228.0 
1322.37561 136.0 
1322.42627 68.0 
1322.476929 80.0 
1322.578247 128.0 
1322.636108 188.0 
1322.742432 116.0 
1322.817139 80.0 
1322.92395 116.0 
1322.943115 196.0 
1323.296753 328.0 
1323.456055 196.0 
1323.54834 172.0 
1323.822021 252.0 
1324.127686 144.0 
1324.2146 100.0 
1324.49707 156.0 
1324.592773 160.0 
1324.656494 52.0 
1324.902832 132.0 
1325.08374 136.0 
1325.097778 132.0 
1325.236084 120.0 
1325.286743 132.0 
1325.512939 208.0 
1325.618774 180.0 
1325.699829 116.0 
1325.777588 208.0 
1325.840088 148.0 
1325.968018 164.0 
1326.134644 108.0 
1326.413208 168.0 
1326.540649 96.0 
1326.7146 108.0 
1326.856323 152.0 
1326.939331 120.0 
1327.134399 296.0 
1327.309082 208.0 
1327.442749 176.0 
1327.47522 240.0 
1327.753784 184.0 
1327.867554 28.0 
1328.011108 136.0 
1328.032227 108.0 
1328.259277 116.0 
1328.359131 152.0 
1328.466553 160.0 
1328.578369 100.0 
1328.701782 44.0 
1328.788086 124.0 
1328.830933 160.0 
1328.896484 172.0 
1328.922485 144.0 
1329.00647 136.0 
1329.238647 180.0 
1329.369263 104.0 
1329.420166 100.0 
1329.587036 132.0 
1329.645142 48.0 
1329.739502 128.0 
1329.812012 160.0 
1329.957153 128.0 
1330.037109 92.0 
1330.258179 192.0 
1330.465332 164.0 
1330.792114 116.0 
1330.893677 140.0 
1331.009888 164.0 
1331.101562 212.0 
1331.230713 120.0 
1331.263428 48.0 
1331.275635 116.0 
1331.482666 152.0 
1331.590942 172.0 
1331.678101 188.0 
1331.770264 104.0 
1331.859619 120.0 
1331.933472 76.0 
1332.019531 164.0 
1332.142944 240.0 
1332.462646 132.0 
1332.619385 132.0 
1332.656372 48.0 
1332.709595 172.0 
1332.804077 128.0 
1332.95459 96.0 
1333.039307 176.0 
1333.160156 148.0 
1333.248535 128.0 
1333.349121 124.0 
1333.602783 188.0 
1333.733154 164.0 
1333.814331 60.0 
1333.921143 180.0 
1334.046875 64.0 
1334.105103 44.0 
1334.352295 148.0 
1334.432251 100.0 
1334.525513 112.0 
1334.545776 92.0 
1334.57373 168.0 
1334.664917 28.0 
1334.730347 156.0 
1334.786133 104.0 
1334.897583 120.0 
1334.955811 120.0 
1335.006714 64.0 
1335.130371 108.0 
1335.181274 180.0 
1335.285156 144.0 
1335.396362 128.0 
1335.552612 192.0 
1335.84314 156.0 
1336.024048 148.0 
1336.110352 88.0 
1336.214233 132.0 
1336.301514 184.0 
1336.352417 92.0 
1336.411987 124.0 
1336.5448 204.0 
1336.723511 144.0 
1336.819702 168.0 
1336.927246 116.0 
1336.992798 124.0 
1337.072998 164.0 
1337.265503 176.0 
1337.334839 148.0 
1337.400391 128.0 
1337.485352 160.0 
1337.572266 132.0 
1337.723267 160.0 
1337.793457 100.0 
1337.909912 176.0 
1337.983887 156.0 
1338.045776 140.0 
1338.138062 224.0 
1338.267944 172.0 
1338.346802 128.0 
1338.470581 188.0 
1338.569336 148.0 
1338.623535 136.0 
1338.72998 140.0 
1338.797485 148.0 
1338.973022 52.0 
1339.106934 156.0 
1339.240479 136.0 
1339.344849 84.0 
1339.440918 176.0 
1339.504761 192.0 
1339.618042 132.0 
1339.746338 128.0 
1339.838013 188.0 
1339.857666 140.0 
1339.880615 108.0 
1340.072998 148.0 
1340.192993 172.0 
1340.337891 300.0 
1340.510254 92.0 
1340.58313 100.0 
1340.66272 100.0 
1340.728882 188.0 
1340.787231 184.0 
1340.903809 176.0 
1341.031982 76.0 
1341.100586 200.0 
1341.151611 116.0 
1341.297363 100.0 
1341.366455 180.0 
1341.486938 68.0 
1341.663574 68.0 
1341.734863 52.0 
1341.858765 116.0 
1341.99292 120.0 
1342.201416 152.0 
1342.332764 76.0 
1342.45874 276.0 
1342.697388 244.0 
1342.770264 144.0 
1342.870361 188.0 
1343.178711 44.0 
1343.317383 160.0 
1343.490601 160.0 
1343.558105 160.0 
1343.631104 132.0 
1343.769653 128.0 
1344.0177 76.0 
1344.222046 48.0 
1344.302368 124.0 
1344.375366 148.0 
1344.440186 140.0 
1344.479126 160.0 
1344.539307 120.0 
1344.609253 144.0 
1344.88623 220.0 
1344.943848 184.0 
1345.0979 152.0 
1345.214722 116.0 
1345.342773 140.0 
1345.433716 40.0 
1345.641724 132.0 
1345.696289 120.0 
1345.762451 184.0 
1345.835327 192.0 
1345.914673 92.0 
1345.966675 220.0 
1346.025146 132.0 
1346.197266 188.0 
1346.335938 128.0 
1346.406982 176.0 
1346.521729 340.0 
1346.576416 116.0 
1346.645874 124.0 
1346.830444 92.0 
1347.019409 160.0 
1347.438477 120.0 
1347.536621 104.0 
1347.685425 68.0 
1347.854248 168.0 
1347.930298 172.0 
1348.077881 116.0 
1348.136353 64.0 
1348.230103 172.0 
1348.377563 104.0 
1348.443237 148.0 
1348.746582 144.0 
1348.864624 284.0 
1348.954956 60.0 
1349.123047 136.0 
1349.261963 76.0 
1349.466675 128.0 
1349.627563 64.0 
1349.807617 216.0 
1349.89209 140.0 
1350.154053 120.0 
1350.534424 180.0 
1350.629517 76.0 
1350.775879 144.0 
1350.834351 104.0 
1350.992676 88.0 
1351.185547 60.0 
1351.370972 124.0 
1351.485474 80.0 
1351.565918 156.0 
1351.63916 136.0 
1351.688232 136.0 
1351.787354 108.0 
1351.836792 140.0 
1351.924561 148.0 
1352.122192 192.0 
1352.195557 124.0 
1352.281128 100.0 
1352.356323 244.0 
1352.407593 60.0 
1352.466187 40.0 
1352.539307 176.0 
1352.597046 128.0 
1352.668579 164.0 
1352.758911 64.0 
1352.839111 68.0 
1352.928223 164.0 
1353.007812 124.0 
1353.081055 120.0 
1353.151245 152.0 
1353.477783 92.0 
1353.659546 248.0 
1353.803223 160.0 
1353.99646 164.0 
1354.41394 160.0 
1354.462769 144.0 
1354.553101 148.0 
1354.685181 152.0 
1354.917969 180.0 
1355.073242 232.0 
1355.153809 76.0 
1355.234497 100.0 
1355.402954 64.0 
1355.490845 52.0 
1355.644775 100.0 
1355.701416 208.0 
1355.885742 168.0 
1355.913574 148.0 
1355.977539 148.0 
1356.040527 160.0 
1356.143188 208.0 
1356.509644 84.0 
1356.575684 88.0 
1356.678345 88.0 
1356.750244 128.0 
1356.905518 132.0 
1356.978882 116.0 
1357.112549 200.0 
1357.272217 148.0 
1357.470215 84.0 
1357.521484 76.0 
1357.625244 112.0 
1357.734131 52.0 
1357.924927 116.0 
1358.144897 144.0 
1358.317139 140.0 
1358.442871 136.0 
1358.526367 100.0 
1358.589966 120.0 
1358.897949 304.0 
1359.094971 48.0 
1359.192871 148.0 
1359.255615 188.0 
1359.46167 304.0 
1359.546265 128.0 
1359.663696 116.0 
1359.744385 136.0 
1359.83252 84.0 
1359.932251 96.0 
1360.060059 48.0 
1360.192139 108.0 
1360.252319 248.0 
1360.459839 204.0 
1360.603271 180.0 
1360.706055 188.0 
1360.76062 180.0 
1360.931274 100.0 
1360.954468 68.0 
1360.981934 156.0 
1361.078735 144.0 
1361.153931 132.0 
1361.452515 124.0 
1361.616577 116.0 
1361.734131 112.0 
1361.834473 216.0 
1361.947144 28.0 
1361.998535 220.0 
1362.079468 224.0 
1362.182251 52.0 
1362.253784 140.0 
1362.377075 184.0 
1362.463135 264.0 
1362.590576 164.0 
1362.773193 224.0 
1362.887573 92.0 
1362.969116 264.0 
1363.164062 132.0 
1363.312744 92.0 
1363.42395 224.0 
1363.54895 124.0 
1363.65918 144.0 
1363.718018 56.0 
1364.05603 120.0 
1364.210449 180.0 
1364.287598 108.0 
1364.359497 208.0 
1364.539062 152.0 
1364.636841 148.0 
1364.864868 172.0 
1365.009766 220.0 
1365.114868 112.0 
1365.313354 68.0 
1365.43103 124.0 
1365.505005 148.0 
1365.850342 112.0 
1365.996094 124.0 
1366.09314 108.0 
1366.19043 152.0 
1366.335815 128.0 
1366.394775 136.0 
1366.446167 132.0 
1366.501465 144.0 
1366.615479 104.0 
1366.729736 132.0 
1366.880371 80.0 
1366.953979 192.0 
1367.049561 196.0 
1367.144165 156.0 
1367.204102 96.0 
1367.285156 108.0 
1367.469116 152.0 
1367.616333 184.0 
1367.707764 160.0 
1368.042969 92.0 
1368.396606 216.0 
1368.455566 44.0 
1368.585693 176.0 
1368.608032 120.0 
1368.640747 140.0 
1368.670532 140.0 
1368.692383 168.0 
1368.820068 180.0 
1368.899536 184.0 
1368.96814 172.0 
1369.057495 108.0 
1369.370728 120.0 
1369.427612 124.0 
1369.479248 88.0 
1369.552856 88.0 
1369.82373 292.0 
1369.928589 56.0 
1370.031616 144.0 
1370.178589 184.0 
1370.282227 172.0 
1370.407471 108.0 
1370.572998 120.0 
1370.716919 132.0 
1370.768433 132.0 
1371.008423 232.0 
1371.189575 92.0 
1371.284424 148.0 
1371.391602 144.0 
1371.535034 116.0 
1371.645508 252.0 
1371.704468 164.0 
1371.997803 168.0 
1372.022461 60.0 
1372.045776 188.0 
1372.11731 164.0 
1372.267334 140.0 
1372.300049 272.0 
1372.347412 160.0 
1372.48877 160.0 
1372.559814 128.0 
1372.818115 212.0 
1372.958008 92.0 
1373.083374 104.0 
1373.170654 176.0 
1373.312012 160.0 
1373.444824 304.0 
1373.503784 148.0 
1373.623657 176.0 
1373.680542 92.0 
1373.718018 188.0 
1373.776733 120.0 
1373.887451 176.0 
1373.968506 116.0 
1374.148926 116.0 
1374.20459 96.0 
1374.326416 168.0 
1374.396484 160.0 
1374.525024 92.0 
1374.61792 144.0 
1374.743286 148.0 
1374.816162 176.0 
1374.844482 152.0 
1375.019165 108.0 
1375.141846 152.0 
1375.215698 164.0 
1375.271118 252.0 
1375.473999 104.0 
1375.540405 44.0 
1375.651123 112.0 
1375.761963 208.0 
1375.850464 120.0 
1375.916992 200.0 
1375.975708 220.0 
1376.04895 156.0 
1376.101562 196.0 
1376.175415 168.0 
1376.315674 52.0 
1376.478149 192.0 
1376.544556 124.0 
1376.729248 64.0 
1376.816406 84.0 
1376.859375 184.0 
1377.199463 108.0 
1377.264526 140.0 
1377.312622 200.0 
1377.411499 148.0 
1377.519531 128.0 
1377.630371 120.0 
1377.778076 72.0 
1377.837158 128.0 
1377.942749 164.0 
1378.06311 124.0 
1378.13562 196.0 
1378.201538 144.0 
1378.317505 172.0 
1378.438477 140.0 
1378.561279 256.0 
1378.672119 156.0 
1378.842163 80.0 
1378.901245 76.0 
1379.179688 120.0 
1379.270874 136.0 
1379.337402 64.0 
1379.424805 308.0 
1379.483765 172.0 
1379.544312 128.0 
1379.689575 156.0 
1379.857788 172.0 
1379.971924 140.0 
1380.112427 192.0 
1380.263184 164.0 
1380.368652 136.0 
1380.483398 164.0 
1380.559448 132.0 
1380.697876 68.0 
1380.764404 144.0 
1380.81311 144.0 
1380.866821 160.0 
1380.923218 68.0 
1380.953613 164.0 
1381.020142 148.0 
1381.126831 148.0 
1381.200806 176.0 
1381.26001 128.0 
1381.348755 172.0 
1381.480591 200.0 
1381.603271 180.0 
1381.681152 160.0 
1381.707275 148.0 
1381.802734 232.0 
1381.962769 108.0 
1382.203613 240.0 
1382.391968 148.0 
1382.532593 128.0 
1382.619995 96.0 
1382.700928 152.0 
1382.721313 112.0 
1382.776489 72.0 
1382.873047 112.0 
1382.976929 164.0 
1383.035889 164.0 
1383.095093 172.0 
1383.146973 48.0 
1383.325439 168.0 
1383.457886 168.0 
1383.576294 156.0 
1383.642944 188.0 
1383.716919 132.0 
1383.806519 132.0 
1383.965332 132.0 
1384.213135 208.0 
1384.314697 196.0 
1384.368652 132.0 
1384.463379 196.0 
1384.546387 100.0 
1384.613037 92.0 
1384.672241 176.0 
1384.721924 156.0 
1384.790894 284.0 
1384.849976 144.0 
1384.96106 128.0 
1385.020386 172.0 
1385.242554 124.0 
1385.374146 340.0 
1385.464844 236.0 
1385.604004 108.0 
1385.62146 84.0 
1385.644897 120.0 
1385.809204 92.0 
1386.094604 156.0 
1386.176147 140.0 
1386.299194 132.0 
1386.367065 156.0 
1386.469238 220.0 
1386.554077 148.0 
1386.607788 328.0 
1386.66394 180.0 
1386.731934 88.0 
1386.783813 136.0 
1386.893188 156.0 
1386.98877 136.0 
1387.031738 156.0 
1387.362061 112.0 
1387.453247 196.0 
1387.636353 96.0 
1387.732788 96.0 
1387.792114 104.0 
1387.907959 184.0 
1388.033203 180.0 
1388.118408 92.0 
1388.259277 176.0 
1388.37793 88.0 
1388.518799 108.0 
1388.719116 108.0 
1388.770996 112.0 
1388.963867 248.0 
1389.097412 104.0 
1389.272095 204.0 
1389.371826 88.0 
1389.446777 124.0 
1389.584595 144.0 
1389.653809 196.0 
1389.735474 28.0 
1389.839355 96.0 
1389.913452 92.0 
1390.047119 160.0 
1390.128418 108.0 
1390.238403 160.0 
1390.366211 116.0 
1390.581421 76.0 
1390.633423 284.0 
1390.748413 152.0 
1390.856079 136.0 
1390.907959 156.0 
1390.9823 140.0 
1391.086182 64.0 
1391.191284 184.0 
1391.472168 128.0 
1391.539062 144.0 
1391.622437 120.0 
1391.717285 112.0 
1391.807861 60.0 
1391.882446 128.0 
1391.914062 32.0 
1391.930908 144.0 
1391.994629 184.0 
1392.48584 128.0 
1392.546753 160.0 
1392.762939 372.0 
1392.942139 108.0 
1393.037476 104.0 
1393.16626 140.0 
1393.28064 136.0 
1393.400269 196.0 
1393.492432 156.0 
1393.633667 148.0 
1393.700928 132.0 
1393.859375 216.0 
1393.934937 252.0 
1394.000488 124.0 
1394.152588 176.0 
1394.341064 176.0 
1394.406494 116.0 
1394.458496 168.0 
1394.602173 336.0 
1394.840454 164.0 
1394.911865 164.0 
1395.008545 124.0 
1395.140747 128.0 
1395.27124 212.0 
1395.447144 216.0 
1395.603394 128.0 
1395.781128 144.0 
1395.956543 144.0 
1396.034668 96.0 
1396.209595 192.0 
1396.307739 140.0 
1396.405151 132.0 
1396.495728 56.0 
1396.6073 76.0 
1396.732788 156.0 
1396.924194 152.0 
1397.083374 220.0 
1397.150391 108.0 
1397.204956 208.0 
1397.494629 244.0 
1397.625366 276.0 
1397.738159 172.0 
1397.85498 116.0 
1397.973267 180.0 
1398.072998 52.0 
1398.1698 108.0 
1398.320801 224.0 
1398.497314 148.0 
1398.556885 124.0 
1398.759033 176.0 
1398.849854 212.0 
1398.929077 80.0 
1399.139404 168.0 
1399.256592 204.0 
1399.432495 280.0 
1399.56189 172.0 
1399.643799 156.0 
1399.793823 128.0 
1399.870117 220.0 
1400.008667 156.0 
1400.112915 164.0 
1400.172485 152.0 
1400.234009 152.0 
1400.291626 156.0 
1400.534546 172.0 
1400.611938 132.0 
1400.760986 84.0 
1400.950684 76.0 
1401.148315 188.0 
1401.342041 96.0 
1401.424072 124.0 
1401.523438 176.0 
1401.651001 88.0 
1401.7146 124.0 
1401.826416 172.0 
1401.893433 176.0 
1402.064819 40.0 
1402.120605 152.0 
1402.221436 224.0 
1402.281006 180.0 
1402.358643 184.0 
1402.531494 180.0 
1402.597412 196.0 
1402.772949 136.0 
1402.914673 144.0 
1402.978027 124.0 
1403.033081 76.0 
1403.145752 132.0 
1403.250122 112.0 
1403.302368 212.0 
1403.441772 200.0 
1403.563232 136.0 
1403.762085 152.0 
1403.913818 56.0 
1403.988403 136.0 
1404.040527 68.0 
1404.10022 164.0 
1404.230835 136.0 
1404.331421 80.0 
1404.640503 164.0 
1404.737305 160.0 
1404.79834 128.0 
1404.845947 128.0 
1404.905762 140.0 
1404.96875 168.0 
1405.316162 136.0 
1405.389038 336.0 
1405.562866 228.0 
1405.609131 164.0 
1405.681763 140.0 
1405.763916 156.0 
1405.864746 156.0 
1405.930786 156.0 
1406.025146 148.0 
1406.268555 232.0 
1406.331055 56.0 
1406.474609 144.0 
1406.62561 136.0 
1406.775879 144.0 
1407.010376 64.0 
1407.077637 160.0 
1407.144775 196.0 
1407.226929 64.0 
1407.346436 216.0 
1407.421021 140.0 
1407.477173 132.0 
1407.531128 92.0 
1407.558594 68.0 
1407.614746 128.0 
1407.819214 164.0 
1407.884033 104.0 
1407.953003 336.0 
1408.229858 164.0 
1408.324463 200.0 
1408.459229 120.0 
1408.69519 144.0 
1408.772949 128.0 
1408.952026 148.0 
1409.011963 168.0 
1409.101685 176.0 
1409.213745 184.0 
1409.288452 192.0 
1409.576538 160.0 
1409.865967 132.0 
1409.998413 64.0 
1410.206665 104.0 
1410.220947 128.0 
1410.24707 216.0 
1410.349609 104.0 
1410.453857 120.0 
1410.589844 32.0 
1410.698242 272.0 
1410.790649 180.0 
1410.959839 200.0 
1411.104736 100.0 
1411.163452 128.0 
1411.260132 212.0 
1411.42627 100.0 
1411.605713 120.0 
1411.719238 216.0 
1411.750366 160.0 
1411.769531 184.0 
1411.9198 188.0 
1412.091064 228.0 
1412.181519 64.0 
1412.36853 108.0 
1412.443359 144.0 
1412.537231 160.0 
1412.630615 180.0 
1412.693726 116.0 
1412.765015 136.0 
1412.924438 336.0 
1412.992676 140.0 
1413.066528 164.0 
1413.125854 168.0 
1413.251831 228.0 
1413.385986 152.0 
1413.449097 212.0 
1413.730225 120.0 
1413.820068 124.0 
1413.896606 124.0 
1413.984741 64.0 
1414.107788 172.0 
1414.134033 76.0 
1414.159058 168.0 
1414.284058 164.0 
1414.388916 124.0 
1414.44873 176.0 
1414.583496 128.0 
1414.665894 168.0 
1414.764771 172.0 
1414.82312 152.0 
1414.948242 208.0 
1415.040161 88.0 
1415.137573 140.0 
1415.197388 84.0 
1415.257324 172.0 
1415.323975 124.0 
1415.372192 156.0 
1415.452026 228.0 
1415.558716 148.0 
1415.663208 120.0 
1415.751587 116.0 
1415.848389 160.0 
1415.862915 148.0 
1416.097168 268.0 
1416.313354 160.0 
1416.590454 116.0 
1416.689087 240.0 
1416.738525 168.0 
1416.792725 40.0 
1416.860229 132.0 
1416.912598 72.0 
1417.017456 128.0 
1417.114868 72.0 
1417.234863 48.0 
1417.361938 116.0 
1417.430054 76.0 
1417.49707 112.0 
1417.666138 156.0 
1417.678833 208.0 
1417.782715 144.0 
1417.881104 156.0 
1417.966919 184.0 
1417.989136 128.0 
1418.023438 140.0 
1418.306519 104.0 
1418.377808 184.0 
1418.463867 260.0 
1418.546387 200.0 
1418.598877 112.0 
1418.673828 28.0 
1418.77124 68.0 
1418.85376 132.0 
1418.956299 212.0 
1418.977173 144.0 
1418.998657 100.0 
1419.077271 200.0 
1419.191162 148.0 
1419.25 128.0 
1419.311157 156.0 
1419.46106 232.0 
1419.671021 116.0 
1419.746094 120.0 
1420.036499 160.0 
1420.113525 44.0 
1420.200928 256.0 
1420.337158 120.0 
1420.407471 132.0 
1420.505371 140.0 
1420.653687 112.0 
1420.803711 152.0 
1420.900635 140.0 
1420.983765 148.0 
1421.127075 124.0 
1421.243652 164.0 
1421.35144 176.0 
1421.428711 196.0 
1421.501465 152.0 
1421.617432 168.0 
1421.801758 104.0 
1421.854248 240.0 
1422.199463 124.0 
1422.402222 156.0 
1422.462158 128.0 
1422.609131 148.0 
1422.675659 148.0 
1422.846436 92.0 
1423.010254 108.0 
1423.113037 96.0 
1423.167969 160.0 
1423.216797 48.0 
1423.265503 180.0 
1423.370728 92.0 
1423.514404 228.0 
1423.619873 188.0 
1423.646484 164.0 
1423.703125 148.0 
1423.776245 56.0 
1423.918945 84.0 
1424.069092 184.0 
1424.12915 108.0 
1424.191895 156.0 
1424.327881 160.0 
1424.455811 132.0 
1424.518555 140.0 
1424.789795 132.0 
1424.940552 132.0 
1425.051025 120.0 
1425.180908 136.0 
1425.331787 172.0 
1425.390015 156.0 
1425.489624 152.0 
1425.590942 108.0 
1425.650024 184.0 
1425.819702 164.0 
1425.992554 112.0 
1426.091553 332.0 
1426.195557 232.0 
1426.324585 144.0 
1426.386719 92.0 
1426.45105 120.0 
1426.565063 132.0 
1426.902222 136.0 
1427.09021 124.0 
1427.18042 120.0 
1427.233032 124.0 
1427.308228 248.0 
1427.440063 152.0 
1427.691772 64.0 
1427.775024 344.0 
1427.872192 344.0 
1428.008911 144.0 
1428.032837 156.0 
1428.190308 156.0 
1428.263306 296.0 
1428.333008 136.0 
1428.449219 152.0 
1428.782471 128.0 
1429.008179 136.0 
1429.157349 120.0 
1429.310791 160.0 
1429.417847 180.0 
1429.697754 156.0 
1429.730225 100.0 
1429.748169 152.0 
1429.813354 124.0 
1429.964966 140.0 
1430.127197 344.0 
1430.189697 72.0 
1430.272461 120.0 
1430.460693 148.0 
1430.543457 100.0 
1430.603638 100.0 
1430.674683 160.0 
1430.852173 148.0 
1430.943604 108.0 
1430.995117 128.0 
1431.078003 316.0 
1431.296387 184.0 
1431.418701 116.0 
1431.494385 176.0 
1431.601929 280.0 
1431.785889 144.0 
1431.837036 176.0 
1431.922241 224.0 
1432.032471 176.0 
1432.267944 308.0 
1432.324707 148.0 
1432.522705 244.0 
1432.606934 116.0 
1432.674683 120.0 
1432.78772 104.0 
1432.900757 116.0 
1433.051392 152.0 
1433.146973 192.0 
1433.247314 136.0 
1433.473389 100.0 
1433.714478 152.0 
1433.80542 148.0 
1433.887573 108.0 
1433.911011 104.0 
1434.025269 208.0 
1434.114014 196.0 
1434.177124 184.0 
1434.249634 108.0 
1434.454712 216.0 
1434.57312 144.0 
1434.684204 160.0 
1434.830078 56.0 
1434.905518 152.0 
1434.958252 88.0 
1435.045898 132.0 
1435.108643 144.0 
1435.129028 136.0 
1435.302734 108.0 
1435.431396 152.0 
1435.640381 168.0 
1435.832886 148.0 
1435.970581 204.0 
1436.104614 188.0 
1436.217529 156.0 
1436.277466 288.0 
1436.391235 128.0 
1436.459106 56.0 
1436.730713 84.0 
1436.866455 148.0 
1436.92688 120.0 
1437.085327 104.0 
1437.266357 80.0 
1437.346313 148.0 
1437.651245 140.0 
1437.734253 216.0 
1437.868286 116.0 
1437.975708 112.0 
1438.247437 196.0 
1438.345581 152.0 
1438.5177 116.0 
1438.617432 132.0 
1438.758911 204.0 
1438.949585 152.0 
1439.069702 196.0 
1439.084595 180.0 
1439.175903 132.0 
1439.280762 124.0 
1439.43689 144.0 
1439.598999 56.0 
1439.759155 264.0 
1439.814819 132.0 
1439.900024 196.0 
1440.077026 160.0 
1440.16687 104.0 
1440.273682 156.0 
1440.399536 136.0 
1440.490234 120.0 
1440.543091 144.0 
1440.671509 132.0 
1440.795898 144.0 
1440.958618 124.0 
1441.041748 100.0 
1441.094604 52.0 
1441.165161 168.0 
1441.380127 192.0 
1441.483765 152.0 
1441.540405 72.0 
1441.623535 116.0 
1441.714233 112.0 
1441.835205 176.0 
1441.903198 196.0 
1442.059204 192.0 
1442.198364 152.0 
1442.267212 276.0 
1442.453369 228.0 
1442.538086 148.0 
1442.681763 104.0 
1442.809448 152.0 
1442.953979 180.0 
1443.08252 160.0 
1443.218994 184.0 
1443.313599 132.0 
1443.384888 136.0 
1443.475708 152.0 
1443.557983 132.0 
1443.860596 164.0 
1443.937012 200.0 
1444.005005 116.0 
1444.109009 124.0 
1444.150757 172.0 
1444.218628 216.0 
1444.397217 124.0 
1444.542114 148.0 
1444.663086 96.0 
1444.81189 188.0 
1444.882568 164.0 
1444.96582 148.0 
1445.015259 152.0 
1445.185181 184.0 
1445.242065 156.0 
1445.306274 108.0 
1445.447632 104.0 
1445.520264 168.0 
1445.669434 148.0 
1445.752686 112.0 
1445.897217 128.0 
1445.991333 200.0 
1446.05542 104.0 
1446.168945 200.0 
1446.335083 124.0 
1446.600464 132.0 
1446.729126 160.0 
1446.855713 180.0 
1446.983398 228.0 
1447.130493 156.0 
1447.206177 68.0 
1447.364014 152.0 
1447.484741 284.0 
1447.575195 140.0 
1447.601318 148.0 
1447.728638 132.0 
1447.842285 156.0 
1448.036011 152.0 
1448.059937 144.0 
1448.206299 116.0 
1448.299805 148.0 
1448.389526 160.0 
1448.508789 148.0 
1448.667847 44.0 
1448.831055 120.0 
1448.981445 104.0 
1449.137207 80.0 
1449.184937 96.0 
1449.412231 160.0 
1449.478638 152.0 
1449.554321 72.0 
1449.64978 136.0 
1449.728638 120.0 
1449.781738 84.0 
1449.866699 148.0 
1449.97876 172.0 
1450.105225 164.0 
1450.276001 180.0 
1450.407593 148.0 
1450.539673 64.0 
1450.60376 140.0 
1450.708496 156.0 
1450.828125 216.0 
1450.935791 112.0 
1451.053101 180.0 
1451.102905 188.0 
1451.282593 120.0 
1451.628906 120.0 
1451.745239 164.0 
1451.889282 88.0 
1451.965088 164.0 
1452.035278 180.0 
1452.101685 144.0 
1452.177856 196.0 
1452.390137 156.0 
1452.528198 216.0 
1452.625 196.0 
1452.693359 68.0 
1452.829834 108.0 
1452.951294 88.0 
1453.029663 128.0 
1453.0802 152.0 
1453.214111 100.0 
1453.277466 128.0 
1453.383789 108.0 
1453.43689 184.0 
1453.503906 144.0 
1453.704712 96.0 
1453.902466 116.0 
1453.968018 88.0 
1454.060425 168.0 
1454.19812 184.0 
1454.302856 144.0 
1454.361816 68.0 
1454.476562 52.0 
1454.537354 128.0 
1454.613281 252.0 
1454.712646 244.0 
1455.109375 100.0 
1455.493896 96.0 
1455.582153 188.0 
1455.828125 176.0 
1455.934448 136.0 
1456.017944 144.0 
1456.116699 160.0 
1456.197021 132.0 
1456.29895 188.0 
1456.412842 116.0 
1456.489014 284.0 
1456.62561 192.0 
1456.678711 136.0 
1456.771973 180.0 
1456.828735 184.0 
1456.937012 72.0 
1457.101929 120.0 
1457.165039 120.0 
1457.21814 136.0 
1457.415771 156.0 
1457.582886 148.0 
1457.632935 84.0 
1457.833618 128.0 
1457.886841 112.0 
1458.03125 48.0 
1458.114868 64.0 
1458.215332 220.0 
1458.396118 128.0 
1458.472046 52.0 
1458.551025 144.0 
1458.612305 76.0 
1459.000854 124.0 
1459.18335 152.0 
1459.346313 208.0 
1459.44519 184.0 
1459.50647 308.0 
1459.650513 40.0 
1459.726562 172.0 
1459.833008 64.0 
1459.901489 120.0 
1460.137207 136.0 
1460.19043 124.0 
1460.281738 68.0 
1460.423218 164.0 
1460.530396 92.0 
1460.599121 260.0 
1460.684937 36.0 
1460.818604 48.0 
1460.856934 116.0 
1461.128418 84.0 
1461.231079 116.0 
1461.445679 32.0 
1461.498901 40.0 
1461.567383 80.0 
1461.651978 144.0 
1461.748901 204.0 
1461.784668 140.0 
1461.803345 140.0 
1462.093262 120.0 
1462.199097 220.0 
1462.248779 84.0 
1462.435425 140.0 
1462.564453 204.0 
1462.693848 172.0 
1462.803345 128.0 
1462.914551 164.0 
1463.006348 404.0 
1463.089722 136.0 
1463.203857 172.0 
1463.318115 156.0 
1463.428467 120.0 
1463.604614 44.0 
1463.768188 176.0 
1463.842651 116.0 
1463.926514 112.0 
1464.054077 204.0 
1464.129517 172.0 
1464.219971 156.0 
1464.346191 132.0 
1464.44519 84.0 
1464.589844 124.0 
1464.776855 140.0 
1464.798706 76.0 
1464.822632 172.0 
1464.902222 76.0 
1465.085083 40.0 
1465.229248 164.0 
1465.339111 204.0 
1465.450684 124.0 
1465.526978 224.0 
1465.651367 156.0 
1465.747925 128.0 
1465.850342 132.0 
1465.917847 268.0 
1465.976562 140.0 
1466.060303 148.0 
1466.121338 128.0 
1466.214355 212.0 
1466.427368 180.0 
1466.708252 116.0 
1466.813354 76.0 
1467.026489 160.0 
1467.107056 200.0 
1467.211304 108.0 
1467.482788 132.0 
1467.576172 160.0 
1467.603149 136.0 
1467.626831 152.0 
1467.691772 108.0 
1467.973877 96.0 
1468.046997 236.0 
1468.210205 144.0 
1468.309326 96.0 
1468.408569 92.0 
1468.532349 144.0 
1468.599854 104.0 
1468.696533 188.0 
1468.843262 200.0 
1469.001831 236.0 
1469.097412 152.0 
1469.171387 156.0 
1469.238159 204.0 
1469.346802 88.0 
1469.523926 256.0 
1469.726685 136.0 
1470.044067 140.0 
1470.332275 128.0 
1470.407471 88.0 
1470.548218 176.0 
1470.606201 168.0 
1470.726929 84.0 
1470.796753 92.0 
1470.877686 240.0 
1471.012573 200.0 
1471.193726 112.0 
1471.27478 144.0 
1471.357544 200.0 
1471.412964 124.0 
1471.461914 116.0 
1471.598389 64.0 
1471.741943 204.0 
1471.811035 104.0 
1472.028564 168.0 
1472.134521 164.0 
1472.20166 84.0 
1472.34668 148.0 
1472.575806 156.0 
1472.713379 120.0 
1472.774414 124.0 
1472.873779 140.0 
1473.003662 140.0 
1473.120483 136.0 
1473.202271 196.0 
1473.269043 160.0 
1473.512939 108.0 
1473.600708 132.0 
1473.851685 224.0 
1473.918213 168.0 
1474.060791 192.0 
1474.145752 192.0 
1474.236572 120.0 
1474.363647 92.0 
1474.539429 72.0 
1474.677002 68.0 
1474.860474 136.0 
1474.921631 84.0 
1475.02832 116.0 
1475.053101 228.0 
1475.128052 196.0 
1475.271606 136.0 
1475.326782 184.0 
1475.415405 196.0 
1475.641235 128.0 
1475.720093 244.0 
1475.831421 104.0 
1475.991943 256.0 
1476.060791 124.0 
1476.18042 224.0 
1476.371216 188.0 
1476.458496 128.0 
1476.594604 156.0 
1476.676392 152.0 
1476.792603 144.0 
1476.86377 208.0 
1476.914917 132.0 
1476.978516 128.0 
1477.118652 128.0 
1477.205933 100.0 
1477.270874 112.0 
1477.36084 196.0 
1477.491089 68.0 
1477.587402 144.0 
1477.651733 172.0 
1477.728271 172.0 
1477.803101 304.0 
1478.128296 144.0 
1478.156494 184.0 
1478.295288 288.0 
1478.365601 116.0 
1478.44104 164.0 
1478.884277 156.0 
1478.983398 164.0 
1479.115723 128.0 
1479.30896 172.0 
1479.427368 144.0 
1479.492798 180.0 
1479.549805 148.0 
1479.710571 60.0 
1479.911865 128.0 
1480.020142 124.0 
1480.261963 72.0 
1480.35376 112.0 
1480.519287 172.0 
1480.667847 120.0 
1480.729126 72.0 
1480.808716 160.0 
1480.91687 124.0 
1481.020142 312.0 
1481.167847 132.0 
1481.25 368.0 
1481.326538 136.0 
1481.441406 108.0 
1481.554443 180.0 
1481.717285 184.0 
1481.77356 352.0 
1481.878784 92.0 
1482.004517 180.0 
1482.077393 156.0 
1482.230591 140.0 
1482.342896 228.0 
1482.474854 260.0 
1482.705811 104.0 
1482.793945 208.0 
1482.811035 108.0 
1482.87207 172.0 
1482.931763 96.0 
1483.004639 128.0 
1483.055542 132.0 
1483.196289 48.0 
1483.374268 140.0 
1483.571899 84.0 
1483.66394 96.0 
1483.80188 244.0 
1483.87854 80.0 
1483.947632 184.0 
1484.139282 100.0 
1484.292603 296.0 
1484.464722 164.0 
1484.539917 168.0 
1484.784302 152.0 
1484.854492 164.0 
1485.077148 68.0 
1485.111694 80.0 
1485.123901 132.0 
1485.189941 96.0 
1485.512207 128.0 
1485.604248 164.0 
1485.790283 312.0 
1485.86499 120.0 
1485.949463 108.0 
1486.018555 176.0 
1486.118286 216.0 
1486.210815 140.0 
1486.705933 88.0 
1486.796875 168.0 
1486.848755 104.0 
1486.885254 92.0 
1486.922485 192.0 
1487.000732 104.0 
1487.079956 312.0 
1487.276245 216.0 
1487.402344 112.0 
1487.541382 120.0 
1487.633545 128.0 
1487.728027 144.0 
1487.898926 152.0 
1488.08313 160.0 
1488.244629 136.0 
1488.451782 96.0 
1488.538452 176.0 
1488.643677 80.0 
1488.767822 236.0 
1488.974854 160.0 
1489.304199 144.0 
1489.419434 64.0 
1489.532593 104.0 
1489.634521 116.0 
1489.734375 104.0 
1489.788208 372.0 
1489.849609 324.0 
1489.987915 160.0 
1490.132568 132.0 
1490.230103 260.0 
1490.348389 104.0 
1490.494751 140.0 
1490.505859 108.0 
1490.61084 116.0 
1490.925415 120.0 
1491.025513 200.0 
1491.079102 248.0 
1491.251221 236.0 
1491.373291 160.0 
1491.440308 64.0 
1491.586426 96.0 
1491.655029 176.0 
1491.824707 132.0 
1491.88623 188.0 
1492.045532 180.0 
1492.091064 288.0 
1492.144897 152.0 
1492.272705 252.0 
1492.406128 72.0 
1492.533691 72.0 
1492.608887 112.0 
1492.738281 112.0 
1492.8573 196.0 
1493.016479 104.0 
1493.093384 168.0 
1493.467041 124.0 
1493.608765 136.0 
1493.739502 148.0 
1493.950684 108.0 
1494.05896 92.0 
1494.252197 132.0 
1494.324219 200.0 
1494.385742 284.0 
1494.541626 172.0 
1494.662109 88.0 
1494.685059 80.0 
1494.705078 160.0 
1494.773438 104.0 
1494.863159 92.0 
1495.041748 116.0 
1495.155273 128.0 
1495.245361 120.0 
1495.401611 272.0 
1495.563232 188.0 
1495.66626 208.0 
1495.804321 184.0 
1495.914917 204.0 
1496.062012 180.0 
1496.143799 172.0 
1496.248291 108.0 
1496.356079 208.0 
1496.456177 152.0 
1496.519165 240.0 
1496.613892 116.0 
1496.702637 176.0 
1496.802368 148.0 
1497.036133 172.0 
1497.132568 124.0 
1497.303589 188.0 
1497.322266 104.0 
1497.480469 72.0 
1497.579346 156.0 
1497.646362 180.0 
1497.813354 128.0 
1497.904053 144.0 
1498.019653 120.0 
1498.107178 164.0 
1498.237061 384.0 
1498.389404 236.0 
1498.547974 224.0 
1498.836304 148.0 
1498.935669 104.0 
1498.991089 92.0 
1499.124878 216.0 
1499.226318 120.0 
1499.264038 208.0 
1499.552124 248.0 
1499.625977 84.0 
1499.691772 44.0 
1499.761108 164.0 
1499.869019 128.0 
1499.922974 92.0 
1499.992676 104.0 
1500.084961 120.0 
1500.169678 192.0 
1500.245728 128.0 
1500.354492 124.0 
1500.443604 300.0 
1500.521851 160.0 
1500.60144 212.0 
1500.705688 168.0 
1500.817383 144.0 
1500.912964 136.0 
1501.033203 160.0 
1501.115112 192.0 
1501.229614 144.0 
1501.335205 276.0 
1501.458008 148.0 
1501.542236 108.0 
1501.806885 128.0 
1501.897095 144.0 
1502.040649 176.0 
1502.107178 116.0 
1502.218872 256.0 
1502.333374 168.0 
1502.421631 96.0 
1502.482056 156.0 
1502.796509 228.0 
1503.023438 184.0 
1503.157104 76.0 
1503.254883 200.0 
1503.348389 140.0 
1503.449951 144.0 
1503.540527 116.0 
1503.713867 172.0 
1503.779785 124.0 
1503.895508 196.0 
1504.065063 108.0 
1504.188843 96.0 
1504.25061 132.0 
1504.356323 168.0 
1504.474487 172.0 
1504.528564 204.0 
1504.642456 200.0 
1504.736938 152.0 
1504.889893 176.0 
1504.916138 96.0 
1504.931763 140.0 
1505.014893 80.0 
1505.285156 204.0 
1505.362671 136.0 
END IONS

