BEGIN IONS
TITLE=Scan Number: 8
PEPMASS=582.0
CHARGE=1+
COMPOUNDNAME=Streptomycin
LIBRARYQUALITY=3
SMILES=C[C@H]1[C@@]([C@H]([C@@H](O1)O[C@@H]2[C@H]([C@@H]([C@H]([C@@H]([C@H]2O)O)N=C(N)N)O)N=C(N)N)O[C@H]3[C@H]([C@@H]([C@H]([C@@H](O3)CO)O)O)NC)(C=O)O
INCHIKEY=UCSJYZPVAKXKNQ-HZYVHMACSA-N
INCHI="InChI=1S/C21H39N7O12/c1-5-21(36,4-30)16(40-17-9(26-2)13(34)10(31)6(3-29)38-17)18(37-5)39-15-8(28-20(24)25)11(32)7(27-19(22)23)12(33)14(15)35/h4-18,26,29,31-36H,3H2,1-2H3,(H4,22,23,27)(H4,24,25,28)/t5-,6-,7+,8-,9-,10-,11+,12-,13-,14+,15+,16-,17-,18-,21+/m0/s1"
MSLEVEL=2
SOURCE_INSTRUMENT=DI-ESI-Hybrid FT
FILENAME=Streptomycin_FT_582mz.mzXML
SEQ=*..*
NOTES=
IONMODE=Positive
ORGANISM=GNPS-LIBRARY
NAME=Streptomycin M+H
SPECTRUMID=CCMSLIB00000075310
ACTIVATION=CID
INSTRUMENT=ion trap
SCANS=8
160.06665 69.675056 
160.314331 41.982071 
160.355087 36.121761 
160.463043 39.989983 
160.492752 41.486763 
160.521286 42.949306 
160.554779 58.300007 
160.666809 40.215023 
160.880432 43.300747 
160.929825 35.89888 
160.953369 42.692188 
161.080322 41.60627 
161.12294 44.249569 
161.184891 40.424683 
161.193008 48.951267 
161.339569 35.613251 
161.362152 31.427807 
161.487198 44.841667 
161.542511 36.389847 
161.573776 43.0298 
161.696503 40.911541 
161.806473 46.936623 
161.809723 41.747066 
161.837875 43.089695 
161.86412 40.825722 
161.864365 39.50354 
161.992325 37.995296 
162.096954 37.570946 
162.23703 42.904999 
162.308594 36.977665 
162.398758 35.279037 
162.441986 35.929779 
162.453247 41.982094 
162.674545 32.808537 
162.92627 35.216534 
162.926834 31.476086 
163.101074 40.18346 
163.194565 40.753235 
163.246597 35.652828 
163.319748 50.571476 
163.480621 37.555328 
163.805328 47.50156 
163.838699 42.413933 
163.857056 34.23135 
163.914825 31.163385 
163.915237 36.773144 
163.925522 32.418846 
163.931793 44.705372 
163.962769 43.148865 
164.055664 41.017353 
164.09549 35.757843 
164.253906 62.894039 
164.280624 31.685467 
164.380035 44.786907 
164.454697 34.029968 
164.474319 33.362392 
164.61351 36.362614 
164.616425 38.50349 
164.632599 49.744484 
164.712814 41.223038 
164.79245 40.007389 
164.81485 30.096167 
164.877884 40.19582 
165.055252 35.835373 
165.064423 44.23708 
165.110474 42.138336 
165.112152 38.456337 
165.191116 35.255714 
165.20993 45.865612 
165.309601 46.501785 
165.310059 42.594646 
165.400726 42.301144 
165.428085 38.804867 
165.468338 42.772091 
165.488403 37.697102 
165.494675 53.270523 
165.569763 39.031681 
165.783234 49.71822 
165.793015 46.811752 
166.101166 41.391396 
166.162643 41.485268 
166.256927 39.805767 
166.321838 37.045029 
166.49794 37.819614 
166.610962 37.554848 
166.806732 40.558117 
166.986801 42.502537 
167.043732 42.146774 
167.115707 38.415188 
167.293976 53.179974 
167.44339 49.08992 
167.447784 41.549389 
167.517319 36.00507 
167.630356 38.823067 
167.734253 35.977524 
167.795151 41.484932 
168.076706 109.671165 
168.17572 33.902958 
168.27887 39.058289 
168.292999 36.180347 
168.29863 48.848396 
168.561249 39.156868 
168.652237 40.30798 
168.795349 34.647766 
168.861786 52.95137 
168.989182 40.905781 
169.205582 36.759083 
169.317581 35.465725 
169.320435 33.365818 
169.352936 40.042889 
169.525757 33.923992 
169.621582 45.092915 
169.701218 43.416451 
169.795441 45.977753 
170.091705 49.487961 
170.419907 48.373241 
170.484512 40.832817 
170.51474 37.667301 
170.651917 40.709885 
170.665863 34.225296 
170.776993 43.852207 
170.802078 33.755547 
170.823837 41.563965 
171.036835 50.721153 
171.070023 54.455704 
171.149933 38.926727 
171.268661 37.724602 
171.419846 31.486639 
171.517059 53.161324 
171.713699 35.12212 
171.892029 43.308289 
171.93222 40.732967 
171.971313 41.091404 
172.077408 42.399063 
172.28447 40.954651 
172.354691 42.384811 
172.35965 36.647423 
172.391556 46.914986 
172.416489 46.155254 
172.535553 40.356731 
172.735992 39.758347 
172.879349 51.961586 
172.976746 32.722279 
173.085678 44.393452 
173.162048 35.578926 
173.170273 45.060631 
173.23201 48.516651 
173.387436 42.31601 
173.679657 56.291897 
173.782059 38.649792 
173.87204 39.117737 
173.984726 46.01749 
174.021088 41.923313 
174.106079 41.604446 
174.448669 44.438515 
174.612045 44.521294 
174.649124 36.290318 
174.783127 40.500164 
174.810608 37.473354 
174.871643 32.761646 
175.228287 48.96114 
175.503052 34.024815 
175.524765 31.303228 
175.609787 57.007362 
175.65712 43.323193 
175.688553 40.898434 
175.709763 37.16806 
175.833649 37.977535 
175.896011 40.763458 
175.924606 41.585022 
176.004791 37.818161 
176.090179 46.404812 
176.090637 40.653126 
176.091705 310.652496 
176.114899 38.574013 
176.315506 34.920933 
176.3479 34.038303 
176.464233 44.610104 
176.489059 42.162849 
176.755463 36.575748 
176.758392 42.585011 
176.902496 36.252666 
176.902863 35.918449 
177.031357 46.549973 
177.067673 36.228504 
177.142014 37.803188 
177.143585 37.681973 
177.243591 45.602482 
177.286652 38.770908 
177.324051 51.550694 
177.362778 39.783463 
177.389359 45.655991 
177.395721 34.46273 
177.465271 46.744301 
177.552063 39.995255 
177.57666 42.120396 
177.760239 48.312973 
177.820374 42.087318 
177.832642 37.155071 
177.836746 61.742287 
177.84317 43.680439 
177.885056 43.589127 
177.907379 47.340611 
177.969955 48.273777 
178.256958 50.091648 
178.311478 45.211784 
178.422974 36.904713 
178.445969 45.135273 
178.460495 40.063408 
178.516586 41.620487 
178.553497 39.935574 
178.554443 35.55027 
178.577621 39.861927 
178.66716 43.238811 
178.788101 44.07439 
178.854172 39.863956 
178.879913 46.75124 
178.93161 46.884777 
179.048477 39.196785 
179.102753 58.910484 
179.249832 35.835835 
179.264847 49.196789 
179.508179 44.225578 
179.607727 34.709488 
179.682632 48.647831 
179.782318 48.593861 
179.787415 47.821606 
180.022858 44.491207 
180.128738 33.931999 
180.249054 36.805222 
180.397858 38.642731 
180.589798 39.172417 
180.841049 44.820217 
181.031815 49.764267 
181.060608 40.488308 
181.153885 35.696995 
181.249344 36.510567 
181.287338 39.688801 
181.486053 43.754265 
181.487671 45.887058 
181.796661 33.446339 
181.970978 37.550163 
181.97261 45.758224 
182.028839 38.901485 
182.089813 42.284332 
182.505951 45.623238 
182.581604 41.219048 
182.582962 66.268524 
182.885056 40.710663 
183.008331 45.698154 
183.026596 50.597961 
183.09874 46.182415 
183.242661 36.027088 
183.36261 47.545956 
183.496613 46.244892 
183.732178 38.423939 
183.843079 49.27322 
183.889389 56.167568 
183.942917 70.969299 
183.990692 34.048397 
184.124619 45.942467 
184.210114 38.836346 
184.25676 42.478481 
184.324753 51.66655 
184.432816 36.683777 
184.464508 42.023067 
184.692673 48.982197 
184.729828 37.198944 
184.737213 39.556797 
185.021729 47.42379 
185.103241 66.9981 
185.203751 40.579163 
185.421738 39.688377 
185.463974 38.564804 
185.634796 46.963768 
185.725616 46.565582 
185.784088 49.510849 
185.785339 42.488434 
186.085449 49.650631 
186.087296 445.911774 
186.142944 36.182507 
186.286774 50.804779 
186.478088 42.764191 
186.524185 36.348507 
186.580414 41.070816 
186.959106 32.866821 
187.093689 35.570377 
187.310089 42.660442 
187.569885 34.714256 
187.70787 44.239628 
187.757568 37.044289 
188.158691 47.88665 
188.623901 57.06171 
188.859619 44.656513 
188.895203 36.742134 
188.946365 36.805794 
188.950211 38.47134 
188.964203 42.189243 
188.993118 35.08284 
189.035767 38.855919 
189.037888 36.751049 
189.073929 38.918514 
189.103165 36.963085 
189.133286 51.245586 
189.469162 41.988068 
189.567947 43.248707 
189.568878 48.826443 
189.704407 48.568375 
189.848145 37.983665 
190.025299 36.149147 
190.350037 42.992729 
190.573029 36.956169 
190.606171 36.423367 
190.653122 36.859226 
190.745728 40.932201 
190.81694 38.261623 
190.865814 45.794403 
191.200119 40.807407 
191.210281 40.641243 
191.215027 44.390018 
191.273254 35.28651 
191.318832 41.243824 
191.453049 43.288525 
191.790024 45.30698 
191.812714 40.971745 
191.878906 39.790066 
192.025406 36.868793 
192.069427 38.160118 
192.087967 42.287125 
192.166458 35.03307 
192.241013 50.074184 
192.257401 39.904839 
192.267654 35.386425 
192.402756 39.213604 
192.432922 41.848408 
192.444489 42.79628 
192.850037 34.968266 
192.89183 43.053829 
192.943695 35.43037 
193.107468 56.105103 
193.174637 42.849251 
193.196136 43.048061 
193.582184 36.341629 
193.648178 42.356781 
193.695297 41.140598 
193.739426 41.388912 
194.105667 35.053066 
194.115494 44.947697 
194.153839 45.648167 
194.191818 42.503784 
194.462509 46.846134 
194.488647 41.703701 
194.490372 36.616566 
194.632324 42.589489 
194.672195 38.330162 
194.692154 45.535816 
194.904053 44.117615 
194.977509 37.557751 
194.992905 40.130016 
194.993484 43.565548 
195.049927 33.599327 
195.079147 154.87973 
195.080612 514.717163 
195.162872 39.732216 
195.285751 37.679455 
195.539047 42.494972 
195.572128 54.043709 
195.704636 46.743557 
195.781723 37.742317 
195.908356 38.390568 
196.140945 56.385487 
196.282761 39.975014 
196.428513 36.734455 
196.465256 42.126274 
196.715057 49.862274 
196.761642 52.717636 
196.792313 45.578049 
196.801117 39.830589 
196.878342 52.361855 
197.042221 51.815582 
197.10553 44.62405 
197.329437 37.86927 
197.42865 43.35836 
197.521698 39.524673 
197.794266 43.060753 
198.019577 34.992126 
198.070679 50.790462 
198.101532 44.249695 
198.165924 45.900436 
198.626266 51.338017 
198.635864 35.915016 
198.813705 49.155041 
198.928696 39.942169 
199.130356 35.392323 
199.197708 45.018883 
199.311111 42.072422 
199.805908 42.867886 
199.929703 36.422596 
200.023453 43.243301 
200.166916 38.052895 
200.309784 38.540321 
200.404755 36.536213 
200.531204 55.424442 
200.550552 60.848228 
200.853012 36.474873 
200.909119 42.629017 
200.971985 39.682632 
201.031036 34.254929 
201.099075 41.199215 
201.207748 41.931492 
201.220047 39.445351 
201.232468 38.408993 
201.287796 37.383121 
201.464828 44.098679 
201.491821 41.0896 
201.518066 39.375614 
201.626709 54.376274 
201.703552 39.229893 
201.785843 41.358936 
201.956802 42.329971 
202.022491 39.738544 
202.051346 44.72757 
202.054718 40.721333 
202.100845 41.458591 
202.360214 36.610909 
202.473312 51.951717 
202.548035 37.291958 
202.597076 40.684002 
202.648438 93.020515 
202.661972 50.31358 
202.789841 37.451107 
202.82402 40.994267 
202.846878 39.016983 
203.111588 72.120575 
203.113861 778.505737 
203.456451 39.604542 
203.590759 59.853832 
203.592209 296.710876 
203.593826 835.159668 
203.63208 56.772305 
203.793777 40.870132 
204.023041 33.930084 
204.095657 143.697479 
204.097855 1339.610596 
204.145508 35.903053 
204.281845 38.677124 
204.341446 36.784851 
204.400467 38.683105 
204.535507 41.519714 
204.610626 35.959904 
204.728104 36.978729 
204.804062 36.982895 
204.865738 44.075092 
205.101257 140.166428 
205.232086 38.371723 
205.234451 38.219654 
205.600891 38.910694 
206.088547 48.722687 
206.12291 38.438179 
206.360443 59.653145 
206.60965 37.419136 
206.742416 43.662426 
206.842957 43.820606 
206.915115 39.129841 
206.965057 36.370266 
207.176361 46.834236 
207.309036 45.452835 
207.641693 41.048767 
207.730896 53.623219 
207.776276 43.063068 
207.810989 56.535904 
207.860352 37.173038 
208.058273 45.006802 
208.265228 37.406494 
208.328384 50.437607 
208.394501 40.804996 
208.529877 40.001446 
208.57486 40.139862 
208.7509 48.849388 
208.897232 44.240341 
208.901794 41.387009 
209.045761 46.329082 
209.118851 54.399113 
209.218506 39.265617 
209.311539 55.218422 
209.435242 45.914108 
209.514725 41.069256 
209.879593 37.718739 
210.129837 40.812988 
210.219269 51.081505 
210.28891 43.840542 
210.346573 42.308483 
210.39296 40.421734 
210.593262 39.339897 
210.608276 48.42812 
210.610107 48.169247 
210.820419 55.676563 
210.870895 41.860779 
210.937256 40.036659 
211.082672 93.234879 
211.328766 49.527634 
211.417953 42.329529 
211.570663 38.132076 
211.700943 45.554779 
212.053207 36.133553 
212.30249 53.724957 
212.497375 43.643181 
212.535049 42.828445 
212.694199 44.01202 
212.963455 38.219975 
213.091141 44.16053 
213.199646 44.950352 
213.323273 41.106693 
213.493073 41.822701 
213.689865 43.685989 
213.722229 43.31871 
213.729889 60.590534 
213.735382 37.544632 
213.889236 39.649036 
213.921097 43.989407 
214.247696 45.171951 
214.462341 41.675884 
214.590225 36.685303 
214.838333 44.016396 
214.997116 42.682404 
215.091263 43.019543 
215.840256 41.103035 
216.674759 42.309124 
216.775391 43.524292 
216.784378 41.9291 
216.824432 43.80917 
216.885651 38.185406 
217.053589 44.322803 
217.069214 52.888023 
217.091873 54.719959 
217.094421 304.402161 
217.255219 40.768871 
217.26297 39.928402 
217.433975 46.858391 
217.857925 38.403671 
217.8741 39.015751 
217.896545 37.044418 
217.970596 35.899178 
217.97139 36.76128 
218.01947 39.811615 
218.047226 33.739563 
218.097641 53.403831 
218.102325 146.928955 
218.211426 43.420395 
218.240631 38.190525 
218.26976 48.445118 
218.55162 38.353943 
218.577057 42.55777 
218.596466 40.602051 
218.633179 39.190441 
218.727341 48.163879 
218.805466 40.416954 
218.872864 37.177452 
219.095062 52.315044 
219.184418 50.605885 
219.320877 33.371582 
220.191422 50.245777 
220.312698 58.53067 
220.344757 40.398762 
220.718613 40.030205 
220.790192 48.509972 
220.975571 43.045719 
221.121796 303.449158 
221.12442 2640.052002 
221.387527 35.695457 
221.68692 41.966042 
222.127777 203.53743 
222.143143 33.000149 
222.143921 33.669685 
222.515671 41.445381 
222.680481 49.262257 
222.796921 41.202499 
223.018402 56.553852 
223.131393 42.448845 
223.633698 38.339149 
224.430298 39.754387 
224.548904 57.434334 
224.835266 38.907345 
224.868881 36.619164 
225.16449 44.212128 
225.480301 40.913857 
225.550781 44.171375 
225.728394 55.160355 
225.738464 46.06868 
225.871597 46.192184 
226.480331 44.143818 
226.725784 42.817989 
226.745773 47.522163 
227.08371 43.833569 
227.161255 51.667942 
227.265121 41.113369 
227.281815 41.508015 
227.378128 48.676991 
227.504028 38.08987 
227.511673 37.925896 
228.021866 37.908577 
228.109039 254.363754 
228.205658 37.583759 
228.229095 56.242523 
228.310959 42.40498 
229.093124 482.652679 
229.14859 37.949753 
229.187302 40.113064 
229.213181 47.891663 
229.223618 40.432285 
229.296066 36.232967 
229.721649 42.919014 
229.732437 40.104141 
229.930771 53.066498 
230.205048 46.924259 
230.487244 38.487816 
230.701523 46.677273 
230.779724 41.144165 
231.239075 42.459724 
231.253021 36.713394 
231.390045 69.886185 
231.511765 40.587753 
231.680161 41.715134 
231.91803 47.383644 
231.920639 37.031742 
231.931763 45.558773 
231.966736 48.852402 
232.034332 46.331585 
232.092453 116.318871 
232.105988 41.425751 
232.148224 38.857578 
232.191559 41.160126 
232.300156 40.329029 
232.506195 45.780388 
232.709229 35.642147 
232.777695 48.532703 
232.920792 46.054211 
233.291199 40.339256 
233.363052 54.234329 
233.553558 44.775055 
233.799103 41.704796 
234.066101 41.862236 
234.074753 45.1152 
234.557739 39.924622 
234.867233 38.16246 
234.922928 39.726727 
235.085175 40.503067 
235.239426 38.789696 
235.355164 38.372997 
235.47908 42.396111 
235.48291 47.625824 
235.558441 66.70034 
235.595612 54.843887 
235.913681 50.022236 
235.937515 38.696884 
235.940445 39.832657 
236.015579 41.706165 
236.091751 53.248745 
236.18309 44.316952 
236.196335 42.396805 
236.304443 47.558895 
236.987778 39.006893 
237.172318 42.601597 
237.394073 52.01355 
237.447952 35.445759 
238.26976 40.847126 
238.279663 44.655479 
238.324127 42.296566 
238.394333 65.915573 
238.527115 40.190922 
238.539474 38.683544 
238.555237 44.004848 
239.343994 63.555386 
239.484589 37.50256 
239.852661 39.503216 
239.980942 42.256264 
240.01329 47.136116 
240.420761 42.424129 
240.455063 49.728928 
240.498016 52.982975 
240.897141 41.464134 
241.019562 52.141964 
241.075485 44.473293 
241.545303 43.393459 
241.575058 42.304909 
241.578339 41.615604 
241.674988 49.522148 
241.71051 42.079971 
241.88205 46.859905 
242.205414 38.864361 
242.354355 39.890469 
243.336304 36.419773 
243.97081 36.32061 
244.117737 151.599091 
244.140106 40.689892 
244.218292 45.529652 
245.13559 262.642578 
245.290176 42.272881 
245.479233 49.401932 
245.779587 42.280903 
245.818268 41.781307 
245.839706 43.332752 
246.111969 62.681694 
246.113892 150.499176 
246.116364 1584.619629 
246.119476 16113.274414 
246.122147 146.553146 
246.12291 134.838425 
246.179855 39.949364 
246.232468 44.542183 
246.740921 35.270668 
246.749817 51.33884 
246.782639 41.329575 
247.116653 241.968414 
247.119705 119.584999 
247.123001 1279.818848 
247.256653 44.596397 
247.371872 42.187382 
247.635025 45.634003 
247.768845 50.391991 
247.805359 41.352619 
247.993149 41.416199 
248.803314 39.142857 
249.01976 54.534618 
249.115753 69.024895 
249.119308 337.716309 
249.280655 41.616642 
249.340897 35.715572 
249.500778 42.39238 
249.636581 46.106178 
249.654236 47.027756 
250.369797 37.722527 
250.634293 55.125923 
250.87767 43.266556 
251.447693 54.650124 
251.507401 51.916523 
251.787094 42.216125 
252.127563 44.287178 
252.3423 48.382431 
252.566406 45.98296 
253.500641 51.76445 
253.595917 52.504322 
253.623062 47.763283 
253.994995 35.182537 
254.882095 50.135044 
254.91951 44.105022 
254.927948 37.769295 
254.944366 41.287323 
254.980392 38.525959 
255.12793 41.591736 
255.214035 51.287582 
255.255035 44.982605 
255.489349 39.807922 
255.677139 50.305435 
256.987671 44.935146 
257.08786 56.665371 
257.210632 48.503986 
258.097198 137.65976 
258.481293 44.371197 
258.499176 48.348022 
259.149017 50.834724 
259.545502 50.555218 
259.586365 53.19939 
259.848267 39.233818 
259.938904 37.692955 
260.054932 39.955444 
260.078094 44.474033 
260.262085 44.767818 
260.31897 52.223843 
260.549957 40.260303 
260.885345 37.955906 
260.968384 73.154472 
261.13446 43.697411 
261.375885 37.867428 
262.301727 52.151543 
263.058502 43.867725 
263.059906 37.473083 
263.135498 91.108376 
263.138062 134.129257 
263.139709 239.526505 
263.142548 2502.284912 
263.145874 28762.107422 
263.148956 300.838684 
263.149811 270.326691 
263.273315 41.411919 
263.415253 44.173794 
263.717407 46.265278 
263.737152 48.057629 
264.14328 510.103271 
264.14566 186.604996 
264.149567 2221.148682 
264.215607 43.464012 
264.254669 39.682724 
264.360657 45.725639 
264.420288 57.946304 
264.453217 40.294014 
264.69751 42.627033 
265.305206 52.34581 
265.51123 47.040916 
265.938171 45.787563 
266.028809 36.248005 
266.102112 153.882004 
266.360657 40.565247 
266.394928 46.872658 
266.43866 47.108452 
266.477448 55.884747 
266.968933 49.00993 
267.125885 45.849674 
267.178406 39.977161 
267.17984 40.408043 
267.919159 37.590218 
268.000641 38.40593 
268.441254 37.99955 
268.949707 46.511936 
269.110504 39.424725 
269.119263 43.289448 
269.123413 42.516209 
269.179535 44.053482 
269.222504 38.905087 
269.29422 44.025169 
269.390564 49.001842 
269.452789 41.606567 
269.547577 38.725319 
269.900421 48.046894 
269.96756 48.323719 
270.097107 64.085678 
270.119507 155.427765 
270.122223 279.480347 
270.124786 808.151917 
270.171692 35.625923 
270.212708 51.336006 
270.417236 44.984779 
270.62616 102.992256 
271.103516 102.526726 
271.180115 39.000839 
271.390198 37.332249 
271.505035 49.793461 
272.10611 37.000595 
272.21814 52.411873 
272.713196 43.307777 
273.345734 58.588787 
273.590912 51.293133 
273.616852 72.828758 
273.687622 51.827267 
273.80069 44.567829 
274.110565 96.309929 
274.114594 1049.340942 
274.455536 40.701862 
274.655579 42.833023 
274.978912 48.582745 
275.117615 88.975586 
275.455566 43.303387 
275.4711 42.603893 
275.634613 41.889889 
275.653992 43.408154 
275.883728 42.022087 
276.107788 207.823944 
276.698242 47.399174 
277.691437 47.866386 
277.734833 46.392731 
278.09198 46.020866 
278.467072 34.703522 
278.886383 51.927769 
278.955902 48.031082 
279.007111 40.431355 
279.016296 39.887356 
279.070251 38.209881 
279.129974 58.650372 
279.515564 52.720058 
279.636383 50.486824 
279.714172 41.57238 
280.522675 39.318092 
281.483856 38.455479 
281.81543 38.363281 
281.895386 42.733078 
282.130554 67.604919 
282.383484 39.667229 
282.497192 49.199455 
282.61969 75.059174 
282.622284 182.509445 
283.035919 43.958656 
283.059387 46.610916 
283.200317 69.649673 
283.490723 43.145542 
283.730408 56.153835 
283.743103 47.450157 
283.780548 51.050091 
283.936981 47.177025 
284.112793 498.841461 
284.134949 90.510681 
284.394135 42.792248 
285.11908 59.933243 
285.637512 43.330692 
285.667877 46.080067 
286.114594 190.730301 
286.166016 45.38081 
286.630249 51.766212 
286.758118 46.058426 
287.064789 45.400436 
287.141296 52.352509 
287.14624 279.586121 
287.161346 70.019318 
287.507782 42.994839 
287.569672 58.102108 
287.877655 51.686329 
287.981018 37.523895 
288.107697 140.053558 
288.125885 115.703323 
288.130219 960.760803 
288.150177 50.303135 
288.246887 59.285954 
289.133728 90.375549 
289.364044 41.281075 
289.461517 49.997753 
289.713501 38.451771 
290.398071 40.592487 
290.68808 36.686977 
291.043182 42.555439 
291.09549 38.978382 
291.13266 90.260574 
291.136414 364.664612 
291.141052 4049.974609 
291.53241 43.379265 
291.581696 37.620117 
291.633972 59.683403 
291.637177 91.582199 
292.13916 121.631317 
292.67569 39.286156 
292.677795 37.245918 
292.975311 39.341312 
293.60434 42.433414 
294.014099 57.485279 
294.02655 40.100826 
294.108398 121.288017 
294.674866 68.657463 
294.757294 38.045956 
294.923096 40.461624 
295.091797 42.666039 
295.369598 40.925186 
296.170837 40.673264 
296.41745 54.571129 
297.375458 47.753963 
297.67099 42.993759 
298.162415 45.683186 
298.601746 39.31509 
298.893005 43.256069 
300.107635 68.99305 
300.125488 38.656937 
300.799561 50.379238 
301.16153 123.883499 
301.934357 43.328739 
302.118347 343.242584 
302.123413 3121.849365 
302.827209 41.719879 
302.871704 36.418659 
303.124207 106.504959 
303.126801 510.641785 
303.129608 126.098083 
303.141235 233.846115 
303.550049 39.363598 
304.002289 40.172157 
304.041779 61.267933 
304.125061 114.194542 
304.272583 52.630123 
304.322052 41.726505 
304.52951 42.819805 
304.865082 43.644279 
305.035095 45.362644 
305.086426 40.637394 
305.134277 82.672256 
305.145325 93.010376 
305.156921 53.319912 
305.544342 48.8825 
305.683136 50.808594 
306.088257 43.389606 
306.185608 48.488998 
307.011536 65.617538 
307.568054 49.37598 
307.86792 38.188911 
308.531555 39.806034 
308.778015 44.682697 
308.835815 37.541725 
309.018951 36.873211 
309.127502 41.938747 
309.377228 55.685726 
309.744781 44.901352 
310.070343 46.824188 
310.980591 49.724346 
311.530548 42.413956 
312.113953 87.809128 
312.119049 688.704163 
312.352509 38.126694 
312.36084 40.901962 
312.916534 37.308731 
312.918365 45.155327 
313.102936 111.978325 
313.122589 111.000206 
313.392426 48.841228 
313.476837 41.619179 
314.591766 50.478413 
314.767395 41.680611 
315.728607 58.133411 
315.78891 44.694836 
315.962402 47.28331 
316.28717 44.094223 
316.460297 51.903584 
316.917908 42.513157 
316.993225 52.626774 
317.122498 43.798912 
317.299316 56.111183 
317.453613 55.773773 
317.477448 44.329586 
317.579926 46.44416 
318.397034 56.241138 
318.644531 60.406086 
318.652985 44.646286 
319.578857 40.693451 
320.128357 317.337128 
320.134003 3207.866699 
320.812469 43.60659 
321.101288 51.280857 
321.137299 463.392487 
321.319794 43.604885 
321.867767 45.323452 
321.886902 55.796112 
322.155121 51.841335 
323.526215 37.743423 
323.640045 36.921413 
323.641174 35.358948 
323.769745 43.444023 
323.796021 42.917519 
323.87558 50.327908 
324.165863 48.792713 
324.335449 40.341396 
324.643646 42.837967 
324.824585 47.490376 
325.078217 43.478855 
325.172974 39.883156 
325.444153 44.761074 
325.967468 38.83395 
326.051636 39.149723 
326.113251 38.667576 
326.464752 42.54895 
326.55838 38.120087 
326.890076 45.527824 
326.930542 42.293068 
327.140686 53.313053 
327.329742 49.402779 
327.9133 44.124737 
328.124908 98.319664 
328.131744 41.703922 
328.555603 42.943298 
328.667328 45.786491 
328.698578 37.762238 
328.73056 55.096031 
329.145599 160.797211 
329.24527 40.326916 
329.624695 46.691666 
330.118805 63.085663 
330.123444 291.59433 
330.129608 2520.18335 
330.140991 61.90493 
330.25058 51.408501 
331.113159 48.738926 
331.126221 67.877716 
331.132843 460.099579 
331.438507 48.669056 
331.530151 40.466003 
331.750763 61.103657 
332.074768 40.19178 
332.186127 41.965549 
332.384949 44.27887 
332.859833 40.151505 
333.453491 38.284 
333.802643 40.457222 
333.985474 48.21347 
334.194702 48.467957 
335.475311 61.838718 
335.815002 41.490662 
336.368683 40.227493 
336.757599 47.870228 
337.159973 55.688744 
337.245972 49.591812 
337.900513 41.40485 
338.144592 319.07666 
338.33609 42.084202 
338.760956 37.646187 
340.264038 42.816143 
340.761871 41.289806 
341.04953 40.190002 
341.481079 42.268639 
341.501953 48.391724 
342.164337 53.777943 
342.515015 43.72813 
343.022461 46.515583 
343.261414 48.208092 
345.151794 175.615036 
346.135803 263.237671 
347.149689 130.869598 
347.156189 1103.180786 
347.254883 43.799187 
348.140167 784.031311 
348.151703 53.75341 
348.159515 194.755005 
348.772217 42.252602 
349.143524 138.736893 
349.2565 65.948692 
349.457733 49.12315 
351.328308 44.695873 
351.701721 48.940212 
352.025024 37.94685 
352.224792 46.516109 
352.375916 46.687332 
352.390045 43.705387 
352.7146 67.027969 
353.317505 37.497578 
353.557556 51.807026 
354.127533 43.085758 
354.140717 126.217796 
354.663544 39.43269 
354.968842 47.058018 
355.124634 84.800453 
355.295013 49.06583 
355.47879 49.001514 
355.66452 45.489723 
356.287262 42.169945 
356.407227 42.293758 
357.617432 39.371925 
358.195038 55.844284 
358.217834 43.265018 
358.275848 44.426964 
358.58905 43.024796 
358.93985 40.068897 
359.183319 42.35585 
359.414734 49.185356 
359.702942 46.007507 
359.76947 44.578995 
360.10611 49.343334 
360.483887 44.656731 
361.203827 38.536312 
363.162354 302.303131 
363.410004 47.22522 
364.302521 46.159512 
364.411713 43.721371 
365.057526 48.345726 
365.088867 49.403683 
365.154053 91.939285 
365.159332 471.621857 
365.166595 4042.033936 
365.380249 39.750824 
366.170135 739.135071 
366.892548 40.070595 
367.359558 45.534096 
367.821075 71.084442 
368.129517 39.779602 
368.554688 51.809052 
368.822632 48.272285 
369.135071 46.1464 
369.21524 44.196903 
369.824524 38.329411 
370.405975 40.762974 
370.667023 48.322262 
371.125793 52.977814 
371.167694 63.820175 
371.179993 38.831821 
372.143829 63.501556 
372.151123 354.460571 
372.297546 45.243595 
372.368713 67.558296 
372.521973 40.579338 
373.127045 81.544655 
373.135437 847.387085 
373.213165 39.020889 
373.395905 39.537636 
373.825867 46.847931 
374.138855 158.915833 
374.532654 56.718437 
375.086609 46.664368 
375.690094 44.174351 
376.109894 38.425873 
376.975067 41.771797 
377.125854 42.084972 
377.473816 44.043419 
377.942688 51.691475 
378.920166 49.48484 
379.182526 145.027069 
379.882538 55.161579 
380.340942 44.449951 
381.577972 40.08429 
381.877655 37.142014 
382.502167 42.414536 
383.021454 42.418507 
384.199188 68.235558 
384.401764 46.089058 
384.947418 38.432678 
384.986511 37.825768 
384.99765 44.792843 
385.092773 43.72086 
385.396393 52.546577 
386.17926 47.453003 
386.625458 44.67469 
387.298553 49.969555 
388.122284 46.630558 
388.159973 47.482128 
388.369781 44.526432 
388.612488 57.860535 
388.733612 51.92461 
389.178406 133.791718 
389.390137 40.574905 
389.536987 49.733959 
389.994965 37.49144 
390.138885 41.37262 
390.143738 96.055893 
390.147766 312.428894 
390.153564 1759.601562 
390.161316 19239.769531 
390.170502 77.575279 
390.724579 59.458591 
390.903625 46.211124 
391.089722 55.083172 
391.150391 75.96154 
391.165375 2309.05249 
391.342407 41.002457 
391.673004 43.339207 
391.898712 47.24054 
393.673492 42.959606 
394.00946 50.041096 
394.289307 48.020683 
394.322113 41.651531 
395.188721 43.101479 
395.431976 45.926064 
395.76178 50.002159 
396.101318 45.501049 
396.671875 43.806107 
397.86911 46.438217 
398.16925 55.102779 
398.43045 42.851574 
399.682922 43.426609 
399.719971 59.170959 
399.956543 49.341446 
400.144775 47.781559 
400.947205 58.342594 
401.588715 53.213943 
401.686005 49.237381 
402.403992 51.531578 
403.367645 66.807945 
404.985718 52.274971 
405.174225 40.81192 
405.733215 58.994965 
405.750214 57.571377 
407.163635 56.274765 
407.173309 401.016571 
407.17923 2259.730469 
407.187622 24591.371094 
407.197845 162.468567 
408.176086 84.661209 
408.191803 2993.7146 
408.529053 49.703663 
409.055695 44.446373 
409.191803 46.343979 
409.516205 49.208527 
409.861908 53.269943 
410.40799 46.273033 
410.709747 50.144341 
411.20285 49.945168 
411.441711 54.911846 
411.779236 47.361778 
412.403137 44.407639 
412.434937 48.374912 
413.119507 48.871025 
414.000732 41.577579 
415.191589 43.003098 
415.568909 36.156815 
415.88382 44.915859 
416.172028 47.06443 
417.682373 42.211586 
419.481812 36.587261 
420.209351 54.506622 
420.670959 45.493176 
421.455872 49.265068 
421.545166 51.088409 
422.761353 53.173489 
422.77179 61.127392 
422.895477 43.779945 
424.954407 46.42675 
425.737122 41.470703 
426.244659 41.060047 
427.013123 41.765575 
427.623871 45.970024 
428.154114 55.006893 
428.177368 102.12867 
428.777924 53.395428 
428.882721 49.57243 
428.992523 46.535797 
429.018616 42.151764 
429.182343 48.390343 
429.485687 44.000019 
430.225067 46.698044 
430.78537 37.4277 
430.794312 41.093128 
431.188477 82.68029 
431.463104 51.293327 
431.761658 47.228775 
432.070953 57.674706 
433.2164 39.413811 
433.691986 47.160824 
434.77771 44.562111 
435.042419 44.951183 
435.047699 45.905304 
435.240234 40.947174 
436.540466 45.137821 
436.627136 45.149746 
436.634796 41.173386 
436.855438 48.141533 
437.900543 42.687775 
437.993958 51.310726 
439.894714 60.253922 
440.341522 51.440178 
440.453735 53.004196 
440.740143 48.442665 
440.758667 42.903202 
440.9841 60.142342 
442.306549 42.785664 
442.351715 55.473289 
442.398376 45.025921 
443.152313 57.539364 
443.230225 51.36377 
443.320007 51.439476 
443.615509 50.969528 
443.756195 44.517128 
444.412811 62.137093 
444.611267 52.844589 
445.12088 47.604954 
445.181549 133.869659 
445.20401 406.00116 
445.509857 48.734032 
445.569122 58.801617 
445.735352 48.125587 
446.144623 50.808022 
446.15448 98.815407 
446.165527 1305.650757 
446.206787 43.060211 
446.844421 54.233124 
447.156311 41.948009 
447.168579 211.867432 
447.208679 167.858536 
447.247345 59.597282 
447.389374 45.761147 
448.064148 43.779709 
448.504822 42.428856 
449.59729 41.19289 
450.191376 52.032021 
450.562439 48.581493 
452.187744 51.749874 
452.824097 48.858284 
452.940918 36.275635 
454.870819 38.285435 
455.455719 63.07394 
456.885712 39.183376 
457.192657 44.857857 
458.082825 45.133801 
458.163879 61.810745 
458.509125 51.178047 
458.696808 62.946609 
459.235626 42.029675 
460.13736 50.356602 
461.319672 43.252995 
461.40033 45.304676 
463.192413 177.657898 
463.214294 156.856171 
463.767456 50.433319 
463.926666 40.452045 
464.216949 71.268982 
464.656403 41.156479 
465.375214 52.668262 
465.996002 44.736038 
467.200226 49.355042 
467.283264 58.364914 
468.324097 39.460171 
468.530334 47.523907 
468.930084 43.741795 
469.010742 47.407246 
469.192657 132.59227 
469.829803 67.811005 
469.977173 48.034355 
470.177307 94.122536 
470.799347 53.956886 
471.967377 44.316582 
472.170654 46.640499 
472.187561 40.185883 
472.508972 56.748737 
472.550995 49.817188 
473.078125 44.251934 
474.233948 57.062428 
474.599945 39.307682 
475.423828 42.95504 
476.126831 41.078552 
476.577087 48.669327 
476.631042 48.436264 
477.299042 45.422935 
477.933624 51.28109 
478.214966 58.407936 
478.818695 44.580135 
480.155792 47.313911 
480.218628 94.264664 
480.241119 149.519684 
484.149414 41.627876 
484.311035 44.550098 
486.126892 41.729477 
487.190887 98.40657 
487.2034 1002.083008 
488.0625 37.835136 
488.174805 106.639755 
488.187469 898.836731 
488.207062 198.438812 
488.309631 45.166866 
488.84613 54.038727 
489.190704 201.137589 
489.536774 49.639778 
490.791992 52.199619 
492.682709 48.509533 
493.971893 45.834549 
494.24704 48.744125 
494.448059 52.981178 
494.688507 40.935379 
495.620453 59.272503 
495.861572 51.891811 
496.361603 49.888687 
496.398285 51.451675 
496.610046 51.64286 
497.849915 54.833965 
498.509033 48.799847 
499.439636 54.316013 
500.424652 48.149097 
500.993866 52.817642 
501.769135 50.861599 
501.958557 47.433781 
502.224762 60.043201 
503.20929 71.611252 
503.893494 37.485954 
504.229828 511.134644 
505.186859 58.822948 
505.199677 466.102142 
505.213806 4041.706055 
505.234467 104.673271 
506.197601 166.950363 
506.205322 104.180603 
506.217316 843.965454 
506.353638 51.786938 
506.68869 53.070606 
507.033875 46.600048 
507.202026 74.67086 
507.217163 48.272282 
509.279205 47.812023 
510.331177 54.133148 
510.549408 39.133934 
510.868866 48.756069 
511.117981 43.237919 
511.451752 42.435436 
511.656738 45.496201 
512.620239 46.170376 
513.503113 45.660229 
514.20282 43.200981 
514.352417 45.438522 
518.276184 47.756405 
518.37915 51.527428 
519.003296 43.804428 
519.568054 43.42149 
519.856384 43.347942 
520.236145 126.871681 
521.315674 46.701965 
522.225098 633.961792 
522.240173 4477.585449 
523.208984 229.941238 
523.224548 1778.537598 
523.243652 1114.104004 
523.501648 39.908916 
524.212769 72.827095 
524.227417 506.102661 
524.40564 43.584198 
524.897095 47.370094 
525.380432 42.546886 
525.642761 49.706398 
526.255676 48.464188 
527.177856 58.29604 
529.154907 49.19471 
529.225403 52.028175 
530.208069 115.285263 
530.25238 50.46674 
531.085999 45.137295 
534.409546 39.383774 
534.694763 49.034283 
534.978882 50.638432 
535.1698 51.594536 
536.119446 52.937698 
536.312866 49.588306 
536.357788 55.020943 
536.373779 68.414696 
540.219238 369.625732 
540.234497 3210.030518 
540.249512 32949.496094 
540.261658 244.746613 
540.267517 157.900497 
540.601135 58.222759 
541.227722 156.970703 
541.23822 750.09259 
541.254211 6647.087402 
542.256592 187.062027 
543.424438 65.044327 
545.8573 57.173553 
546.410706 42.230934 
546.931091 42.257988 
547.218872 251.176361 
547.235901 1874.092773 
548.191833 60.963291 
548.20343 98.72094 
548.220215 1074.517334 
548.239258 419.848083 
549.206238 51.100239 
549.223389 258.391479 
549.602722 55.195042 
549.974915 47.584866 
550.378479 49.040104 
550.386047 42.385986 
551.227478 58.276653 
552.262085 59.349056 
552.529724 40.652683 
552.534912 37.700356 
553.215332 53.617245 
553.245178 44.643108 
553.77356 53.31599 
558.52887 52.265202 
558.832764 45.641174 
559.784607 40.355125 
560.235046 64.287872 
560.455872 53.00869 
562.508606 45.57687 
563.222229 52.543556 
563.683289 70.576469 
564.23175 98.180595 
564.244202 382.057037 
564.261963 3210.10791 
565.007019 37.085289 
565.216248 205.592117 
565.228149 1010.848022 
565.245728 9939.915039 
565.265808 782.004333 
565.403564 52.332382 
566.104858 43.201622 
566.126099 43.600471 
566.231506 279.099365 
566.249512 2275.780273 
567.25177 89.360802 
567.873901 45.094723 
568.536987 51.697426 
568.920349 42.64867 
569.2771 43.507214 
569.499451 46.262398 
569.867126 50.866478 
569.932739 94.534241 
571.161804 45.161613 
571.253967 46.044373 
572.687866 40.534531 
572.934021 62.747185 
572.942444 64.610527 
572.960693 110.354111 
573.242004 107.220825 
573.260193 54.363064 
573.485046 37.020638 
573.832031 52.410168 
574.895447 44.98436 
575.311157 55.715794 
575.714355 38.235443 
575.785828 110.257065 
575.946655 47.210686 
576.586121 69.089676 
576.62262 51.334843 
577.299194 47.260387 
577.418396 47.084328 
577.738464 46.015968 
578.125732 58.533939 
583.11438 57.25827 
583.244202 155.477081 
583.25708 902.044067 
583.275757 10510.299805 
583.289185 75.34259 
583.298035 66.774536 
583.394958 47.104687 
583.803711 41.42202 
584.208801 62.219528 
584.244263 213.505951 
584.259827 816.437195 
584.277771 13152.888672 
584.29126 204.074799 
584.378357 73.206032 
584.944336 56.068043 
585.032593 45.364708 
586.277161 48.250004 
586.290039 102.410522 
586.358582 45.687267 
586.454712 58.379887 
586.768066 51.002598 
587.261475 40.880127 
588.766357 43.219719 
588.843323 65.862503 
589.291565 37.832664 
589.552246 53.979893 
589.755798 51.71917 
590.101135 54.380817 
590.608032 41.337143 
591.728455 42.001881 
592.80127 43.766861 
593.37677 45.61565 
593.43457 48.651413 
593.572205 46.851658 
593.619873 70.718521 
593.76178 51.191132 
594.167358 59.136097 
596.165955 43.746002 
596.658142 42.551624 
596.936951 44.155823 
596.960876 61.988338 
597.229187 57.991211 
597.244324 45.535435 
597.516846 48.082504 
597.658447 48.308468 
597.686707 49.978489 
597.762512 42.637238 
597.861023 47.718243 
600.450562 47.700111 
602.38678 38.906357 
603.610229 61.022747 
605.363892 58.788635 
605.378113 103.917053 
605.392639 63.338516 
605.492798 85.765099 
606.367981 57.678474 
607.382019 51.967999 
607.595093 47.096661 
608.309021 48.553444 
608.622192 49.741199 
608.945251 42.684288 
610.343628 41.620056 
610.470337 49.797867 
610.635925 56.254055 
610.881714 45.869606 
611.3797 72.724609 
611.440125 66.961868 
611.455444 186.716019 
615.241272 67.202171 
615.270447 112.638321 
618.403748 51.815403 
618.490173 48.193626 
618.835083 44.984947 
619.974792 56.539268 
619.988831 65.586388 
620.247375 46.123394 
620.458618 44.610001 
620.871399 48.435673 
620.895569 47.147564 
622.077271 57.81279 
622.145813 68.087608 
623.115601 51.533913 
623.284973 62.141548 
623.333069 119.634895 
625.124023 54.456326 
625.818726 51.06551 
625.905212 64.967064 
626.673096 115.840378 
626.688171 73.170692 
627.205383 59.64278 
627.291931 100.173363 
627.884155 50.717682 
628.887329 42.895134 
629.114136 124.88533 
629.132507 66.116615 
629.157654 52.980412 
629.221252 50.930954 
630.574463 61.456844 
630.594482 52.428967 
630.667847 62.975868 
630.995422 68.875549 
631.007629 39.961845 
631.201965 47.588943 
631.284729 66.005333 
631.301758 201.066818 
631.33783 47.459351 
631.658691 44.552395 
631.992676 55.050228 
632.192383 52.681927 
633.202881 45.457226 
634.368896 46.626537 
634.70105 56.538151 
634.729187 65.485519 
635.429077 46.629887 
635.76709 64.526138 
636.035522 55.010204 
638.834961 120.456078 
640.831421 44.815277 
641.69574 77.711197 
641.74054 64.875114 
641.853943 41.786793 
642.669983 64.107391 
642.956848 66.906921 
642.999573 97.568901 
643.021606 63.22179 
643.223389 47.832432 
643.323853 100.005501 
645.434753 43.730404 
645.88562 44.363743 
645.897583 43.648174 
646.496643 44.293053 
647.535156 95.746674 
647.661926 53.83548 
648.592407 64.195549 
649.680176 40.408737 
650.18811 52.237019 
650.471741 52.776157 
650.499023 69.165916 
651.14032 64.074455 
651.460266 61.933666 
651.476807 147.914337 
651.493225 69.099754 
651.712341 54.138893 
651.722229 68.585411 
651.734009 58.581799 
651.78241 74.943207 
651.794983 123.078506 
651.81427 207.654358 
652.157898 48.98167 
654.088684 52.70911 
654.727905 49.839989 
654.738403 38.262253 
654.792358 131.273499 
654.812256 107.54734 
654.825745 64.881927 
655.171997 46.431137 
655.334534 47.871353 
655.904602 52.557335 
657.422729 47.941166 
658.425537 47.859917 
659.107056 47.142921 
659.164246 79.160545 
659.189392 41.722363 
659.622742 53.913036 
659.760559 47.670822 
659.844421 59.280754 
660.180725 48.424294 
660.18811 53.879944 
660.336731 54.923489 
660.950928 46.8382 
661.312927 43.897404 
661.528931 49.162251 
663.263306 44.383224 
664.04071 56.668304 
664.19281 79.716591 
664.262695 79.876442 
664.282654 148.982025 
664.625549 73.864174 
664.752991 42.756634 
665.624451 48.770805 
666.414062 42.593327 
666.442566 41.80061 
666.748474 52.090458 
666.846008 55.312885 
666.985352 45.409161 
668.343506 46.755569 
668.428711 282.031342 
668.453796 217.295166 
668.468079 147.420578 
668.480347 83.066254 
668.494812 64.252289 
668.510742 67.22966 
668.549744 82.630135 
668.564514 119.399803 
671.291931 47.742062 
672.622498 44.647728 
672.698608 48.76318 
673.256165 133.347214 
673.277832 59.350189 
673.320618 99.753525 
673.337341 112.286942 
675.361328 49.732845 
675.655518 51.455605 
675.958435 56.697414 
676.202698 53.976727 
677.045898 46.256306 
677.118652 46.097725 
678.306641 51.583775 
680.730042 44.794323 
682.651428 88.515373 
683.236023 54.42112 
683.664734 50.966385 
683.736938 46.328663 
684.154053 50.305843 
684.221069 51.591858 
684.25531 54.670216 
684.387939 46.392361 
684.954346 43.955833 
686.948059 64.58567 
687.023621 67.294022 
687.387756 93.830643 
687.406128 101.465477 
689.189331 40.681683 
691.887329 44.367851 
693.882507 45.541008 
694.162659 43.018875 
694.182495 57.503231 
694.690552 63.732685 
697.00946 66.885658 
697.05127 49.819103 
697.08429 68.821449 
697.103455 136.008591 
697.616089 47.926373 
697.912537 63.71397 
699.926636 43.965656 
702.845947 52.336334 
703.06311 50.207417 
704.106262 49.526741 
704.172791 47.86832 
704.981934 52.105518 
706.222961 75.058487 
706.263306 102.49482 
706.278564 99.756416 
706.297607 231.401367 
706.339233 72.219749 
707.460266 54.516537 
707.575684 49.907978 
708.570923 47.720409 
710.702271 52.632256 
710.906006 58.930088 
710.984497 106.137161 
711.126404 44.181107 
711.385193 86.048492 
712.987 53.340462 
713.017883 58.364159 
715.239258 45.376881 
716.280273 45.637627 
716.295776 50.268272 
716.44281 53.50592 
717.715149 60.235481 
718.495544 47.164772 
718.836609 48.684086 
721.387207 64.368706 
721.538452 59.889412 
726.133057 60.806335 
726.579041 50.221142 
727.103149 58.457951 
727.897522 48.253002 
728.593201 38.795891 
729.183167 56.496292 
729.199829 55.445309 
731.9375 52.955151 
736.074402 50.559322 
737.515625 47.204857 
737.541931 70.27739 
737.719055 48.832813 
738.78241 42.843437 
739.283691 45.782104 
739.944031 44.777866 
739.994812 66.227676 
742.520691 51.982014 
742.633179 54.896198 
742.650024 88.145599 
743.062622 59.553268 
743.104553 46.99939 
743.42981 65.962166 
743.520203 137.357574 
744.01886 60.217018 
744.754822 53.942791 
744.912598 50.965706 
746.148438 72.312988 
746.387024 48.919849 
746.69519 42.532101 
748.609985 56.247063 
748.623352 71.510147 
748.656433 66.195732 
748.694885 102.738403 
748.719666 226.866287 
749.098511 50.131046 
749.840576 42.649445 
750.528076 50.727055 
751.033142 49.474251 
753.905701 75.955605 
753.966003 115.167946 
753.998596 136.887634 
754.435059 75.271164 
755.145081 56.729092 
755.341125 50.164494 
755.389099 49.61974 
755.774536 63.63509 
755.800171 71.732841 
756.49292 51.4673 
757.298889 70.08802 
757.350464 57.407879 
757.825745 52.502182 
758.058228 57.243206 
758.250916 49.018291 
760.134155 59.285606 
760.191589 54.505707 
760.21637 58.289623 
760.247681 175.75 
762.69574 44.061367 
762.775635 42.91161 
764.30896 46.167027 
764.676575 51.317982 
765.230347 53.359261 
765.683838 45.71558 
767.212402 58.886211 
768.486755 53.095203 
768.506531 49.506603 
770.228638 53.715305 
771.970459 46.061775 
772.124023 69.746086 
772.135681 78.646339 
779.552307 46.307129 
779.949646 42.001575 
779.959229 38.659679 
780.015381 58.058777 
785.466431 48.191544 
786.862061 43.418293 
787.026672 47.721809 
788.458557 54.638031 
790.38739 50.474445 
793.152832 47.05056 
793.290222 45.395779 
794.523865 51.410988 
795.562622 43.649834 
795.976685 46.807377 
796.502319 49.431213 
796.556396 83.913483 
796.610291 47.673218 
798.787415 58.197544 
801.929871 74.775055 
801.949097 72.843842 
801.980042 61.241829 
802.022644 234.059586 
804.411621 50.491962 
805.601379 61.666492 
806.789429 50.672909 
808.304016 57.321861 
808.335876 50.512585 
808.745178 55.719818 
809.13501 48.563507 
814.799133 48.574398 
817.255249 42.975628 
817.267456 45.529259 
820.873169 46.851189 
821.631897 48.921711 
822.117004 41.26767 
822.131775 43.705193 
822.578857 56.917782 
829.049438 58.019012 
829.346436 49.20015 
829.982971 48.834991 
831.737549 48.45631 
832.154846 63.314884 
833.465637 44.879108 
836.312439 45.740658 
839.194946 50.383495 
840.372864 51.381805 
841.179504 41.570995 
841.761658 70.666481 
842.546265 53.104385 
845.895996 61.084301 
846.369568 51.077793 
849.196411 53.683266 
849.413574 43.072346 
851.616333 49.666939 
852.429749 43.034813 
857.733398 60.025398 
860.810059 44.583801 
861.286438 64.735046 
861.593872 50.720901 
861.881531 40.603111 
863.010742 47.175423 
864.3703 55.206825 
867.355347 55.920853 
868.860657 47.638763 
871.713135 84.228264 
871.786621 59.282593 
872.309753 114.779427 
876.360962 45.363811 
877.616943 49.344227 
877.865906 41.627083 
879.482483 77.077019 
879.786255 48.144001 
882.06427 56.408035 
888.908325 48.84166 
889.053894 43.39011 
892.122192 54.956085 
893.131958 51.115974 
897.397583 47.309296 
898.744812 51.432377 
900.531738 79.344139 
901.402893 53.676697 
902.345459 48.674576 
903.255066 51.084099 
904.254944 48.776432 
904.639282 55.872044 
905.078796 50.271381 
906.108215 50.917435 
908.633484 46.830116 
910.654785 49.764835 
911.30426 52.645306 
911.965759 49.990028 
912.494385 56.536812 
915.434387 62.474728 
918.01178 44.803684 
919.245483 47.057747 
921.656311 51.163177 
922.140137 47.301083 
922.580261 48.395313 
923.602844 48.19611 
924.06958 64.231453 
925.091797 56.322853 
925.390991 56.565403 
927.056885 47.795399 
927.143799 56.661575 
932.582581 48.286205 
932.737122 56.909794 
934.136841 51.883423 
935.076599 45.92889 
935.129517 45.654858 
936.358276 50.170895 
940.894409 47.195553 
941.114441 53.134541 
944.148193 53.445557 
946.204346 40.9739 
946.226318 69.115845 
946.669556 50.468182 
946.928528 57.839504 
947.513489 48.129726 
949.53186 46.75433 
950.54364 43.416199 
950.806946 67.002037 
952.973389 40.937649 
954.659424 56.99461 
955.235901 77.717339 
955.253601 107.955261 
955.276062 210.134903 
955.309143 98.309494 
955.349731 317.722168 
955.391663 586.711121 
955.437256 94.411873 
955.473389 57.182156 
955.488586 69.314697 
955.52002 53.160599 
958.186279 58.580242 
960.032776 48.342052 
964.732056 66.807808 
965.389099 48.469776 
967.00415 42.342335 
968.126282 46.059647 
973.443787 65.802483 
973.492065 72.483292 
974.225525 73.238159 
974.598389 51.482208 
975.417603 50.765522 
980.636292 49.492722 
981.356812 43.504345 
981.634094 53.946144 
983.93988 59.142132 
988.141418 41.791557 
997.453613 60.419342 
1003.108826 51.836185 
1007.318848 42.689857 
1007.809814 67.103073 
1009.840576 48.794449 
1012.626892 77.027229 
1013.198364 51.431103 
1015.589172 46.368244 
1015.930115 65.166725 
1017.693298 39.565086 
1019.358154 53.170414 
1021.37384 52.495827 
1022.222717 43.339298 
1023.131775 164.215469 
1026.13562 59.627846 
1026.232788 42.836857 
1028.63623 53.820709 
1033.013794 52.373997 
1034.196167 41.499294 
1036.248535 55.091522 
1037.038574 59.517208 
1037.273682 52.680851 
1041.297852 60.017021 
1042.389038 47.965603 
1045.089233 69.30407 
1045.465332 64.004089 
1045.633545 53.618561 
1048.137695 52.886749 
1048.909546 40.54504 
1048.968262 52.726376 
1053.023926 49.223877 
1054.118774 59.971062 
1055.328979 48.825096 
1055.354004 50.548103 
1059.461548 42.273994 
1061.256226 43.399979 
1063.347656 50.25449 
1064.793945 49.627533 
1068.188721 62.049797 
1069.387573 65.060905 
1070.923706 41.166649 
1075.13916 53.807541 
1076.211792 46.442974 
1077.883667 49.690201 
1078.646362 43.39006 
1080.30249 70.844307 
1081.553589 49.712692 
1084.740601 46.903419 
1088.076782 43.725895 
1090.592651 52.934971 
1091.528442 45.02039 
1095.791626 38.814075 
1097.942993 52.325306 
1099.896973 59.007252 
1100.027954 57.678604 
1100.946289 46.139061 
1101.066772 49.216 
1102.803345 50.361378 
1103.432007 52.243748 
1103.829346 50.044155 
1103.892822 47.033428 
1103.984009 47.828724 
1104.630371 44.048203 
1106.217407 49.773914 
1108.574463 51.459171 
1111.523193 48.578758 
1113.637207 60.254414 
1114.143555 47.082588 
1116.482178 46.09433 
1123.756226 53.994686 
1124.272461 44.937485 
1130.45752 42.84502 
1131.081787 57.090984 
1131.550781 54.067818 
1131.664062 54.135872 
1133.205933 64.415527 
1136.663574 49.093643 
1142.001709 62.459118 
1142.487183 52.36237 
1142.586914 43.387299 
1142.659424 49.074982 
1146.012207 46.853664 
1148.303223 63.446606 
1149.384766 54.254356 
1151.049683 55.958031 
1153.242676 47.882313 
1153.66394 63.770031 
1154.85144 42.25407 
1156.103149 48.605553 
1156.489502 39.566151 
1156.503662 38.794563 
1156.881958 61.442982 
1159.354614 41.885418 
1160.446045 50.626587 
1163.233765 51.021023 
1164.043457 60.742313 
1166.336914 42.411552 
1166.374023 48.142845 
1167.371826 58.610085 
1167.750488 59.155598 
1168.580078 49.025524 
1169.637939 48.90707 
1169.869141 52.374836 
1171.901611 71.179222 
1172.40332 42.790482 
1172.675537 63.324108 
1175.14624 45.647751 
1176.53833 46.935524 
1176.879272 51.020741 
1179.540405 48.804417 
1179.936279 53.971043 
1184.727295 49.441078 
1185.116333 58.907379 
1188.841309 55.758007 
1189.671875 51.055359 
1189.78479 79.343307 
1191.385498 62.324619 
1192.545532 46.969479 
1193.157471 60.763779 
1193.192139 97.483696 
1193.223389 128.269363 
1193.314209 317.163086 
1193.401001 77.520447 
1194.847412 45.849129 
1195.546997 63.431126 
1198.237549 44.981312 
1199.153076 46.97002 
1200.236084 66.056335 
1205.01001 43.200241 
1206.818481 63.149464 
1209.231567 51.89101 
1211.516235 62.599766 
1218.012695 61.236706 
1218.912598 51.475842 
1219.88147 58.796143 
1220.738037 47.853016 
1222.90918 45.985046 
1223.561279 46.882313 
1225.423584 51.185413 
1227.502319 48.89547 
1231.473267 45.395031 
1233.952637 45.588882 
1233.981567 45.236679 
1234.166016 53.269886 
1235.208496 54.450439 
1235.644775 49.432343 
1239.346558 52.72924 
1239.39978 53.335522 
1240.884399 49.697102 
1240.998047 51.244976 
1246.796143 58.215797 
1250.975098 50.562157 
1252.736938 52.682762 
1255.249023 63.074486 
1255.582397 64.280258 
1255.845459 56.987675 
1265.370117 59.122429 
1274.871338 63.278442 
1278.991455 51.714859 
1280.452271 50.714157 
1282.115723 66.532776 
1282.598755 45.58408 
1284.532959 45.684441 
1286.446777 63.888783 
1286.586426 88.073006 
1289.289795 53.528687 
1290.194092 45.830612 
1293.803223 51.598793 
1294.825073 61.740776 
1295.955566 56.731846 
1297.25415 73.912971 
1301.159668 62.060993 
1301.268188 45.795815 
1301.98938 64.506699 
1303.696899 75.51413 
1304.067993 49.074451 
1305.785767 56.664246 
1306.903564 53.117027 
1307.498535 49.783619 
1307.998901 53.514774 
1310.243896 65.878052 
1310.763672 44.830173 
1313.804443 67.837563 
1316.095215 52.294014 
1316.140625 45.279507 
1316.514893 52.406178 
1317.041138 45.12841 
1317.656372 42.196438 
1319.670044 62.341133 
1322.499756 56.933468 
1323.411499 56.257545 
1327.131592 87.529022 
1330.426025 46.159569 
1332.324463 52.725517 
1335.720947 60.373825 
1336.835205 59.687035 
1338.918701 49.389526 
1340.5271 52.039314 
1346.478149 55.605896 
1347.371826 82.140678 
1347.998047 60.791592 
1350.951416 59.278896 
1351.109985 49.670555 
1352.948853 49.938644 
1353.767212 58.39344 
1354.420898 70.627831 
1361.879639 50.990547 
1367.066528 41.704468 
1370.776611 58.137844 
1373.23877 83.793808 
1373.800049 58.055099 
1374.729736 70.075653 
1374.856323 59.03957 
1375.322021 62.146362 
1375.458618 43.919525 
1375.601929 61.594223 
1376.143188 54.165241 
1376.506592 46.26487 
1378.420166 55.156281 
1380.429199 58.483788 
1382.3125 44.552326 
1388.34082 47.671341 
1391.05542 57.887733 
1393.03186 58.03878 
1393.713257 41.600826 
1394.646973 48.303257 
1394.942871 75.656555 
1395.196777 85.239555 
1397.406372 55.967422 
1397.974976 46.481701 
1398.280273 50.875088 
1398.402832 51.410717 
1399.955078 43.222073 
1399.994385 42.286636 
1402.444458 61.961128 
1403.81543 44.521626 
1405.855103 50.795776 
1406.35498 62.807724 
1407.692261 51.295212 
1407.841919 59.807625 
1407.914307 47.021206 
1409.706787 46.670967 
1412.529175 138.430038 
1412.672607 74.458328 
1421.790405 69.983055 
1423.006714 53.323235 
1425.569214 64.472939 
1426.563232 71.918564 
1427.259399 47.858776 
1427.875244 50.946827 
1434.34668 47.507622 
1435.461426 56.452862 
1436.660767 50.206123 
1437.934692 54.829227 
1440.001587 74.365334 
1441.413574 53.912476 
1441.741577 48.715164 
1443.631958 48.629028 
1445.742432 58.997116 
1445.858154 49.630447 
1449.192139 51.099838 
1449.969727 61.678539 
1456.201904 64.763626 
1457.29248 52.328194 
1466.959351 61.641441 
1470.916992 56.111275 
1471.105957 50.021484 
1472.51123 63.127491 
1472.883789 48.193119 
1475.848145 55.658306 
1484.105591 44.342396 
1484.59436 57.994743 
1485.151978 58.229996 
1488.592896 52.177387 
1489.687012 44.97057 
1489.984253 52.914181 
1490.699707 47.755058 
1490.991699 47.191692 
1492.075317 48.092926 
1492.515137 51.014641 
1495.580566 49.862617 
1495.653931 46.857967 
1496.539429 54.944111 
1498.260986 69.407722 
1498.79126 50.11565 
1499.939697 69.073929 
1500.369507 54.449673 
1501.145386 52.707603 
1503.01001 49.027569 
1504.630127 45.347916 
1508.914795 73.675896 
1512.095947 46.206257 
1513.533081 48.067875 
1516.016479 46.891285 
1524.954712 58.561188 
1526.850708 50.335979 
1527.786987 147.029846 
1535.649414 72.993988 
1537.853394 60.879906 
1539.036499 47.049362 
1542.30542 57.071663 
1542.559326 61.275871 
1543.265503 90.838852 
1548.804199 61.266083 
1553.515137 55.62767 
1555.561523 55.89716 
1561.38562 53.767994 
1561.769531 41.722504 
1562.596191 43.655678 
1562.742188 53.061161 
1564.447144 48.94099 
1567.714478 47.460957 
1569.62854 49.710686 
1570.875122 47.347279 
1573.534668 52.181728 
1576.002197 45.509228 
1581.988159 53.57473 
1582.797607 46.766811 
1586.740845 64.91291 
1592.021118 66.633965 
1592.439697 112.984627 
1598.389771 51.154705 
1598.914795 47.865044 
1600.53833 58.747566 
1602.487061 50.974049 
1603.196655 49.840706 
1604.170166 216.280136 
1606.505615 51.593365 
1609.549072 44.023285 
1611.472656 50.250385 
1613.804321 50.734119 
1616.193726 63.849934 
1618.300415 54.242203 
1619.161987 68.229759 
1619.615723 43.761753 
1624.631958 52.542831 
1626.908203 67.192551 
1629.104492 53.774502 
1630.239868 50.283432 
1630.657715 63.16832 
1635.096924 60.20718 
1636.248413 50.009411 
1640.703003 94.57766 
1650.192017 51.711983 
1650.403809 43.391636 
1654.728271 47.622162 
1655.845459 58.312981 
1656.876831 75.079445 
1657.688477 61.159962 
1658.141235 60.176331 
1661.838745 49.822147 
1662.981201 53.038132 
1664.629272 56.2883 
1667.813477 49.052959 
1680.15979 52.748924 
1680.938354 57.618576 
1681.491333 56.002953 
1684.062622 62.877754 
1685.682007 60.713005 
1685.906616 47.351227 
1686.568359 56.007935 
1688.577881 120.486061 
1689.165771 72.100517 
1691.327026 61.696476 
1698.979736 129.369919 
1700.391968 49.957619 
1702.227661 346.642639 
1704.416138 51.585594 
1706.811768 58.144562 
1708.119995 53.480423 
1708.316772 56.093319 
1710.324219 42.188797 
1710.782593 59.495892 
1714.124634 46.077068 
1714.399292 61.047958 
1716.490723 53.351204 
1717.227539 49.88237 
1722.391724 53.221313 
1726.370972 62.152103 
1734.097412 61.157513 
1735.116089 54.985779 
1736.916626 50.561905 
1751.464966 54.402813 
1752.88855 49.474808 
1753.773193 53.572628 
1755.779053 47.216961 
1755.954468 60.217308 
1758.650269 51.569969 
1760.497314 61.330162 
1760.982666 53.086845 
1763.820435 60.424801 
1766.042603 54.062649 
1766.247314 55.727909 
1766.989136 45.921955 
1767.809937 50.1954 
1774.806885 54.137367 
1777.048706 59.36647 
1779.739746 54.993908 
1782.625977 48.893703 
1787.59314 61.165447 
1788.810425 66.555473 
1792.691772 59.781574 
1793.848511 54.115814 
1794.413696 74.735519 
1796.288208 47.348389 
1796.410645 49.51828 
1797.052246 54.901524 
1800.320068 50.152107 
1800.94397 54.479992 
1802.734497 64.056137 
1809.601685 51.879822 
1810.234375 55.028194 
1813.799805 50.127327 
1814.894531 47.792774 
1814.951172 48.60754 
1815.875366 56.551392 
1816.130615 61.23008 
1817.968506 53.784992 
1818.050659 77.513123 
1819.25354 63.590023 
1820.546143 54.187206 
1822.055542 59.218239 
1823.084351 63.202461 
1824.478882 81.78846 
1824.810669 56.987122 
1825.411133 49.79874 
1827.744385 59.164715 
1828.346069 43.073921 
1828.40979 58.321983 
1829.516479 79.894859 
1835.970947 46.838547 
1836.530029 44.653942 
1836.910767 58.420536 
1848.394897 57.801815 
1850.100464 60.929062 
1852.634399 47.66077 
1856.280762 65.725159 
1857.085327 52.849545 
1858.287354 54.742352 
1860.202637 55.933781 
1861.005615 48.139118 
1861.798706 68.967476 
1869.746948 53.883522 
1878.187134 51.879086 
1880.68457 54.39809 
1885.607788 62.752861 
1887.751953 49.888695 
1891.02832 55.986027 
1897.722778 46.612717 
1898.586304 60.068176 
1899.759155 46.312332 
1902.344604 59.222557 
1903.049805 58.830551 
1903.227783 42.496872 
1903.544678 53.409676 
1907.145752 46.738167 
1909.548828 48.612549 
1909.843384 47.765438 
1912.565308 52.529327 
1913.410156 57.870941 
1918.123047 63.04916 
1926.722534 55.005775 
1926.951172 48.380272 
1935.750977 51.153431 
1938.831421 48.357502 
1940.729004 60.314621 
1941.676636 71.121262 
1943.59314 53.306717 
1943.741211 54.623466 
1944.771362 43.806465 
1944.836914 48.011539 
1945.468994 62.260525 
1955.567017 52.122475 
1957.701416 59.958912 
1961.429077 53.464363 
1962.089233 57.519615 
1962.788086 51.263912 
1963.907715 81.514877 
1964.240112 54.677891 
1967.959106 67.671509 
1970.438599 56.754822 
1973.259277 63.133045 
1974.661865 68.842445 
1976.216431 51.407383 
1978.153687 49.71637 
1985.899414 59.455189 
1986.813965 51.009735 
1989.828003 57.78743 
1992.563477 48.357521 
END IONS

