BEGIN IONS
PEPMASS=353.081
CHARGE=1+
COMPOUNDNAME=MLS001304062-01!Griseofulvin126-07-8
LIBRARYQUALITY=1
SMILES=COC1=CC(=O)C[C@@H](C)[C@@]21Oc3c(C2=O)c(OC)cc(OC)c3Cl
INCHIKEY=DDUHZTYCFQRHIY-RBHXEPJQSA-N
INCHI=N/A
MSLEVEL=2
SOURCE_INSTRUMENT=LC-ESI-qTof
FILENAME=p5-A04_GA4_01_18427.mzXML
SEQ=*..*
IONMODE=Positive
ORGANISM=GNPS-NIH-SMALLMOLECULEPHARMACOLOGICALLYACTIVE
NAME=MLS001304062-01!Griseofulvin126-07-8 M+H
PI=Dorrestein
DATACOLLECTOR=VP/LMS
PUBMED=N/A
SUBMITUSER=vphelan
TAGS=
SPECTRUMID=CCMSLIB00000086004
SCANS=1400
44.906769 64.0 
44.916107 172.0 
44.970814 144.0 
44.988167 188.0 
45.104382 144.0 
45.236813 248.0 
45.255554 172.0 
45.309128 212.0 
45.470036 64.0 
45.593594 104.0 
45.624508 120.0 
45.748276 144.0 
45.820999 148.0 
45.863976 148.0 
45.89378 104.0 
46.282921 136.0 
46.296463 120.0 
46.328972 180.0 
46.642437 140.0 
46.661472 136.0 
46.861542 92.0 
47.022449 164.0 
47.042927 60.0 
47.089352 168.0 
47.304024 116.0 
47.487633 132.0 
47.499977 168.0 
47.9179 152.0 
48.152401 136.0 
48.388863 176.0 
48.456726 44.0 
48.632843 136.0 
48.677269 200.0 
48.691154 256.0 
48.717545 76.0 
49.082195 200.0 
49.854916 60.0 
49.87149 232.0 
49.913956 160.0 
49.973034 276.0 
50.192764 64.0 
50.353642 168.0 
50.455379 128.0 
50.493557 144.0 
50.652084 44.0 
50.718681 128.0 
50.857685 176.0 
50.93578 176.0 
51.114918 216.0 
51.146229 216.0 
51.207451 160.0 
51.429878 144.0 
51.491272 168.0 
51.581287 160.0 
51.687122 236.0 
51.741508 204.0 
51.950745 80.0 
51.99379 96.0 
52.179089 128.0 
52.219353 224.0 
52.402168 164.0 
52.478558 176.0 
53.03223 144.0 
53.059772 116.0 
53.339951 140.0 
53.434475 152.0 
53.523262 108.0 
53.848465 124.0 
53.879143 68.0 
53.930286 200.0 
53.952213 176.0 
54.247925 104.0 
54.303646 132.0 
54.784309 92.0 
54.964184 132.0 
55.151741 204.0 
55.163567 144.0 
55.224972 136.0 
55.292248 168.0 
55.332214 188.0 
55.401821 40.0 
55.630196 128.0 
55.945354 200.0 
56.225574 48.0 
56.681683 176.0 
56.717651 152.0 
56.896164 36.0 
57.380604 192.0 
57.54797 168.0 
57.795959 120.0 
57.871639 180.0 
57.888298 172.0 
57.935249 256.0 
57.967068 216.0 
58.003441 68.0 
58.045891 208.0 
58.073189 216.0 
58.256859 204.0 
58.670795 148.0 
58.940945 52.0 
59.141289 196.0 
59.191807 160.0 
59.205345 200.0 
59.521488 188.0 
59.582928 164.0 
59.656693 176.0 
59.839767 256.0 
60.015415 144.0 
60.060139 132.0 
60.288639 140.0 
60.540802 156.0 
60.712822 144.0 
60.770214 144.0 
61.006279 108.0 
61.182072 164.0 
61.411137 176.0 
61.503193 104.0 
61.581261 96.0 
61.66563 84.0 
61.743805 156.0 
62.096191 132.0 
62.146389 212.0 
62.317528 200.0 
62.492054 92.0 
62.504639 180.0 
62.540836 156.0 
62.676273 252.0 
62.822899 224.0 
62.969696 144.0 
63.001286 148.0 
63.066074 192.0 
63.293884 208.0 
63.316055 216.0 
63.496727 176.0 
63.620495 160.0 
63.804779 112.0 
63.995701 132.0 
64.25927 164.0 
64.439095 216.0 
64.578171 252.0 
64.826324 116.0 
64.908073 52.0 
64.933731 180.0 
65.127937 136.0 
65.195419 208.0 
65.420601 200.0 
65.501114 256.0 
65.621986 132.0 
65.671974 176.0 
66.09362 144.0 
66.231804 168.0 
66.529602 124.0 
66.562073 76.0 
66.599426 256.0 
67.05011 252.0 
67.170761 128.0 
67.25235 192.0 
67.327454 108.0 
67.404999 180.0 
67.445084 152.0 
67.965874 148.0 
68.001976 172.0 
68.156342 212.0 
68.195786 52.0 
68.549622 124.0 
68.594116 144.0 
69.135864 104.0 
69.212006 168.0 
69.507057 132.0 
69.934166 136.0 
70.239082 100.0 
70.287468 140.0 
70.390961 216.0 
70.472809 76.0 
70.675125 148.0 
70.800667 204.0 
71.014084 260.0 
71.117546 156.0 
71.136009 160.0 
71.154472 208.0 
71.196457 124.0 
71.268684 232.0 
71.552925 172.0 
71.738243 172.0 
71.844482 156.0 
72.136635 148.0 
72.359947 156.0 
72.685379 168.0 
72.790619 120.0 
72.977531 172.0 
73.093193 196.0 
73.328201 168.0 
73.362289 152.0 
73.6558 160.0 
73.843819 276.0 
74.539841 96.0 
74.723816 252.0 
74.74791 184.0 
74.987282 112.0 
75.070038 124.0 
75.2556 164.0 
75.318565 40.0 
76.115227 152.0 
76.217712 140.0 
76.355042 192.0 
76.809639 196.0 
76.82534 96.0 
76.987663 144.0 
77.102966 212.0 
77.53875 228.0 
77.661476 212.0 
78.048759 204.0 
78.153168 180.0 
78.176239 52.0 
78.190498 200.0 
78.447487 244.0 
78.482742 40.0 
78.5233 52.0 
78.574455 128.0 
78.63269 148.0 
78.680351 148.0 
78.735085 140.0 
78.800446 164.0 
78.841087 48.0 
78.915329 124.0 
78.986069 140.0 
79.058609 184.0 
79.260483 124.0 
79.290604 72.0 
79.636581 180.0 
79.689873 208.0 
80.195267 172.0 
80.455696 184.0 
80.525337 148.0 
81.057938 152.0 
81.225189 68.0 
81.692841 160.0 
82.07225 188.0 
82.099297 160.0 
82.180473 156.0 
82.891083 152.0 
82.919868 172.0 
82.93821 180.0 
82.976273 148.0 
83.130455 156.0 
83.321106 60.0 
83.459236 216.0 
83.521065 192.0 
83.77227 140.0 
83.908951 184.0 
84.071289 196.0 
84.095016 172.0 
85.090851 144.0 
85.182671 172.0 
85.235947 244.0 
85.288948 172.0 
85.858162 64.0 
86.297646 208.0 
86.423424 76.0 
86.528923 260.0 
86.723427 160.0 
86.803146 212.0 
87.090805 160.0 
87.419876 136.0 
87.490608 116.0 
87.61911 160.0 
87.7752 204.0 
87.865204 260.0 
87.915581 188.0 
88.263031 148.0 
88.532501 160.0 
88.860527 72.0 
88.894302 148.0 
88.990028 120.0 
89.044487 176.0 
89.177887 168.0 
89.356529 176.0 
89.447395 204.0 
89.663467 48.0 
89.840706 184.0 
89.893539 172.0 
89.987915 156.0 
90.129578 140.0 
90.15036 84.0 
90.326195 212.0 
91.055321 176.0 
91.280174 168.0 
92.273567 168.0 
92.351974 212.0 
92.552917 280.0 
92.738739 172.0 
93.076385 240.0 
93.130157 192.0 
93.310791 168.0 
93.356941 120.0 
93.410797 184.0 
93.44735 176.0 
93.582077 88.0 
93.942467 156.0 
94.041351 180.0 
94.203079 140.0 
94.309357 44.0 
94.355751 84.0 
94.812569 156.0 
95.018105 212.0 
95.047897 376.0 
95.885361 236.0 
95.941994 224.0 
95.986732 172.0 
96.488525 128.0 
96.968109 116.0 
97.001427 160.0 
97.022995 152.0 
97.152428 152.0 
97.305504 104.0 
97.36245 176.0 
97.942657 288.0 
98.031319 148.0 
98.183113 228.0 
98.311348 136.0 
98.327133 212.0 
98.506615 160.0 
98.629326 116.0 
98.73214 188.0 
98.920105 88.0 
98.985435 236.0 
99.003258 100.0 
99.116173 164.0 
99.669785 124.0 
100.208992 140.0 
100.27475 204.0 
100.476151 252.0 
100.665771 120.0 
100.992065 180.0 
101.011536 212.0 
101.203659 152.0 
101.626579 196.0 
101.751015 200.0 
101.992073 148.0 
102.20726 108.0 
102.386421 164.0 
102.517372 76.0 
102.538216 152.0 
102.955612 264.0 
102.996559 132.0 
103.058159 120.0 
103.193573 184.0 
103.460632 132.0 
103.515297 44.0 
103.736145 196.0 
103.780746 168.0 
103.841583 216.0 
103.914604 152.0 
103.96331 104.0 
103.995552 180.0 
104.062767 140.0 
104.668694 88.0 
104.705345 148.0 
104.739967 160.0 
104.953957 140.0 
104.991798 284.0 
105.037575 160.0 
105.123268 172.0 
105.243698 160.0 
105.617683 128.0 
105.666779 48.0 
106.004631 160.0 
106.037422 184.0 
106.053818 108.0 
106.123299 152.0 
106.201447 252.0 
106.636719 196.0 
106.914368 208.0 
107.012932 160.0 
107.048935 2104.0 
107.47612 112.0 
107.557419 88.0 
108.072006 164.0 
108.11132 176.0 
108.163063 108.0 
108.550491 116.0 
108.623077 152.0 
108.894989 68.0 
108.957306 188.0 
109.028374 284.0 
109.048737 192.0 
109.068146 320.0 
109.260841 72.0 
109.296211 152.0 
109.323265 76.0 
109.339912 128.0 
109.560631 100.0 
109.735695 132.0 
110.066765 288.0 
110.205307 196.0 
110.472916 132.0 
110.600555 156.0 
110.747124 136.0 
110.851875 92.0 
110.868645 88.0 
111.229393 176.0 
111.351173 116.0 
111.466721 200.0 
111.508751 48.0 
111.618065 192.0 
111.69902 132.0 
111.952652 184.0 
112.363678 184.0 
112.993271 172.0 
113.020775 144.0 
113.082146 192.0 
113.851738 128.0 
113.868729 152.0 
113.991943 128.0 
114.155632 180.0 
114.468445 160.0 
114.574936 132.0 
114.997139 556.0 
115.050194 160.0 
115.112434 220.0 
115.180779 168.0 
115.328209 128.0 
115.356003 128.0 
116.00248 244.0 
116.043213 176.0 
116.1054 88.0 
116.135422 152.0 
116.412277 64.0 
116.461678 172.0 
116.687317 180.0 
116.861526 156.0 
117.038025 144.0 
117.154327 196.0 
117.548889 148.0 
117.693512 108.0 
117.725899 124.0 
117.970055 168.0 
118.076004 240.0 
118.147385 76.0 
118.307526 144.0 
118.567451 112.0 
118.899269 148.0 
119.023232 156.0 
119.051521 212.0 
119.401131 144.0 
119.684021 64.0 
119.847382 164.0 
119.901863 28.0 
120.10463 160.0 
120.140862 164.0 
120.290108 212.0 
120.366524 68.0 
120.386177 184.0 
120.711777 116.0 
120.803635 48.0 
121.007164 128.0 
121.031151 172.0 
121.068474 136.0 
121.215248 124.0 
121.596832 204.0 
121.638535 176.0 
121.754906 160.0 
121.862541 108.0 
121.932861 152.0 
121.963631 192.0 
122.036606 5012.0 
122.141739 56.0 
122.182747 56.0 
122.201134 48.0 
122.223137 48.0 
122.238541 100.0 
122.302361 148.0 
122.434464 44.0 
122.46656 140.0 
122.6063 136.0 
123.039406 708.0 
123.290443 36.0 
123.4076 212.0 
123.66642 120.0 
123.721764 200.0 
123.910011 40.0 
124.020805 108.0 
124.054611 208.0 
124.415657 204.0 
124.61554 164.0 
124.835602 188.0 
124.886749 156.0 
124.978218 172.0 
125.022469 152.0 
125.06076 348.0 
125.120407 96.0 
125.532608 136.0 
125.615135 196.0 
125.68206 88.0 
125.80928 156.0 
125.994637 248.0 
126.041382 152.0 
126.15107 164.0 
126.957123 136.0 
126.978729 176.0 
126.988441 112.0 
126.992119 284.0 
127.170258 180.0 
127.518387 196.0 
127.930016 216.0 
128.061264 168.0 
128.083145 152.0 
128.513733 164.0 
128.558868 188.0 
128.879517 184.0 
128.97612 1044.0 
129.00972 572.0 
129.039993 68.0 
129.195175 136.0 
129.395203 192.0 
129.497101 48.0 
129.574112 92.0 
129.80304 160.0 
129.884689 136.0 
129.911911 88.0 
129.955017 112.0 
129.979263 332.0 
130.000397 212.0 
130.193359 192.0 
130.263763 168.0 
130.572891 192.0 
130.668427 216.0 
130.711655 180.0 
130.967377 160.0 
130.989288 148.0 
131.009201 544.0 
131.171707 160.0 
131.445404 176.0 
131.50473 152.0 
131.691956 232.0 
131.954758 132.0 
131.982193 116.0 
132.018768 176.0 
132.117126 152.0 
132.67363 52.0 
132.763046 220.0 
133.03067 344.0 
133.078506 228.0 
133.474915 176.0 
133.776321 172.0 
134.013535 180.0 
134.087265 112.0 
134.357056 56.0 
134.541687 128.0 
134.608643 48.0 
134.939056 168.0 
135.006119 148.0 
135.04718 484.0 
135.207382 116.0 
135.325439 200.0 
135.343964 232.0 
135.392593 96.0 
135.427338 164.0 
135.584885 168.0 
136.016281 128.0 
136.065033 128.0 
136.202042 48.0 
136.243851 72.0 
136.411179 144.0 
136.432098 128.0 
136.457672 108.0 
136.708878 140.0 
137.021103 140.0 
137.062836 208.0 
137.643661 180.0 
137.839874 224.0 
138.022202 104.0 
138.061951 480.0 
138.44574 148.0 
138.633163 84.0 
138.988953 192.0 
139.03183 152.0 
139.055298 112.0 
139.076965 344.0 
139.217285 204.0 
139.282516 228.0 
139.400528 156.0 
139.492188 236.0 
139.828537 168.0 
139.920334 96.0 
139.958939 132.0 
140.002747 160.0 
140.137024 232.0 
140.363297 180.0 
140.540207 152.0 
140.681808 240.0 
140.972321 184.0 
141.071594 164.0 
141.197708 228.0 
141.239487 160.0 
141.442978 112.0 
141.473755 172.0 
141.506897 228.0 
141.582672 148.0 
141.691635 68.0 
141.812485 160.0 
141.983902 340.0 
142.248932 92.0 
142.64801 152.0 
142.890579 56.0 
142.987213 208.0 
143.035751 208.0 
143.052414 120.0 
143.219101 184.0 
143.667236 160.0 
143.994125 556.0 
144.044418 148.0 
144.128036 120.0 
144.214066 152.0 
144.436432 108.0 
144.781082 192.0 
144.984009 148.0 
144.998245 380.0 
145.066208 148.0 
145.151825 128.0 
145.366013 68.0 
145.397217 64.0 
145.718979 76.0 
145.875198 252.0 
145.994354 328.0 
146.074783 128.0 
146.18512 144.0 
146.394897 396.0 
146.457504 224.0 
146.534592 208.0 
146.662323 252.0 
147.005463 276.0 
147.04509 172.0 
147.072357 168.0 
147.29451 208.0 
147.586929 156.0 
147.920792 104.0 
148.017639 56.0 
148.051544 140.0 
148.424728 164.0 
148.533859 56.0 
148.764389 204.0 
148.897934 180.0 
148.958664 84.0 
149.306229 28.0 
149.617691 200.0 
149.671249 84.0 
149.914841 192.0 
149.992828 152.0 
150.03212 3876.0 
150.092789 172.0 
150.22937 68.0 
150.724991 88.0 
150.86676 136.0 
151.037231 320.0 
151.077072 164.0 
151.559387 124.0 
151.576538 144.0 
152.000748 192.0 
152.040009 156.0 
152.106277 48.0 
152.128372 172.0 
152.152924 120.0 
152.988785 212.0 
153.010941 128.0 
153.161163 116.0 
153.45195 136.0 
153.570328 252.0 
153.65419 132.0 
153.673935 128.0 
153.797318 156.0 
153.989914 144.0 
154.020782 184.0 
154.172729 136.0 
154.671387 156.0 
154.987686 228.0 
155.024033 140.0 
155.056244 124.0 
155.081024 144.0 
155.386047 112.0 
155.485306 68.0 
155.845367 220.0 
155.897552 72.0 
155.954712 160.0 
156.003281 348.0 
156.059128 156.0 
156.223267 48.0 
156.449722 112.0 
156.584183 100.0 
156.870728 168.0 
156.970291 708.0 
157.005005 496.0 
157.057144 200.0 
157.177505 176.0 
157.214935 232.0 
157.269836 56.0 
157.474579 180.0 
157.676941 192.0 
157.734436 132.0 
157.811935 60.0 
157.972 304.0 
158.010056 148.0 
158.037033 184.0 
158.157166 124.0 
158.314896 196.0 
158.460175 56.0 
158.542862 68.0 
158.768494 148.0 
158.968506 636.0 
158.990555 140.0 
159.024399 180.0 
159.338287 228.0 
159.934265 124.0 
159.96196 164.0 
160.536407 216.0 
160.821503 168.0 
160.884888 180.0 
161.062363 204.0 
161.20285 76.0 
161.508759 264.0 
161.531525 168.0 
161.883331 60.0 
162.066818 368.0 
162.235519 240.0 
162.478973 200.0 
162.496735 240.0 
163.044266 232.0 
163.065552 300.0 
163.492813 144.0 
163.846756 136.0 
163.979248 172.0 
164.040421 180.0 
164.071014 168.0 
164.147507 192.0 
164.405167 96.0 
164.563995 176.0 
164.591507 144.0 
164.660461 176.0 
164.783066 156.0 
164.890396 152.0 
164.941513 196.0 
165.009216 464.0 
165.055573 31544.0 
165.143509 180.0 
165.222809 56.0 
165.293381 144.0 
165.424973 36.0 
165.449951 212.0 
165.478745 72.0 
165.522263 96.0 
165.555557 124.0 
165.622147 72.0 
165.652893 52.0 
165.773315 48.0 
165.863449 152.0 
165.88298 60.0 
165.997986 124.0 
166.018387 312.0 
166.058365 2360.0 
166.191269 56.0 
166.234894 40.0 
166.299057 144.0 
166.507019 60.0 
166.573792 44.0 
166.717682 104.0 
166.799927 60.0 
166.825638 84.0 
166.897614 56.0 
167.023636 184.0 
167.061066 168.0 
167.180573 160.0 
167.208893 160.0 
167.25293 136.0 
167.39682 136.0 
167.419998 108.0 
167.463776 64.0 
167.481812 144.0 
167.622833 200.0 
168.01799 184.0 
168.041824 328.0 
168.068069 208.0 
168.087662 128.0 
168.387115 104.0 
168.449112 64.0 
168.717865 140.0 
168.998825 164.0 
169.038101 328.0 
169.2612 116.0 
169.379288 316.0 
169.499512 164.0 
169.837738 200.0 
169.945496 136.0 
169.975082 1656.0 
170.031128 196.0 
170.070068 196.0 
170.121735 88.0 
170.47261 56.0 
170.641571 44.0 
170.984253 860.0 
171.055206 52.0 
171.709213 124.0 
171.993179 6784.0 
172.032761 204.0 
172.050797 172.0 
172.111084 76.0 
172.374908 48.0 
172.406265 108.0 
172.627777 136.0 
172.827271 156.0 
172.911011 84.0 
172.992355 448.0 
173.091644 52.0 
173.162354 88.0 
173.377182 112.0 
173.411255 132.0 
173.523972 108.0 
173.718048 36.0 
173.864975 52.0 
173.989395 1444.0 
174.027725 120.0 
174.427048 72.0 
174.561127 52.0 
174.647919 176.0 
174.842621 192.0 
174.900513 188.0 
174.96106 180.0 
174.996689 168.0 
175.020035 360.0 
175.041229 296.0 
176.020981 216.0 
176.047394 168.0 
176.824646 172.0 
176.890823 72.0 
177.033783 252.0 
177.052322 200.0 
177.12384 64.0 
178.05481 144.0 
178.31517 44.0 
178.985565 120.0 
179.033493 148.0 
179.068115 192.0 
179.555847 180.0 
179.705215 108.0 
179.994537 384.0 
180.076279 92.0 
180.215195 152.0 
180.966766 160.0 
180.996216 124.0 
181.923874 156.0 
182.014084 612.0 
182.074249 156.0 
182.106476 172.0 
182.130646 180.0 
182.251541 132.0 
182.31871 76.0 
182.547226 132.0 
182.808151 132.0 
182.987091 384.0 
183.015427 80.0 
183.083176 124.0 
183.546234 68.0 
183.570511 240.0 
184.004425 128.0 
184.021637 148.0 
185.00061 284.0 
185.063004 176.0 
185.138763 136.0 
185.693466 80.0 
185.981079 144.0 
186.008224 436.0 
186.067947 120.0 
186.978546 180.0 
187.014877 280.0 
187.072495 172.0 
187.272598 124.0 
187.637741 212.0 
187.987534 304.0 
188.273529 48.0 
188.61232 192.0 
188.645111 76.0 
188.75174 76.0 
188.998993 184.0 
189.038589 204.0 
189.984299 176.0 
190.062408 388.0 
190.143387 112.0 
190.998184 144.0 
191.032608 212.0 
191.063507 168.0 
191.994919 124.0 
192.01973 176.0 
193.027725 128.0 
193.04985 40.0 
193.980133 212.0 
194.017593 200.0 
194.068848 184.0 
194.118073 80.0 
194.396164 116.0 
194.48497 148.0 
194.973801 192.0 
195.029602 152.0 
195.992279 156.0 
196.024307 372.0 
196.12326 164.0 
196.142776 80.0 
196.204102 216.0 
196.435562 92.0 
196.999451 200.0 
197.038269 532.0 
197.485825 72.0 
197.852402 140.0 
198.000336 356.0 
198.037613 176.0 
198.653885 176.0 
198.698776 148.0 
198.973816 148.0 
199.014694 204.0 
199.032974 176.0 
199.226578 120.0 
199.40921 148.0 
199.591949 172.0 
199.735382 136.0 
199.771942 124.0 
199.903458 232.0 
199.987381 8444.0 
200.041168 208.0 
200.057297 160.0 
200.11731 196.0 
200.292709 52.0 
200.325043 84.0 
200.419479 96.0 
200.487122 60.0 
200.67598 136.0 
200.963608 196.0 
200.991333 1328.0 
201.026306 320.0 
201.050766 120.0 
201.096298 140.0 
201.649872 56.0 
201.802521 108.0 
201.98613 1880.0 
202.054947 80.0 
202.076324 104.0 
202.100311 168.0 
202.207047 112.0 
202.546814 144.0 
202.991745 308.0 
203.101898 188.0 
203.150604 180.0 
204.002533 184.0 
205.044312 264.0 
205.34082 140.0 
205.628967 200.0 
206.049393 192.0 
206.091583 132.0 
206.265915 184.0 
206.611938 120.0 
207.023941 404.0 
207.062027 364.0 
207.557877 180.0 
207.660339 48.0 
207.993179 56.0 
208.064407 168.0 
208.28894 104.0 
208.363632 204.0 
208.906982 132.0 
209.00235 460.0 
209.330063 192.0 
209.551865 168.0 
210.007874 364.0 
210.850388 124.0 
211.010849 564.0 
211.0672 120.0 
211.53299 136.0 
212.019592 176.0 
212.086243 144.0 
212.213806 100.0 
212.416809 64.0 
212.471924 228.0 
212.987198 120.0 
213.018417 144.0 
213.042877 144.0 
213.101944 164.0 
213.226898 140.0 
213.276306 144.0 
213.302475 120.0 
213.567078 112.0 
213.89035 76.0 
214.002197 396.0 
214.031082 108.0 
214.055206 204.0 
214.360016 88.0 
214.388092 152.0 
214.42598 76.0 
214.502853 160.0 
214.515366 60.0 
214.534698 200.0 
214.595047 64.0 
214.638779 108.0 
214.676697 132.0 
214.737946 52.0 
214.898376 200.0 
214.930481 148.0 
214.9552 160.0 
215.010574 17348.0 
215.073563 236.0 
215.094437 180.0 
215.172729 48.0 
215.199005 68.0 
215.26033 64.0 
215.284943 84.0 
215.309967 68.0 
215.388824 40.0 
215.431808 84.0 
215.480057 88.0 
215.589844 40.0 
215.68103 88.0 
215.710266 28.0 
215.762878 68.0 
215.808197 40.0 
215.894455 124.0 
215.917862 48.0 
216.012436 1704.0 
216.066971 192.0 
216.176422 188.0 
216.295288 88.0 
216.345062 40.0 
216.391907 112.0 
216.535385 168.0 
216.772675 84.0 
216.885818 104.0 
216.910431 40.0 
216.930954 144.0 
217.008423 4424.0 
217.086349 148.0 
217.109802 120.0 
217.365021 52.0 
217.485352 88.0 
217.508835 104.0 
217.532318 224.0 
217.586136 144.0 
217.746658 100.0 
217.787781 44.0 
217.855331 88.0 
218.000214 1008.0 
218.216827 36.0 
218.53447 84.0 
218.637466 112.0 
218.805237 76.0 
218.91713 68.0 
219.011383 364.0 
219.33255 48.0 
219.736557 156.0 
219.999313 440.0 
220.106705 108.0 
220.29158 40.0 
220.400894 164.0 
220.897568 124.0 
220.998825 300.0 
221.038254 176.0 
221.075104 96.0 
222.043854 152.0 
222.088272 192.0 
223.011902 272.0 
223.056335 144.0 
223.663147 112.0 
223.886444 248.0 
223.991638 324.0 
224.023636 3304.0 
224.539124 204.0 
224.786728 100.0 
224.968796 48.0 
224.992676 88.0 
225.02861 624.0 
225.231567 164.0 
226.023361 1368.0 
226.055588 208.0 
226.134552 144.0 
226.41597 108.0 
226.706573 144.0 
226.778488 64.0 
227.019791 624.0 
227.072891 196.0 
227.73262 204.0 
227.753647 148.0 
227.894836 28.0 
228.016281 376.0 
228.081161 96.0 
228.114227 36.0 
228.402908 168.0 
228.438995 168.0 
229.025406 148.0 
229.082687 140.0 
229.450867 60.0 
229.766968 84.0 
230.024948 160.0 
230.090469 68.0 
230.24295 20.0 
231.105988 152.0 
231.296646 172.0 
231.660019 108.0 
232.011078 168.0 
232.064484 176.0 
232.427063 32.0 
232.703278 140.0 
232.955338 124.0 
233.01915 104.0 
233.076874 128.0 
233.116379 176.0 
234.007599 136.0 
234.071548 172.0 
234.123322 184.0 
234.162903 44.0 
235.011917 780.0 
235.044586 116.0 
236.023666 328.0 
236.69455 164.0 
236.826248 104.0 
236.930389 164.0 
236.993057 124.0 
237.020493 328.0 
237.056015 216.0 
237.184738 40.0 
237.485229 92.0 
237.749084 164.0 
238.002014 340.0 
238.028427 108.0 
238.941299 168.0 
239.005005 352.0 
239.057938 132.0 
239.976135 124.0 
240.011505 260.0 
240.087143 80.0 
240.985413 164.0 
241.027512 1052.0 
241.090469 128.0 
241.204834 60.0 
241.291382 88.0 
241.690384 92.0 
242.026138 420.0 
242.055222 300.0 
242.892426 148.0 
242.935852 60.0 
243.024109 312.0 
243.065186 200.0 
243.376556 76.0 
243.988632 128.0 
244.030273 152.0 
244.137878 216.0 
244.651276 136.0 
244.968918 92.0 
245.012527 124.0 
246.007355 172.0 
246.860321 104.0 
247.016693 168.0 
247.661514 56.0 
248.021851 140.0 
249.028122 420.0 
250.037613 308.0 
250.349014 68.0 
251.011108 356.0 
251.051041 192.0 
252.018585 564.0 
252.100769 40.0 
252.549713 132.0 
253.029221 1248.0 
253.173203 64.0 
254.020554 228.0 
254.495499 268.0 
255.012772 864.0 
255.064163 52.0 
255.277176 44.0 
255.461655 76.0 
255.553909 80.0 
256.012299 176.0 
256.531647 112.0 
256.582642 120.0 
256.809052 60.0 
257.004974 356.0 
257.055908 284.0 
257.262177 92.0 
257.294098 52.0 
257.396271 112.0 
258.030548 144.0 
258.057953 144.0 
258.090485 432.0 
258.684723 60.0 
259.014801 144.0 
259.054993 120.0 
259.104248 84.0 
259.787079 76.0 
260.023407 396.0 
260.063049 176.0 
260.111176 28.0 
261.027802 140.0 
261.139404 116.0 
261.734741 128.0 
262.010223 232.0 
263.010345 864.0 
263.379517 120.0 
263.744629 164.0 
264.01825 764.0 
264.122955 100.0 
264.533905 204.0 
265.025513 584.0 
265.060272 468.0 
265.664856 72.0 
265.911469 104.0 
265.98938 124.0 
266.022797 320.0 
266.062897 184.0 
266.180908 200.0 
266.915283 148.0 
266.999847 52.0 
267.025116 120.0 
267.056824 328.0 
267.121674 88.0 
268.002167 388.0 
268.093689 200.0 
268.488159 152.0 
269.013123 132.0 
269.041595 232.0 
269.143677 168.0 
270.025757 1936.0 
270.239044 80.0 
270.540131 76.0 
270.87088 108.0 
271.026428 424.0 
272.027283 1088.0 
272.084229 48.0 
272.202423 80.0 
272.323944 112.0 
273.034943 348.0 
273.112793 76.0 
274.027954 148.0 
274.130096 220.0 
274.891846 168.0 
275.007355 96.0 
275.056854 112.0 
276.015564 312.0 
277.026398 1312.0 
277.306061 228.0 
277.793488 108.0 
278.033691 1096.0 
278.198334 40.0 
278.234863 52.0 
278.623413 68.0 
278.83609 132.0 
278.912537 72.0 
278.990204 132.0 
279.040009 956.0 
279.098694 176.0 
280.036621 268.0 
280.213715 48.0 
280.45697 84.0 
280.606995 124.0 
280.663666 68.0 
280.981201 492.0 
281.034119 352.0 
281.067261 164.0 
281.250824 192.0 
281.564667 56.0 
282.026123 72.0 
282.07254 140.0 
282.162262 148.0 
282.450378 104.0 
282.517303 52.0 
282.721405 28.0 
282.935608 28.0 
283.03891 508.0 
283.076233 168.0 
283.337494 124.0 
284.018005 116.0 
284.04483 116.0 
284.079559 160.0 
284.440796 120.0 
284.870605 28.0 
285.053101 4820.0 
285.374725 56.0 
285.477295 76.0 
285.549591 100.0 
285.57901 64.0 
285.660583 56.0 
285.714417 44.0 
285.990356 128.0 
286.055603 1060.0 
286.468506 44.0 
286.589783 48.0 
286.64032 32.0 
286.903229 96.0 
286.930206 84.0 
286.960541 152.0 
287.048584 1284.0 
287.233704 36.0 
287.385529 52.0 
287.773651 48.0 
288.061035 208.0 
288.094513 96.0 
288.997192 68.0 
289.542206 104.0 
289.742035 80.0 
289.878479 76.0 
289.925018 40.0 
290.13855 240.0 
290.998779 144.0 
293.00354 156.0 
293.058319 668.0 
293.201172 80.0 
295.044678 156.0 
296.00531 180.0 
296.045685 264.0 
296.715088 40.0 
297.322205 64.0 
298.001068 132.0 
298.875458 112.0 
304.017365 156.0 
305.025696 188.0 
306.030518 336.0 
306.092682 56.0 
307.026459 180.0 
307.344055 52.0 
307.98291 152.0 
308.027802 292.0 
309.045868 144.0 
310.201385 76.0 
311.068512 440.0 
311.538391 60.0 
312.071014 152.0 
312.892365 112.0 
313.028931 208.0 
313.034943 136.0 
313.051514 140.0 
313.353729 52.0 
314.030548 116.0 
314.090515 164.0 
320.049286 128.0 
320.935181 144.0 
321.00293 124.0 
321.053375 592.0 
322.053284 140.0 
322.095032 76.0 
323.044373 148.0 
323.067627 180.0 
324.05188 152.0 
325.932007 164.0 
332.32666 136.0 
334.045074 52.0 
335.063385 160.0 
340.055817 140.0 
351.790039 64.0 
353.08017 400.0 
354.070862 164.0 
355.082764 156.0 
355.217804 64.0 
355.960938 128.0 
356.069824 116.0 
358.454926 84.0 
371.10144 96.0 
382.046906 76.0 
397.000671 56.0 
405.821167 104.0 
407.378326 60.0 
413.891876 96.0 
421.522949 120.0 
427.868164 64.0 
459.464417 44.0 
461.206696 132.0 
462.438507 92.0 
462.584045 44.0 
473.118256 36.0 
479.89151 80.0 
483.981171 88.0 
485.247437 44.0 
504.363556 68.0 
507.927826 60.0 
509.049835 68.0 
514.91333 52.0 
517.14679 68.0 
517.952759 80.0 
530.970276 60.0 
536.386597 76.0 
558.900574 128.0 
570.293091 44.0 
576.173401 64.0 
580.615417 48.0 
591.659485 72.0 
626.685913 88.0 
668.902832 32.0 
672.536804 116.0 
679.512512 76.0 
680.742676 20.0 
681.272461 56.0 
697.892517 40.0 
703.065369 116.0 
743.772522 84.0 
852.012634 80.0 
857.884521 128.0 
903.442871 40.0 
928.349121 36.0 
930.035706 160.0 
943.779419 92.0 
950.676819 76.0 
975.4505 112.0 
987.72229 176.0 
999.409973 200.0 
1007.751648 92.0 
1034.533447 168.0 
1066.678711 128.0 
1078.849365 92.0 
1084.518066 252.0 
1085.89502 152.0 
1086.688721 176.0 
1092.799072 232.0 
1103.192871 188.0 
1110.178101 136.0 
1113.19751 160.0 
1114.413086 212.0 
1132.317383 48.0 
1133.737671 172.0 
1148.636963 168.0 
1158.689331 188.0 
1172.101562 96.0 
1176.193604 152.0 
1184.433105 160.0 
1193.38208 128.0 
1194.853882 156.0 
1195.817261 180.0 
1197.077148 148.0 
1197.428345 112.0 
1204.822754 240.0 
1215.166138 232.0 
1216.491699 164.0 
1223.512939 144.0 
1234.838135 232.0 
1235.572632 124.0 
1236.314331 172.0 
1237.413208 208.0 
1241.337036 180.0 
1241.631592 164.0 
1248.703979 116.0 
1250.301025 208.0 
1260.985718 176.0 
1275.068237 156.0 
1275.906982 112.0 
1294.064331 180.0 
1296.334961 208.0 
1308.697021 68.0 
1311.088501 216.0 
1319.331543 128.0 
1320.879028 180.0 
1322.116211 180.0 
1323.064453 256.0 
1324.099854 108.0 
1329.072754 192.0 
1332.027588 140.0 
1336.30957 156.0 
1339.614746 172.0 
1341.706299 56.0 
1342.114502 212.0 
1342.86499 224.0 
1354.362793 216.0 
1359.516968 212.0 
1365.578003 36.0 
1367.674927 204.0 
1371.166138 160.0 
1372.43396 160.0 
1372.655273 136.0 
1378.900635 212.0 
1386.486572 160.0 
1388.302856 196.0 
1392.377075 132.0 
1395.631958 152.0 
1397.030151 208.0 
1405.777344 64.0 
1410.587158 156.0 
1410.953491 120.0 
1413.923096 168.0 
1418.042236 164.0 
1418.611938 220.0 
1421.874634 100.0 
1422.737915 88.0 
1424.585327 116.0 
1424.637817 100.0 
1429.758301 256.0 
1429.856201 244.0 
1433.154419 112.0 
1436.705444 188.0 
1437.014771 156.0 
1448.657349 28.0 
1451.582886 84.0 
1459.229004 144.0 
1460.689087 216.0 
1461.875977 136.0 
1462.720825 120.0 
1463.80188 204.0 
1467.299194 192.0 
1467.406006 184.0 
1467.90918 148.0 
1469.84668 116.0 
1471.564087 180.0 
1474.268066 136.0 
1474.505005 208.0 
1476.774902 176.0 
1478.175781 152.0 
1479.920898 124.0 
1483.750977 208.0 
1484.326782 148.0 
1484.725586 136.0 
1486.935059 136.0 
1488.16333 132.0 
1488.309204 184.0 
1490.044922 168.0 
1490.536743 148.0 
1491.251465 128.0 
1492.765869 92.0 
1497.36792 172.0 
1497.899414 172.0 
1502.200806 140.0 
END IONS

