BEGIN IONS
PEPMASS=458.041
CHARGE=1+
COMPOUNDNAME="Aztreonam (Azactam, Cayston)"
LIBRARYQUALITY=1
SMILES=[C@H]1(C(N([C@@H]1C)S(O)(=O)=O)=O)NC(\C(=N/OC(C(O)=O)(C)C)C2N=C(SC=2)N)=O
INCHIKEY=WZPBZJONDBGPKJ-DZIOLEBDSA-N
INCHI=N/A
MSLEVEL=2
SOURCE_INSTRUMENT=LC-ESI-qTof
FILENAME=Plate3_1_20_GG9_01_16498.mzXML
SEQ=*..*
IONMODE=Positive
ORGANISM=GNPS-SELLECKCHEM-FDA-PART2
NAME="Aztreonam (Azactam, Cayston)" [M+Na]
PI=Dorrestein
DATACOLLECTOR=Garg_Neha
PUBMED=N/A
SUBMITUSER=negarg
TAGS=
SPECTRUMID=CCMSLIB00000078169
SCANS=1014
49.129654 152.0 
54.856533 160.0 
57.717308 184.0 
58.16423 152.0 
61.543766 196.0 
63.501461 180.0 
73.587425 216.0 
73.862564 180.0 
74.55867 164.0 
75.863571 144.0 
77.22876 192.0 
90.602425 180.0 
90.96843 188.0 
91.687401 188.0 
93.853584 196.0 
98.003548 140.0 
100.537811 172.0 
101.075356 192.0 
102.593758 160.0 
105.167946 148.0 
107.035118 156.0 
110.985786 152.0 
115.449806 188.0 
119.51178 152.0 
122.700783 200.0 
124.621895 152.0 
126.012337 180.0 
126.401245 160.0 
127.03978 172.0 
128.012985 200.0 
132.002411 152.0 
135.804764 216.0 
138.010117 200.0 
138.635117 208.0 
139.990585 176.0 
140.575211 188.0 
140.83963 164.0 
146.026245 172.0 
147.99324 784.0 
149.003525 672.0 
149.98996 196.0 
150.017105 172.0 
150.039047 324.0 
150.548676 140.0 
152.963715 156.0 
154.024017 208.0 
155.0186 144.0 
162.065201 208.0 
162.64595 176.0 
166.006058 156.0 
166.917664 184.0 
170.739838 152.0 
171.643463 184.0 
172.034821 148.0 
176.054733 160.0 
178.511322 204.0 
178.745407 220.0 
180.754715 140.0 
181.017899 224.0 
183.039795 188.0 
186.950714 152.0 
190.178421 180.0 
190.395325 172.0 
195.610062 148.0 
204.007431 308.0 
204.337402 152.0 
205.018021 360.0 
205.508392 160.0 
208.973251 176.0 
209.008957 160.0 
213.019836 184.0 
213.417999 164.0 
219.019424 168.0 
219.756424 152.0 
220.00824 148.0 
221.010361 960.0 
222.010422 208.0 
223.025803 192.0 
223.879684 164.0 
224.109039 152.0 
225.117264 156.0 
225.661087 140.0 
225.765732 216.0 
228.035248 192.0 
228.176529 152.0 
230.851044 176.0 
230.995239 272.0 
232.002274 6768.0 
233.004242 688.0 
233.495529 188.0 
233.999619 564.0 
234.875259 168.0 
239.026566 168.0 
242.776764 152.0 
245.766113 144.0 
247.992706 284.0 
248.924469 172.0 
249.006271 1776.0 
249.056168 128.0 
250.009201 560.0 
251.003494 132.0 
253.181747 236.0 
260.010712 156.0 
261.051575 152.0 
262.365234 176.0 
270.069122 192.0 
271.05658 172.0 
272.769775 168.0 
272.823578 172.0 
278.034607 148.0 
280.939392 144.0 
288.908112 172.0 
290.04361 344.0 
291.037689 276.0 
292.047729 2004.0 
293.047485 536.0 
293.090973 140.0 
294.043457 248.0 
300.994141 140.0 
307.039337 184.0 
307.803589 168.0 
310.803375 228.0 
313.056427 676.0 
314.045441 140.0 
314.05777 160.0 
314.156281 144.0 
314.279785 188.0 
315.045898 188.0 
320.016418 136.0 
321.23349 220.0 
322.154663 152.0 
322.411743 204.0 
323.62439 184.0 
323.717468 164.0 
324.233337 176.0 
326.034912 164.0 
326.498688 160.0 
328.187561 156.0 
328.999298 148.0 
330.343628 192.0 
332.4487 208.0 
333.938263 152.0 
335.042542 1280.0 
336.043182 476.0 
337.036774 228.0 
338.448792 152.0 
356.096405 428.0 
357.101624 164.0 
365.043945 188.0 
366.806732 180.0 
373.546295 236.0 
374.434143 120.0 
377.518921 276.0 
377.716187 196.0 
377.819305 176.0 
377.847717 196.0 
377.894135 156.0 
377.965637 232.0 
378.013153 268.0 
378.084412 16448.0 
378.631348 108.0 
378.990967 140.0 
379.089417 3484.0 
380.084534 1072.0 
381.07428 264.0 
381.577179 104.0 
381.770569 124.0 
382.64859 140.0 
389.979431 152.0 
393.96994 132.0 
405.446716 144.0 
409.963806 184.0 
420.500275 200.0 
424.534088 192.0 
436.040131 288.0 
436.077545 144.0 
439.342133 168.0 
442.137482 160.0 
443.69986 148.0 
445.811157 176.0 
450.158539 148.0 
457.183441 104.0 
458.040009 3372.0 
459.039185 832.0 
460.038208 468.0 
473.998779 188.0 
480.022552 704.0 
482.01416 164.0 
492.021942 176.0 
493.012177 256.0 
494.020569 148.0 
510.027161 152.0 
1931.828857 164.0 
1968.338501 148.0 
END IONS

