BEGIN IONS
TITLE=Scan Number: 2786
PEPMASS=607.40997
CHARGE=1+
COMPOUNDNAME=Rakicidin A
LIBRARYQUALITY=3
SMILES=CN(CC(N[C@@H]([C@@H](C(N)=O)O)C(OC([C@H](C)CCCCCCCCCCCC(C)C)[C@H](C)C(N1)=O)=O)=O)C(/C=C/C1=C)=O
INCHIKEY=NODOLTRBPIFGCQ-CEIJAINISA-N
INCHI=InChI=1S/C32H54N4O7/c1-21(2)16-14-12-10-8-7-9-11-13-15-17-22(3)29-24(5)31(41)34-23(4)18-19-26(38)36(6)20-25(37)35-27(32(42)43-29)28(39)30(33)40/h18-19,21-22,24,27-29,39H,4,7-17,20H2,1-3,5-6H3,(H2,33,40)(H,34,41)(H,35,37)/b19-18+/t22-,24+,27+,28+,29?/m1/s1
MSLEVEL=2
SOURCE_INSTRUMENT=LC-ESI-qTof
FILENAME=f.thomast/Rakicidins/RakA_40eV.mzML;
SEQ=*..*
NOTES=
IONMODE=Positive
ORGANISM=GNPS-LIBRARY
NAME=Rakicidin A M+H
SPECTRUMID=CCMSLIB00000839187
ACTIVATION=CID
INSTRUMENT=ion trap
SCANS=2786
45.493904 128.0 
45.700481 104.0 
47.051922 92.0 
47.190567 140.0 
47.614525 72.0 
47.782448 188.0 
48.470825 108.0 
48.856602 84.0 
50.164669 76.0 
50.23275 72.0 
50.259148 140.0 
51.353596 120.0 
52.241325 128.0 
52.41156 84.0 
55.992989 92.0 
56.538712 112.0 
56.646404 108.0 
57.070786 128.0 
57.541374 120.0 
57.94072 168.0 
58.06319 124.0 
58.348946 148.0 
58.886456 92.0 
59.356888 152.0 
60.045361 384.0 
61.051891 112.0 
61.081024 52.0 
61.994778 88.0 
62.014862 64.0 
62.331833 108.0 
63.231476 132.0 
63.392197 116.0 
63.565617 152.0 
63.884983 72.0 
65.037712 124.0 
65.365242 100.0 
66.031235 112.0 
66.540535 124.0 
67.024506 148.0 
67.054047 260.0 
67.577919 136.0 
67.886177 108.0 
67.947594 112.0 
68.050491 168.0 
68.280998 100.0 
69.032761 592.0 
69.06955 4764.0 
69.09687 108.0 
69.883156 160.0 
69.899559 108.0 
70.029106 404.0 
70.035713 96.0 
70.071793 276.0 
70.486099 100.0 
70.583267 120.0 
70.809151 144.0 
71.049538 112.0 
71.059868 120.0 
71.085075 1296.0 
71.096581 88.0 
71.949013 112.0 
72.043854 144.0 
72.080482 128.0 
72.097122 168.0 
72.519028 80.0 
73.711212 136.0 
74.068596 76.0 
74.680779 176.0 
74.831696 112.0 
75.105057 144.0 
75.232574 112.0 
76.10083 136.0 
76.63208 96.0 
76.721382 80.0 
76.908714 100.0 
76.987839 128.0 
77.627525 108.0 
78.032875 192.0 
78.490341 124.0 
78.657219 108.0 
79.017647 96.0 
79.026375 72.0 
79.052902 312.0 
80.049232 872.0 
80.479897 140.0 
80.75457 172.0 
81.031464 220.0 
81.045616 104.0 
81.052681 96.0 
81.069168 1088.0 
81.08268 140.0 
81.391991 144.0 
82.030159 76.0 
82.064758 276.0 
82.070969 324.0 
82.362617 100.0 
83.048424 284.0 
83.085175 3812.0 
84.0009 64.0 
84.04425 448.0 
84.060211 108.0 
84.088951 244.0 
84.096161 144.0 
84.947121 112.0 
85.037025 320.0 
85.046562 108.0 
85.064331 464.0 
85.10022 1892.0 
86.022125 224.0 
86.060486 144.0 
86.093231 140.0 
86.791542 108.0 
87.375313 108.0 
87.437637 140.0 
88.040146 88.0 
88.213196 112.0 
88.609673 96.0 
88.801804 64.0 
88.839157 128.0 
89.058662 172.0 
89.071846 168.0 
89.234863 88.0 
89.754433 84.0 
89.82692 72.0 
90.056808 512.0 
90.064964 128.0 
90.076134 128.0 
91.053993 136.0 
91.241203 156.0 
91.267426 188.0 
91.338646 108.0 
91.670662 128.0 
92.215958 120.0 
92.651474 84.0 
93.045555 148.0 
93.055801 316.0 
93.069992 704.0 
93.076889 268.0 
93.267815 152.0 
94.007866 144.0 
94.028458 220.0 
94.049706 116.0 
94.064659 2484.0 
94.101059 140.0 
94.205711 124.0 
94.521927 140.0 
94.85778 96.0 
95.048843 168.0 
95.067795 136.0 
95.085022 2064.0 
95.546562 172.0 
96.044395 12648.0 
96.080482 124.0 
96.089989 236.0 
97.014717 76.0 
97.029808 160.0 
97.045601 416.0 
97.064735 588.0 
97.101578 4328.0 
97.119003 252.0 
97.393623 176.0 
97.422668 140.0 
97.62989 100.0 
97.647354 56.0 
98.02166 148.0 
98.058983 184.0 
98.104828 368.0 
99.055389 3720.0 
99.081001 164.0 
99.115463 432.0 
99.143158 104.0 
99.457764 116.0 
100.036148 88.0 
100.045326 128.0 
100.060371 332.0 
100.070831 120.0 
100.178741 132.0 
100.603134 156.0 
101.069679 228.0 
101.085609 132.0 
101.095474 108.0 
101.125069 64.0 
101.852066 60.0 
101.964882 108.0 
102.250214 140.0 
102.488319 80.0 
103.04985 3756.0 
103.120605 68.0 
103.744835 64.0 
104.034821 364.0 
104.041855 156.0 
104.053947 144.0 
104.6175 100.0 
105.035103 116.0 
105.045151 128.0 
105.055199 140.0 
105.073273 176.0 
105.15773 132.0 
105.173859 52.0 
105.44149 60.0 
105.939423 112.0 
106.0289 236.0 
106.062569 148.0 
106.855728 96.0 
107.058525 112.0 
107.085831 936.0 
107.257469 96.0 
107.275764 60.0 
107.31842 68.0 
108.049469 276.0 
108.07946 436.0 
108.089676 236.0 
109.047958 340.0 
109.060295 108.0 
109.0784 372.0 
109.100395 1724.0 
109.905647 144.0 
110.060379 464.0 
110.083916 508.0 
110.104774 372.0 
110.512962 100.0 
110.73777 144.0 
110.942177 88.0 
111.045502 52.0 
111.053734 100.0 
111.080589 800.0 
111.090866 2248.0 
111.116531 3000.0 
111.212944 52.0 
111.229485 56.0 
111.285309 108.0 
111.807251 64.0 
112.038086 184.0 
112.064491 100.0 
112.075615 976.0 
112.085228 192.0 
112.094788 204.0 
112.119301 216.0 
112.135086 104.0 
112.155838 140.0 
112.326195 152.0 
112.567429 108.0 
112.881836 64.0 
112.961014 76.0 
113.035408 292.0 
113.07119 296.0 
113.098602 104.0 
113.133018 336.0 
113.913383 132.0 
114.018799 424.0 
114.057846 128.0 
114.089272 104.0 
114.787819 148.0 
115.048096 192.0 
115.258942 104.0 
115.631882 104.0 
116.003304 116.0 
116.032555 120.0 
116.138535 80.0 
116.36689 76.0 
116.572166 88.0 
117.061722 232.0 
117.356857 120.0 
119.088188 120.0 
119.529419 152.0 
120.053116 168.0 
121.062187 132.0 
121.076599 3828.0 
121.100243 1020.0 
121.125534 124.0 
122.023651 2664.0 
122.060905 456.0 
122.077179 324.0 
122.108742 232.0 
122.782227 72.0 
122.821358 52.0 
122.886528 104.0 
123.020126 140.0 
123.028831 204.0 
123.054489 228.0 
123.090805 4116.0 
123.116295 740.0 
123.978073 56.0 
124.002045 156.0 
124.036903 156.0 
124.045685 332.0 
124.056656 120.0 
124.073753 336.0 
124.084503 236.0 
124.09449 396.0 
124.120003 132.0 
124.769722 112.0 
125.021744 120.0 
125.069939 340.0 
125.078766 116.0 
125.094894 1068.0 
125.131691 1668.0 
125.151154 100.0 
125.206009 96.0 
125.693626 68.0 
126.016991 136.0 
126.047798 176.0 
126.057259 208.0 
126.085243 132.0 
126.095497 204.0 
126.101593 232.0 
126.118286 96.0 
126.137985 516.0 
126.263664 136.0 
126.44883 128.0 
127.01619 124.0 
127.054398 248.0 
127.151482 220.0 
127.644638 96.0 
127.968307 104.0 
128.03598 660.0 
128.071106 212.0 
128.109283 140.0 
128.256866 88.0 
128.472351 156.0 
129.044235 108.0 
129.065231 288.0 
129.082123 100.0 
129.126678 100.0 
130.069916 152.0 
130.500763 112.0 
130.570206 116.0 
131.045792 320.0 
131.080231 340.0 
131.277008 128.0 
132.030792 112.0 
132.055557 156.0 
132.079361 52.0 
132.089401 72.0 
132.159256 128.0 
132.603729 144.0 
133.051239 96.0 
133.062546 124.0 
133.086884 220.0 
134.059341 668.0 
134.935333 60.0 
135.117371 720.0 
135.131271 148.0 
135.144943 132.0 
135.930313 104.0 
136.037186 244.0 
136.076096 560.0 
136.125626 156.0 
136.371918 144.0 
137.029953 140.0 
137.050659 60.0 
137.07132 1956.0 
137.104568 188.0 
137.131882 436.0 
137.592972 92.0 
137.682678 124.0 
137.694229 52.0 
137.866821 112.0 
137.935898 148.0 
138.041885 100.0 
138.054001 312.0 
138.074081 304.0 
138.101746 232.0 
138.133331 124.0 
138.600021 88.0 
138.971954 104.0 
139.051315 328.0 
139.086319 1500.0 
139.110352 520.0 
139.147919 596.0 
139.728943 84.0 
140.033752 892.0 
140.071198 656.0 
140.090179 260.0 
140.111679 92.0 
140.148834 84.0 
140.29747 52.0 
141.030334 680.0 
141.064636 224.0 
141.083633 100.0 
141.151184 104.0 
141.409943 64.0 
142.016907 56.0 
142.049606 80.0 
142.711777 148.0 
142.753967 112.0 
143.043961 256.0 
143.143173 88.0 
144.332794 140.0 
144.469467 160.0 
144.842148 100.0 
146.055389 108.0 
146.064896 68.0 
146.095688 108.0 
146.112305 80.0 
146.555908 68.0 
147.055359 96.0 
147.077621 108.0 
147.111893 212.0 
148.057709 116.0 
148.073013 124.0 
148.085556 96.0 
148.167496 112.0 
148.995499 216.0 
149.006561 64.0 
149.028091 88.0 
149.055389 14064.0 
149.070038 15588.0 
149.095093 160.0 
149.111801 336.0 
149.132233 1472.0 
149.163406 108.0 
149.200485 112.0 
149.344269 68.0 
149.480896 68.0 
149.675156 88.0 
149.807144 76.0 
149.876785 52.0 
150.058197 1704.0 
150.072617 1752.0 
150.138992 132.0 
151.043396 68.0 
151.059204 260.0 
151.076538 104.0 
151.088898 116.0 
151.11087 80.0 
151.120499 96.0 
151.148788 320.0 
151.168076 136.0 
152.07045 4120.0 
152.110504 108.0 
152.146729 240.0 
152.262909 112.0 
152.781235 52.0 
153.065002 416.0 
153.106857 136.0 
153.129135 176.0 
153.163559 360.0 
153.589432 84.0 
153.808212 124.0 
154.041794 100.0 
154.06366 172.0 
154.130707 124.0 
154.170807 108.0 
155.040787 120.0 
155.077942 76.0 
155.138977 116.0 
155.182678 144.0 
155.429779 104.0 
155.9534 136.0 
156.019562 88.0 
156.078033 132.0 
156.137177 64.0 
156.18367 192.0 
157.032837 72.0 
157.060287 1988.0 
157.108994 124.0 
157.140961 96.0 
157.158157 116.0 
158.069229 160.0 
158.09375 100.0 
159.040314 956.0 
159.217621 116.0 
159.328979 144.0 
160.04335 212.0 
160.065002 116.0 
160.099731 120.0 
160.119614 88.0 
161.026611 88.0 
161.05484 548.0 
161.066116 288.0 
161.128662 92.0 
162.060959 124.0 
162.073456 96.0 
162.085449 116.0 
162.100204 184.0 
162.128387 88.0 
162.63063 168.0 
163.049347 160.0 
163.081055 324.0 
163.118713 68.0 
163.148941 652.0 
163.592407 92.0 
163.913605 112.0 
164.071121 540.0 
164.101944 124.0 
164.149475 336.0 
164.650055 120.0 
165.066574 1548.0 
165.082214 340.0 
165.088837 372.0 
165.125977 108.0 
165.141083 152.0 
165.162674 320.0 
165.375549 108.0 
166.02681 128.0 
166.047012 176.0 
166.057129 136.0 
166.07196 176.0 
166.07608 156.0 
166.093018 524.0 
166.130447 96.0 
166.565475 92.0 
167.044067 1280.0 
167.081192 12616.0 
167.102921 412.0 
167.116867 284.0 
167.140671 216.0 
167.148972 260.0 
167.168396 76.0 
167.181061 88.0 
167.267319 52.0 
167.383957 104.0 
167.571716 172.0 
167.69873 68.0 
168.041458 124.0 
168.064758 296.0 
168.083527 1712.0 
168.112854 228.0 
168.184067 192.0 
168.805206 92.0 
169.021851 100.0 
169.058456 552.0 
169.083023 132.0 
169.100876 116.0 
169.156403 124.0 
169.1978 112.0 
169.391739 72.0 
169.718567 112.0 
170.153152 100.0 
170.19664 116.0 
170.590866 92.0 
170.708694 108.0 
171.04097 1844.0 
171.2061 132.0 
172.038925 128.0 
172.073639 252.0 
173.062027 192.0 
173.07663 88.0 
173.17984 104.0 
174.084808 320.0 
174.090576 404.0 
174.112732 72.0 
175.071976 704.0 
175.097412 76.0 
176.074448 80.0 
176.087433 112.0 
176.105637 156.0 
176.519714 68.0 
177.072449 140.0 
177.108994 104.0 
177.132538 56.0 
177.162796 284.0 
177.184677 128.0 
178.095352 104.0 
178.106171 140.0 
178.123047 96.0 
178.374374 108.0 
179.087479 108.0 
179.113724 108.0 
179.176361 252.0 
179.941406 92.0 
180.110809 124.0 
180.191391 120.0 
180.528473 136.0 
181.066376 160.0 
181.097275 356.0 
181.114838 104.0 
181.13765 120.0 
181.153366 108.0 
181.159592 128.0 
181.198364 104.0 
182.053665 836.0 
182.09166 184.0 
182.194916 108.0 
182.401443 108.0 
183.034958 120.0 
183.072098 140.0 
183.09761 132.0 
183.165039 60.0 
183.183563 132.0 
183.212784 100.0 
183.223373 144.0 
183.233994 132.0 
183.632401 116.0 
184.071991 704.0 
184.104416 132.0 
184.204193 100.0 
184.446411 232.0 
184.494354 256.0 
184.814224 64.0 
185.057144 484.0 
185.074158 80.0 
185.09256 148.0 
185.128891 132.0 
185.184937 104.0 
185.973022 92.0 
186.054565 316.0 
186.088043 80.0 
186.610062 76.0 
186.802963 124.0 
188.078232 148.0 
188.097061 136.0 
189.069244 120.0 
189.096176 176.0 
189.166321 132.0 
189.660233 104.0 
189.9953 76.0 
190.077972 108.0 
190.095215 312.0 
190.108429 224.0 
190.125031 112.0 
190.541687 92.0 
191.048843 252.0 
191.082886 136.0 
191.094238 208.0 
191.17453 108.0 
192.082321 100.0 
192.098633 100.0 
192.109543 64.0 
192.121414 104.0 
192.133926 176.0 
192.177399 224.0 
193.060104 2948.0 
193.09874 76.0 
193.157379 104.0 
193.194641 288.0 
193.241852 132.0 
193.274597 88.0 
193.380936 92.0 
193.741089 84.0 
194.051514 252.0 
194.065094 324.0 
194.092392 228.0 
194.108719 120.0 
194.202621 136.0 
194.83989 128.0 
194.864502 184.0 
195.036926 112.0 
195.043564 260.0 
195.07431 180.0 
195.112534 120.0 
195.178253 224.0 
195.206345 116.0 
195.335678 100.0 
195.947357 92.0 
196.065353 196.0 
196.110443 116.0 
197.088226 76.0 
197.162521 152.0 
197.195572 120.0 
197.293213 72.0 
200.057449 112.0 
200.067459 328.0 
200.56398 92.0 
200.908539 56.0 
201.050278 112.0 
201.080841 144.0 
201.09758 80.0 
201.186539 136.0 
201.829636 60.0 
202.081696 5160.0 
202.585342 64.0 
202.616043 64.0 
203.066742 2836.0 
203.778915 68.0 
204.067245 324.0 
204.079926 224.0 
204.170959 148.0 
204.37561 80.0 
205.004105 56.0 
205.071594 84.0 
205.113571 112.0 
205.160126 120.0 
205.180969 144.0 
205.195114 472.0 
206.095444 228.0 
206.207535 132.0 
206.98941 68.0 
207.07959 136.0 
207.114044 136.0 
207.1371 180.0 
208.074615 208.0 
208.106567 1288.0 
208.135376 112.0 
208.44957 72.0 
209.04895 124.0 
209.094269 296.0 
209.115189 356.0 
209.187103 400.0 
209.226089 100.0 
210.045258 84.0 
210.083557 100.0 
210.097778 84.0 
210.117645 128.0 
210.131882 96.0 
210.19725 112.0 
210.228485 172.0 
210.828903 100.0 
211.069626 224.0 
211.202713 192.0 
212.070801 152.0 
212.206421 140.0 
212.666611 112.0 
213.052856 112.0 
213.070084 64.0 
216.403442 140.0 
216.73819 196.0 
217.058823 104.0 
217.125259 124.0 
217.185913 192.0 
217.197571 60.0 
217.498169 124.0 
218.069382 108.0 
218.090958 172.0 
218.12915 76.0 
218.253647 144.0 
218.471054 72.0 
218.528976 124.0 
218.752274 100.0 
219.075943 128.0 
219.086792 220.0 
219.208542 372.0 
219.223892 152.0 
219.254303 148.0 
219.512863 76.0 
219.634872 124.0 
219.78598 184.0 
220.059387 132.0 
220.091858 13656.0 
220.222366 68.0 
220.277603 144.0 
220.289276 96.0 
220.356247 76.0 
220.449432 56.0 
221.057877 420.0 
221.094208 2076.0 
221.224655 120.0 
222.049118 424.0 
222.090866 288.0 
222.234283 136.0 
222.600525 68.0 
222.72049 76.0 
223.040161 136.0 
223.071808 84.0 
223.089294 236.0 
223.101105 76.0 
223.115662 236.0 
223.206223 324.0 
223.247574 92.0 
224.056992 104.0 
224.083389 140.0 
224.104736 824.0 
224.209671 92.0 
224.806152 88.0 
224.991425 88.0 
225.059052 132.0 
225.08728 212.0 
225.132904 308.0 
225.179749 64.0 
225.220886 124.0 
226.079849 228.0 
226.09877 108.0 
226.113525 84.0 
226.399658 80.0 
227.068268 300.0 
227.084869 92.0 
227.176376 60.0 
227.880356 88.0 
228.073639 200.0 
228.176422 176.0 
229.555954 136.0 
230.073257 108.0 
230.085098 196.0 
230.159546 80.0 
230.829437 76.0 
230.891998 80.0 
231.231812 88.0 
233.097733 272.0 
233.107071 340.0 
233.204086 128.0 
233.224823 372.0 
233.245987 164.0 
234.086594 652.0 
234.151337 172.0 
234.382477 132.0 
234.857101 100.0 
235.069427 228.0 
235.113907 344.0 
235.20285 92.0 
235.23819 424.0 
235.843887 76.0 
236.075836 76.0 
236.101517 208.0 
236.549103 96.0 
237.092316 96.0 
237.113434 120.0 
237.222336 384.0 
237.865982 64.0 
238.089813 96.0 
239.019684 84.0 
240.05722 568.0 
240.477112 148.0 
241.046143 108.0 
241.13446 100.0 
241.283752 56.0 
241.698196 60.0 
242.112961 88.0 
243.108704 112.0 
243.374832 68.0 
244.673676 96.0 
245.057175 228.0 
245.395065 88.0 
245.459595 68.0 
245.524124 64.0 
247.201645 64.0 
247.235825 124.0 
247.661209 120.0 
247.901993 104.0 
249.257523 320.0 
250.095917 140.0 
251.108566 104.0 
251.120346 196.0 
251.136002 52.0 
251.151459 128.0 
251.19194 56.0 
251.235352 168.0 
251.555695 72.0 
251.994446 64.0 
252.097763 8476.0 
252.570663 68.0 
252.916672 112.0 
253.016479 120.0 
253.098907 972.0 
253.123566 160.0 
253.900101 52.0 
253.975006 120.0 
254.021912 104.0 
254.092026 96.0 
254.106064 300.0 
254.122543 252.0 
254.246979 112.0 
254.284561 68.0 
254.306396 120.0 
254.481598 72.0 
254.947922 80.0 
255.518051 152.0 
255.731293 104.0 
256.321167 148.0 
256.949524 96.0 
257.084686 108.0 
257.13501 84.0 
257.377197 92.0 
258.073425 288.0 
258.753815 164.0 
259.078857 120.0 
260.070984 64.0 
261.109314 76.0 
261.57843 136.0 
261.724426 68.0 
261.829071 108.0 
261.946533 72.0 
262.081726 1496.0 
262.213226 76.0 
262.267212 68.0 
262.362518 60.0 
262.460907 124.0 
262.549866 148.0 
263.064209 220.0 
263.085419 384.0 
263.097839 228.0 
263.185822 72.0 
264.058167 136.0 
264.090057 120.0 
264.731049 72.0 
265.187469 96.0 
265.288269 600.0 
265.311157 104.0 
265.602814 84.0 
266.291534 212.0 
268.294189 88.0 
269.128723 144.0 
270.108704 364.0 
270.12381 136.0 
270.144287 116.0 
271.118591 80.0 
271.250977 88.0 
271.541748 84.0 
272.110718 140.0 
272.136658 76.0 
272.385773 128.0 
272.900635 108.0 
273.240845 148.0 
273.261108 160.0 
273.4646 108.0 
273.766327 68.0 
274.279175 120.0 
274.363586 164.0 
275.160034 96.0 
275.186035 108.0 
275.273254 3116.0 
275.319427 132.0 
275.365021 84.0 
275.475677 80.0 
276.277344 816.0 
276.325867 60.0 
277.24292 136.0 
277.258911 104.0 
277.289368 172.0 
278.082947 112.0 
278.20343 64.0 
278.612427 80.0 
278.717194 76.0 
278.753143 128.0 
278.841614 68.0 
279.109833 1436.0 
279.15274 96.0 
279.601807 100.0 
280.064301 160.0 
280.094055 2756.0 
280.198914 92.0 
280.832794 104.0 
281.074585 564.0 
281.092041 512.0 
281.121948 140.0 
281.296387 76.0 
282.084229 228.0 
282.106049 104.0 
282.250977 104.0 
282.695953 88.0 
283.091736 100.0 
283.157715 116.0 
283.207214 112.0 
283.260071 76.0 
284.436279 64.0 
285.114685 52.0 
285.250397 96.0 
285.422577 200.0 
286.102234 100.0 
286.424042 124.0 
287.051727 52.0 
287.681213 160.0 
288.065948 88.0 
288.08255 112.0 
289.709198 56.0 
290.260101 128.0 
290.387146 64.0 
291.132782 96.0 
291.162933 72.0 
291.2659 224.0 
291.286713 104.0 
291.440735 76.0 
291.742096 92.0 
291.825806 120.0 
291.882782 96.0 
291.949829 80.0 
292.036987 52.0 
292.124084 76.0 
292.281555 168.0 
292.311829 72.0 
292.482727 180.0 
292.506348 52.0 
292.620361 60.0 
292.6875 52.0 
292.764618 68.0 
292.855225 76.0 
293.016296 96.0 
293.039825 72.0 
293.068146 148.0 
293.192719 136.0 
293.217743 104.0 
293.235901 124.0 
293.284424 33516.0 
293.39917 56.0 
293.428802 268.0 
293.551514 72.0 
293.65448 60.0 
293.718292 84.0 
293.862854 72.0 
293.909912 76.0 
294.030914 100.0 
294.119049 64.0 
294.199158 52.0 
294.239502 56.0 
294.287659 5264.0 
294.434601 88.0 
294.561981 80.0 
294.653381 64.0 
294.680298 72.0 
295.291046 836.0 
295.33371 88.0 
295.579681 204.0 
295.630402 68.0 
295.680908 128.0 
295.839417 116.0 
296.085724 88.0 
296.163361 80.0 
296.293915 144.0 
296.307343 96.0 
296.524567 76.0 
296.700195 68.0 
297.034637 140.0 
297.075226 100.0 
297.118958 10340.0 
297.146698 616.0 
297.164825 80.0 
297.213806 112.0 
297.396454 64.0 
297.41333 96.0 
297.44043 60.0 
297.626495 56.0 
297.643311 128.0 
297.6651 52.0 
298.117218 1928.0 
298.161194 108.0 
298.19162 140.0 
298.469452 64.0 
298.649017 88.0 
298.740509 108.0 
299.106201 260.0 
299.123199 380.0 
300.104523 252.0 
300.835449 100.0 
301.774933 132.0 
302.368011 92.0 
302.999115 140.0 
303.251831 96.0 
303.306488 76.0 
304.270325 100.0 
304.299805 132.0 
304.961761 52.0 
305.087799 88.0 
305.235748 92.0 
305.251251 80.0 
305.297424 84.0 
305.533844 116.0 
306.113434 108.0 
306.240356 128.0 
306.276947 104.0 
306.322754 108.0 
307.002686 124.0 
307.07489 88.0 
307.332672 104.0 
308.203064 92.0 
308.323608 68.0 
309.279755 96.0 
309.329895 72.0 
310.192719 92.0 
310.28595 112.0 
310.30954 1964.0 
311.29364 92.0 
311.318451 420.0 
312.310638 72.0 
312.899475 88.0 
313.10965 136.0 
314.024353 112.0 
314.406769 84.0 
315.128265 828.0 
315.275085 104.0 
315.304504 108.0 
316.108337 240.0 
316.132416 404.0 
316.308167 92.0 
317.117828 88.0 
317.131805 88.0 
317.313385 108.0 
317.802643 92.0 
318.1138 156.0 
318.313232 120.0 
319.335785 56.0 
320.2966 120.0 
322.106628 80.0 
323.100311 140.0 
323.184479 112.0 
323.346649 128.0 
324.073486 108.0 
324.091125 104.0 
324.324188 452.0 
325.327972 72.0 
327.311798 108.0 
327.702026 144.0 
328.277466 76.0 
328.298798 68.0 
328.33786 72.0 
328.444489 68.0 
329.967316 96.0 
331.283112 68.0 
332.072296 136.0 
332.259491 100.0 
332.291199 712.0 
332.333893 180.0 
333.266998 76.0 
333.29657 96.0 
333.653717 116.0 
334.194885 68.0 
334.305145 84.0 
335.123993 84.0 
335.18869 52.0 
335.407623 112.0 
336.076019 80.0 
336.11554 92.0 
336.328064 3024.0 
336.54715 68.0 
336.565094 80.0 
336.647888 72.0 
336.950226 56.0 
337.108582 76.0 
337.180573 88.0 
337.327759 1004.0 
337.457886 88.0 
337.731781 64.0 
337.865082 92.0 
338.095856 64.0 
338.164368 80.0 
338.322327 152.0 
339.059204 124.0 
339.568634 72.0 
339.991516 100.0 
341.105591 428.0 
341.145874 192.0 
341.301758 84.0 
342.063019 60.0 
342.319183 380.0 
343.206329 140.0 
343.27179 76.0 
343.318207 152.0 
343.922455 92.0 
344.297211 56.0 
344.318939 108.0 
344.348083 96.0 
344.519104 124.0 
345.320374 92.0 
345.342834 92.0 
346.305786 204.0 
346.322174 284.0 
346.367065 72.0 
347.119263 92.0 
347.269073 96.0 
347.312988 68.0 
349.120636 120.0 
349.912537 112.0 
350.301392 216.0 
350.338074 160.0 
350.378632 64.0 
351.293182 96.0 
351.311462 204.0 
351.341034 64.0 
352.105957 80.0 
352.21637 72.0 
352.31311 460.0 
352.328125 240.0 
352.547638 100.0 
353.324982 112.0 
353.852295 96.0 
353.87439 144.0 
354.00354 108.0 
354.343048 132.0 
355.244385 88.0 
356.342926 136.0 
357.206024 92.0 
358.196289 100.0 
359.184265 72.0 
359.347778 92.0 
359.489105 56.0 
360.324554 1632.0 
360.361908 104.0 
360.37442 156.0 
360.411652 148.0 
360.486176 100.0 
361.33139 412.0 
361.360352 92.0 
361.432587 64.0 
362.301697 112.0 
362.324097 96.0 
362.342773 96.0 
362.902985 52.0 
363.220428 176.0 
363.30246 104.0 
363.336395 96.0 
363.370056 88.0 
363.471039 56.0 
363.504608 100.0 
363.620422 196.0 
363.800079 72.0 
363.998383 64.0 
364.136841 52.0 
364.241547 96.0 
364.32074 6656.0 
365.32608 2404.0 
366.326141 360.0 
366.584473 80.0 
366.610718 96.0 
367.425995 80.0 
368.311798 108.0 
369.326752 64.0 
369.375702 80.0 
370.306061 520.0 
370.85083 72.0 
371.137939 60.0 
371.309326 260.0 
372.272034 140.0 
372.309937 100.0 
372.328339 384.0 
372.381714 204.0 
373.30954 100.0 
373.325745 188.0 
374.341888 96.0 
375.339386 80.0 
375.356537 128.0 
375.373505 144.0 
375.387421 68.0 
375.533173 80.0 
376.29361 84.0 
376.384888 92.0 
377.313751 96.0 
377.359467 92.0 
378.293335 104.0 
379.29715 84.0 
380.317505 132.0 
380.860779 124.0 
381.312561 80.0 
381.406952 176.0 
382.319092 116.0 
382.337738 108.0 
382.354767 124.0 
383.191254 68.0 
384.326935 60.0 
384.62439 96.0 
385.305481 68.0 
386.091156 64.0 
386.306824 152.0 
386.572906 92.0 
386.711731 80.0 
387.332916 60.0 
387.366638 188.0 
387.396637 144.0 
387.475677 72.0 
387.603058 80.0 
387.792267 88.0 
388.255829 76.0 
388.322052 6760.0 
388.374237 144.0 
388.4104 80.0 
388.561127 96.0 
388.649994 120.0 
388.677124 72.0 
388.711975 52.0 
388.727417 60.0 
389.321045 1912.0 
389.369507 60.0 
389.388733 128.0 
389.481689 80.0 
389.694519 104.0 
390.043091 60.0 
390.248413 56.0 
390.298706 80.0 
390.32132 232.0 
390.346924 184.0 
390.670776 56.0 
391.066223 64.0 
391.116608 68.0 
392.33139 112.0 
392.378082 64.0 
392.52951 112.0 
393.015289 136.0 
393.050323 96.0 
393.458679 76.0 
395.343628 68.0 
396.311249 248.0 
397.22522 96.0 
397.310455 168.0 
397.358154 76.0 
398.402374 224.0 
399.123047 104.0 
400.283539 96.0 
400.326752 76.0 
400.350311 64.0 
400.793823 64.0 
400.997894 112.0 
401.353516 112.0 
401.858398 84.0 
402.361786 72.0 
402.727692 76.0 
403.325989 128.0 
403.343964 112.0 
403.369598 1420.0 
403.418274 140.0 
403.830261 128.0 
404.369568 608.0 
404.824005 88.0 
405.348969 68.0 
405.378693 144.0 
405.656891 144.0 
406.206116 108.0 
406.289154 96.0 
406.320587 284.0 
406.339325 156.0 
406.358124 124.0 
407.250183 132.0 
407.285858 92.0 
407.338837 200.0 
408.2164 108.0 
408.331543 84.0 
411.249084 92.0 
412.231934 96.0 
413.243835 132.0 
413.343536 104.0 
414.29303 72.0 
414.332764 232.0 
414.404785 84.0 
414.580383 124.0 
414.991882 56.0 
415.223572 72.0 
415.299408 124.0 
415.367798 3928.0 
415.479187 220.0 
415.507385 56.0 
415.905182 108.0 
416.135071 124.0 
416.155151 76.0 
416.375122 2228.0 
416.459198 104.0 
416.915588 72.0 
417.380188 300.0 
417.572571 56.0 
417.780853 112.0 
418.370361 68.0 
418.398376 112.0 
418.899994 64.0 
419.108673 92.0 
419.132843 56.0 
419.353577 108.0 
419.371918 96.0 
419.38562 180.0 
419.895874 124.0 
420.289856 68.0 
420.371002 84.0 
421.343719 148.0 
421.37793 1012.0 
421.420135 220.0 
422.012238 116.0 
422.354767 84.0 
422.379974 604.0 
423.313965 248.0 
423.328979 328.0 
423.358917 72.0 
423.389038 72.0 
424.298523 168.0 
424.318512 320.0 
425.318207 104.0 
426.641541 120.0 
427.804871 88.0 
428.198364 124.0 
428.307983 92.0 
428.592072 112.0 
429.339417 112.0 
431.36145 448.0 
431.430573 84.0 
432.351624 68.0 
432.37204 64.0 
432.420929 80.0 
433.069489 124.0 
433.376831 168.0 
434.38266 140.0 
436.188873 116.0 
437.377502 68.0 
438.949615 84.0 
440.310577 104.0 
440.339417 84.0 
441.080383 116.0 
441.335114 1152.0 
442.327301 252.0 
442.339172 152.0 
443.720215 96.0 
444.290436 108.0 
446.363678 136.0 
447.562012 52.0 
448.932037 96.0 
450.345825 116.0 
450.786957 196.0 
453.134186 132.0 
453.171844 72.0 
453.322144 80.0 
453.347229 68.0 
453.606018 132.0 
455.353546 108.0 
456.354218 108.0 
457.200958 60.0 
458.325348 72.0 
458.350586 64.0 
458.417633 116.0 
458.85022 104.0 
459.356812 1964.0 
459.413422 52.0 
459.699066 176.0 
460.199707 72.0 
460.359497 708.0 
460.60791 56.0 
461.360809 160.0 
462.153748 68.0 
462.305511 76.0 
462.364594 64.0 
462.799011 68.0 
464.403442 100.0 
465.130585 96.0 
466.00647 100.0 
466.167297 140.0 
467.353607 108.0 
468.68158 76.0 
469.735046 72.0 
470.381226 96.0 
471.193909 112.0 
472.407867 116.0 
475.327881 68.0 
475.370575 96.0 
476.303162 72.0 
476.354523 68.0 
476.405792 120.0 
476.966644 144.0 
477.370148 184.0 
477.398529 92.0 
478.383423 124.0 
478.419769 60.0 
479.373688 116.0 
482.124298 68.0 
482.748871 56.0 
482.951385 64.0 
483.956055 60.0 
484.08963 160.0 
484.193268 92.0 
484.408966 148.0 
486.331726 52.0 
488.310028 80.0 
488.379333 92.0 
488.396698 76.0 
488.705566 140.0 
489.354889 100.0 
490.399078 868.0 
490.445648 140.0 
491.352264 100.0 
491.399933 272.0 
491.410187 224.0 
491.443817 60.0 
492.400635 76.0 
494.325836 120.0 
494.358276 152.0 
495.351807 108.0 
496.3685 84.0 
498.358337 116.0 
498.378235 92.0 
499.063538 60.0 
499.335114 96.0 
500.387756 92.0 
501.379242 100.0 
502.007385 84.0 
502.402985 52.0 
504.82782 56.0 
506.406403 72.0 
507.48819 68.0 
508.38089 92.0 
510.372559 88.0 
511.378754 80.0 
512.044189 68.0 
512.370605 384.0 
512.447998 108.0 
513.371277 384.0 
514.369263 68.0 
515.366333 80.0 
515.413269 84.0 
516.598083 148.0 
518.297668 152.0 
518.357788 268.0 
518.375122 204.0 
518.402527 344.0 
519.338623 56.0 
519.364746 116.0 
519.39801 172.0 
519.441345 100.0 
520.380371 88.0 
520.411743 68.0 
522.13092 112.0 
522.198181 92.0 
522.794373 84.0 
523.233887 76.0 
525.398254 80.0 
527.368896 84.0 
527.391479 60.0 
528.37915 132.0 
528.459229 100.0 
528.837952 100.0 
529.392761 108.0 
531.845764 76.0 
532.311646 84.0 
533.384399 108.0 
534.390686 164.0 
535.381531 108.0 
535.404846 96.0 
536.36969 160.0 
537.250183 72.0 
542.266357 72.0 
544.373474 116.0 
544.396423 92.0 
546.067871 64.0 
546.310791 60.0 
546.429993 52.0 
547.241516 108.0 
547.383789 80.0 
547.415894 92.0 
549.340149 60.0 
551.198486 92.0 
551.221619 64.0 
554.383606 80.0 
556.672485 68.0 
561.113647 132.0 
561.327515 60.0 
561.411133 64.0 
562.380798 552.0 
562.421997 88.0 
563.413635 724.0 
563.471313 104.0 
564.384033 120.0 
564.410889 204.0 
564.436096 212.0 
564.463318 96.0 
565.367493 112.0 
565.404846 100.0 
565.428894 100.0 
565.969238 84.0 
571.365906 56.0 
571.388611 216.0 
571.501709 88.0 
571.862732 96.0 
572.284912 100.0 
572.361572 168.0 
572.391479 212.0 
573.367371 120.0 
574.336914 64.0 
576.321777 92.0 
577.301331 140.0 
579.420227 124.0 
587.043823 68.0 
587.319397 88.0 
588.87439 152.0 
589.317139 80.0 
589.395142 580.0 
590.121826 168.0 
590.359009 156.0 
590.388733 704.0 
590.409546 196.0 
590.440552 112.0 
591.372803 148.0 
591.418518 144.0 
592.393799 96.0 
594.450684 64.0 
594.924194 60.0 
600.845947 92.0 
601.620178 68.0 
602.101318 60.0 
604.350586 56.0 
604.437256 88.0 
604.596436 72.0 
605.14624 68.0 
605.165588 60.0 
605.406799 68.0 
605.432556 64.0 
606.246582 88.0 
606.357605 96.0 
606.441101 108.0 
606.46875 64.0 
607.404053 1920.0 
607.623352 136.0 
608.121521 64.0 
608.334229 96.0 
608.409851 768.0 
608.716553 52.0 
608.973022 52.0 
609.338623 76.0 
609.403687 188.0 
610.398743 76.0 
610.527161 172.0 
611.353149 104.0 
611.550232 60.0 
628.995361 64.0 
644.229553 116.0 
654.283081 88.0 
660.19043 52.0 
669.336792 72.0 
689.259094 104.0 
766.013855 60.0 
809.792542 56.0 
982.618164 76.0 
988.978577 60.0 
END IONS

