BEGIN IONS
PEPMASS=509.292
CHARGE=1+
COMPOUNDNAME=MLS000863651-01!
LIBRARYQUALITY=1
SMILES=C/C=C/C=C/C(=O)N1CC[C@]23[C@@H]1N4CC[C@]3([C@H]5Nc6ccccc62)c7c(cccc7[C@@H]4C8OC8(C)C)N5C
INCHIKEY=XZFSMUXVAYCHFO-QREHLELFSA-N
INCHI=N/A
MSLEVEL=2
SOURCE_INSTRUMENT=LC-ESI-qTof
FILENAME=p1-D12_GD12_01_17920.mzXML
SEQ=*..*
IONMODE=Positive
ORGANISM=GNPS-NIH-NATURALPRODUCTSLIBRARY
NAME=MLS000863651-01! M+H
PI=Dorrestein
DATACOLLECTOR=VVP/LMS
PUBMED=N/A
SUBMITUSER=vphelan
TAGS=
SPECTRUMID=CCMSLIB00000079878
SCANS=2270
94.995514 156.0 
94.998909 228.0 
95.04908 3524.0 
95.079788 212.0 
95.121307 72.0 
95.171028 48.0 
95.281731 52.0 
95.314758 44.0 
95.330307 84.0 
95.347794 116.0 
95.41777 128.0 
95.569473 108.0 
95.723244 96.0 
95.859596 64.0 
95.931709 184.0 
95.999947 36.0 
96.053841 572.0 
96.241905 56.0 
96.323929 148.0 
96.364952 88.0 
96.431396 72.0 
96.613243 52.0 
96.660866 152.0 
96.723572 240.0 
96.771767 200.0 
96.924538 176.0 
97.126465 184.0 
97.157845 192.0 
97.422867 160.0 
97.597786 28.0 
97.648911 196.0 
97.95005 112.0 
97.995361 180.0 
98.101784 44.0 
98.624863 84.0 
98.858231 152.0 
98.878021 204.0 
98.931465 160.0 
98.955612 184.0 
99.198891 140.0 
99.280182 56.0 
99.37738 112.0 
99.573898 144.0 
99.687134 132.0 
99.708992 196.0 
99.762657 116.0 
99.789452 176.0 
100.142708 152.0 
100.168602 124.0 
100.312073 208.0 
100.495544 132.0 
100.809029 152.0 
100.896973 108.0 
101.213089 160.0 
101.381355 132.0 
101.427452 152.0 
101.605919 168.0 
101.700233 140.0 
101.911087 160.0 
101.997505 140.0 
102.043739 184.0 
102.212692 180.0 
102.442207 124.0 
102.470413 116.0 
102.712318 160.0 
102.899986 160.0 
102.922195 164.0 
103.055504 108.0 
103.071671 72.0 
103.136337 188.0 
103.225288 88.0 
103.514656 124.0 
103.533844 132.0 
103.893661 48.0 
104.19574 140.0 
104.218498 60.0 
104.370941 108.0 
104.643578 104.0 
104.828934 356.0 
105.067482 80.0 
105.187881 136.0 
105.220543 144.0 
105.866661 180.0 
106.065392 168.0 
106.1474 176.0 
106.40387 208.0 
106.438774 128.0 
106.601051 140.0 
106.670929 52.0 
106.786072 112.0 
106.870407 192.0 
106.989777 48.0 
107.457603 92.0 
107.781754 232.0 
107.847885 260.0 
107.901634 212.0 
107.961594 224.0 
108.058815 188.0 
108.238884 124.0 
108.537254 176.0 
109.039619 160.0 
109.062531 168.0 
109.091583 72.0 
109.307877 124.0 
109.411949 144.0 
109.468163 140.0 
109.786995 84.0 
110.224228 184.0 
110.250435 168.0 
110.474159 128.0 
110.522278 180.0 
110.742081 140.0 
110.853111 132.0 
111.018723 200.0 
111.131989 116.0 
111.253716 112.0 
111.291504 100.0 
111.425919 132.0 
111.488953 144.0 
111.61087 164.0 
111.630814 180.0 
111.753899 152.0 
112.05497 160.0 
112.175087 140.0 
112.234352 180.0 
112.265747 152.0 
112.434517 64.0 
112.613968 132.0 
112.675224 80.0 
112.802719 212.0 
113.060059 104.0 
113.214592 44.0 
113.528229 100.0 
113.638527 136.0 
113.689453 160.0 
113.829552 108.0 
113.903885 108.0 
114.167427 156.0 
114.348259 164.0 
114.386574 176.0 
114.454697 144.0 
114.48877 228.0 
114.520714 220.0 
114.622971 180.0 
114.74659 100.0 
115.057304 200.0 
115.226784 124.0 
115.376381 112.0 
115.607384 192.0 
116.783043 124.0 
116.869095 72.0 
116.931496 44.0 
117.041283 152.0 
117.063217 408.0 
117.569405 164.0 
117.679489 164.0 
117.772346 128.0 
118.067513 328.0 
118.481857 140.0 
118.850426 152.0 
118.876465 164.0 
118.952431 196.0 
119.456558 176.0 
119.753563 196.0 
119.780899 176.0 
120.033707 124.0 
120.078362 268.0 
120.317345 224.0 
120.428703 176.0 
120.540123 68.0 
120.782791 120.0 
121.076675 216.0 
121.360931 204.0 
121.42672 168.0 
121.529823 152.0 
121.580292 140.0 
121.874535 152.0 
122.072357 192.0 
122.316566 184.0 
122.75499 220.0 
122.955734 152.0 
123.010918 156.0 
123.877739 188.0 
123.910973 164.0 
123.935341 136.0 
124.176971 144.0 
124.225769 164.0 
124.241295 32.0 
124.596497 120.0 
124.676483 216.0 
124.716492 140.0 
124.83654 108.0 
124.932182 124.0 
125.072365 144.0 
125.1436 132.0 
125.261635 208.0 
125.38195 124.0 
125.491173 76.0 
125.696373 168.0 
125.781181 144.0 
125.832527 128.0 
126.136337 104.0 
126.167633 68.0 
126.532288 152.0 
126.691551 212.0 
127.002869 88.0 
127.312584 36.0 
127.346275 148.0 
127.384453 168.0 
127.636169 236.0 
127.82061 120.0 
127.843117 148.0 
128.025452 180.0 
128.056992 152.0 
128.142578 104.0 
128.178635 176.0 
128.248489 120.0 
128.381516 152.0 
128.467224 156.0 
128.629684 56.0 
128.880371 192.0 
128.949295 20.0 
129.067947 208.0 
129.088318 212.0 
129.450378 168.0 
129.520584 120.0 
129.574951 208.0 
129.826553 60.0 
129.969452 192.0 
130.001221 160.0 
130.065903 2052.0 
130.303207 232.0 
130.348648 136.0 
130.398651 144.0 
130.566879 220.0 
130.960617 172.0 
131.013 120.0 
131.059814 652.0 
131.32756 124.0 
131.380035 140.0 
131.453033 108.0 
131.583145 168.0 
131.711014 176.0 
131.859528 128.0 
132.056152 128.0 
132.078186 472.0 
132.26207 100.0 
132.30098 200.0 
132.601044 228.0 
132.655823 184.0 
132.791336 172.0 
132.834915 140.0 
132.908325 116.0 
133.004715 160.0 
133.098846 168.0 
133.507858 180.0 
133.58606 96.0 
133.70256 108.0 
133.721817 52.0 
133.832306 148.0 
133.85994 148.0 
134.230927 200.0 
134.295502 148.0 
134.447769 168.0 
134.674026 140.0 
134.777985 160.0 
134.962891 136.0 
134.999893 100.0 
135.120163 160.0 
135.208099 144.0 
135.534592 108.0 
135.67598 100.0 
135.822067 180.0 
135.849899 180.0 
136.146988 232.0 
136.263123 204.0 
136.867935 108.0 
137.065842 140.0 
137.380585 108.0 
137.717056 184.0 
137.894272 140.0 
137.946091 116.0 
137.987762 112.0 
138.004135 80.0 
138.090302 448.0 
138.135101 132.0 
138.319946 136.0 
138.364426 164.0 
138.507278 196.0 
138.530701 140.0 
138.858841 136.0 
139.091125 148.0 
139.140427 172.0 
139.575089 176.0 
139.737366 220.0 
140.050461 168.0 
140.088135 124.0 
140.261826 96.0 
140.314377 148.0 
140.363892 108.0 
140.493271 196.0 
140.658783 112.0 
140.939819 164.0 
141.003632 188.0 
141.068771 180.0 
141.17598 212.0 
141.247147 112.0 
141.580872 60.0 
141.602188 136.0 
141.713516 196.0 
142.064224 372.0 
142.142685 100.0 
142.175903 120.0 
142.696091 172.0 
142.816406 236.0 
142.995819 64.0 
143.067078 444.0 
143.124359 56.0 
143.164841 100.0 
143.236298 116.0 
143.347229 148.0 
143.484116 124.0 
143.722626 196.0 
143.820465 184.0 
143.952377 96.0 
143.970871 188.0 
144.025803 152.0 
144.081528 1812.0 
144.164383 108.0 
144.236069 132.0 
144.460846 100.0 
144.664246 104.0 
144.683395 184.0 
145.013962 92.0 
145.077927 292.0 
145.131424 72.0 
145.246536 116.0 
145.378494 116.0 
145.43129 184.0 
145.450485 112.0 
145.508102 160.0 
145.637772 148.0 
145.753082 80.0 
145.781921 124.0 
145.841995 240.0 
146.059692 148.0 
146.096481 144.0 
146.289398 52.0 
146.457962 96.0 
146.494095 116.0 
146.838058 176.0 
146.870117 156.0 
146.932831 128.0 
147.125519 124.0 
147.209045 128.0 
147.236969 160.0 
147.282852 196.0 
147.720367 152.0 
147.841339 144.0 
147.986572 140.0 
148.068909 180.0 
148.255447 168.0 
148.321884 184.0 
148.602188 164.0 
148.798767 148.0 
149.3358 164.0 
149.66188 188.0 
150.090714 120.0 
150.517715 148.0 
150.539688 136.0 
150.76651 132.0 
150.950226 196.0 
151.143463 144.0 
151.256042 124.0 
151.699402 188.0 
151.787659 68.0 
151.888214 224.0 
152.055054 168.0 
152.187607 72.0 
152.52417 220.0 
152.994003 88.0 
153.186081 152.0 
153.203323 148.0 
153.414047 172.0 
153.642136 136.0 
153.842026 124.0 
154.027222 156.0 
154.068222 208.0 
154.21994 160.0 
154.326248 220.0 
154.538956 168.0 
155.064575 380.0 
155.088699 96.0 
155.301926 112.0 
155.383789 116.0 
155.500412 152.0 
155.843094 188.0 
155.860489 180.0 
156.044418 184.0 
156.080307 852.0 
156.208542 60.0 
156.589371 164.0 
156.698975 136.0 
156.950699 116.0 
157.079086 588.0 
157.107819 224.0 
157.160217 128.0 
157.37265 252.0 
157.422302 140.0 
157.481247 188.0 
157.634644 192.0 
158.060699 212.0 
158.095062 472.0 
158.164825 44.0 
158.189865 80.0 
158.239929 212.0 
158.320053 44.0 
158.35762 164.0 
158.569244 164.0 
158.598145 120.0 
158.836349 72.0 
158.871475 176.0 
158.904083 216.0 
158.93277 180.0 
158.994415 308.0 
159.029556 104.0 
159.055984 164.0 
159.091309 14044.0 
159.175156 68.0 
159.205292 164.0 
159.323349 168.0 
159.340927 96.0 
159.368805 84.0 
159.40123 108.0 
159.457245 88.0 
159.509293 48.0 
159.538025 112.0 
159.572144 136.0 
159.594772 88.0 
159.833725 120.0 
159.949493 112.0 
160.022491 252.0 
160.093353 1396.0 
160.12825 36.0 
160.231522 48.0 
160.339874 168.0 
160.40036 108.0 
160.466415 256.0 
160.501205 148.0 
160.624786 348.0 
160.710556 36.0 
160.74588 80.0 
160.791306 124.0 
160.98822 104.0 
161.036194 148.0 
161.071564 244.0 
161.093964 180.0 
161.165039 144.0 
161.182724 60.0 
161.246811 156.0 
161.492661 120.0 
161.736038 172.0 
162.075912 84.0 
162.309097 88.0 
162.51709 212.0 
162.605911 136.0 
162.801376 132.0 
162.847092 132.0 
162.895355 188.0 
163.106262 160.0 
163.378342 136.0 
163.613281 176.0 
163.643021 124.0 
164.007309 140.0 
164.099075 112.0 
164.333725 140.0 
165.074448 148.0 
165.171631 136.0 
165.27301 216.0 
165.381439 136.0 
165.599075 140.0 
165.647736 144.0 
165.711777 232.0 
165.770721 92.0 
166.037323 144.0 
166.069534 168.0 
166.166061 192.0 
166.5121 52.0 
166.7202 112.0 
166.957993 40.0 
167.059479 204.0 
167.077911 372.0 
167.12648 116.0 
167.350403 84.0 
167.553864 132.0 
167.757446 72.0 
167.925049 212.0 
168.080627 3644.0 
168.156982 40.0 
168.309555 84.0 
168.387024 116.0 
168.629883 68.0 
168.647964 132.0 
168.8367 80.0 
168.883545 208.0 
168.971207 64.0 
169.077011 1048.0 
169.21965 188.0 
169.25412 116.0 
169.284393 236.0 
169.343948 224.0 
169.608231 132.0 
169.649704 160.0 
169.890884 108.0 
169.968704 184.0 
170.094345 1348.0 
170.132217 208.0 
170.191925 40.0 
170.264633 52.0 
170.291504 116.0 
170.334763 68.0 
170.419769 128.0 
170.477661 72.0 
170.638809 180.0 
171.000381 180.0 
171.070557 184.0 
171.092728 512.0 
171.11348 160.0 
171.22168 200.0 
171.466568 228.0 
171.497849 64.0 
171.818573 236.0 
171.844666 108.0 
172.071732 108.0 
172.097763 580.0 
172.212738 164.0 
172.233627 156.0 
172.330292 88.0 
172.369476 144.0 
172.630875 204.0 
172.649185 120.0 
172.808746 76.0 
173.079453 56.0 
173.112335 312.0 
173.243332 184.0 
173.287872 36.0 
173.468689 216.0 
173.959229 144.0 
174.0905 192.0 
174.366348 100.0 
174.395248 168.0 
174.834457 148.0 
174.981857 60.0 
175.147766 168.0 
175.166199 180.0 
175.208344 140.0 
175.754105 136.0 
175.991653 132.0 
176.15274 112.0 
176.474579 184.0 
176.641769 132.0 
176.692032 176.0 
176.72377 184.0 
176.803162 72.0 
176.935501 168.0 
177.497192 104.0 
177.637436 168.0 
177.831451 188.0 
178.043839 104.0 
178.285583 164.0 
178.362656 104.0 
178.623245 132.0 
179.081055 68.0 
179.142319 144.0 
179.195602 152.0 
179.283524 152.0 
179.49678 52.0 
179.803558 200.0 
180.080215 544.0 
180.206772 44.0 
180.23349 168.0 
180.276245 212.0 
180.54541 128.0 
180.605072 56.0 
180.658585 100.0 
181.00383 196.0 
181.022568 92.0 
181.08812 3128.0 
181.189789 112.0 
181.234177 124.0 
181.362808 212.0 
181.496857 140.0 
181.633621 148.0 
181.689957 204.0 
181.738251 80.0 
181.773132 180.0 
181.861694 140.0 
181.934174 176.0 
182.094208 2656.0 
182.332108 232.0 
182.657288 120.0 
182.737717 124.0 
183.047256 148.0 
183.091217 6660.0 
183.154984 48.0 
183.284286 84.0 
183.381302 100.0 
183.56192 32.0 
183.621262 148.0 
183.645447 144.0 
183.745331 44.0 
183.972031 140.0 
183.996323 64.0 
184.098358 3176.0 
184.161041 108.0 
184.196152 192.0 
184.390686 136.0 
184.43663 60.0 
184.504211 68.0 
184.544769 244.0 
184.65834 64.0 
184.812531 68.0 
184.88559 44.0 
184.909943 232.0 
185.018219 252.0 
185.10614 8504.0 
185.440781 68.0 
185.46788 92.0 
185.563248 224.0 
185.660385 84.0 
185.692917 28.0 
185.790573 60.0 
186.056519 124.0 
186.110168 1320.0 
186.271057 64.0 
186.298218 72.0 
186.347122 60.0 
186.385147 128.0 
186.437653 100.0 
186.496262 68.0 
186.591721 132.0 
186.63533 192.0 
186.888168 60.0 
186.957321 56.0 
186.977966 128.0 
187.083832 236.0 
187.114975 168.0 
187.222977 204.0 
187.340103 144.0 
187.380966 88.0 
187.590805 124.0 
187.817123 112.0 
188.079468 184.0 
188.100571 236.0 
188.220169 64.0 
188.278366 128.0 
188.297485 156.0 
188.786667 220.0 
188.865967 216.0 
188.912476 120.0 
188.972656 152.0 
189.199814 100.0 
189.276474 52.0 
189.365082 180.0 
189.396973 88.0 
189.681931 224.0 
189.9534 92.0 
190.027466 96.0 
190.485931 128.0 
190.505157 56.0 
190.530731 64.0 
190.653519 136.0 
191.071793 360.0 
191.269592 84.0 
191.544952 44.0 
191.900436 56.0 
192.076935 144.0 
192.38324 84.0 
192.717407 80.0 
193.054626 164.0 
193.087814 216.0 
193.187393 60.0 
193.364471 204.0 
193.505646 192.0 
193.652405 116.0 
193.754898 88.0 
194.095673 524.0 
194.129074 160.0 
194.178986 112.0 
194.21228 32.0 
194.237244 28.0 
194.303818 176.0 
194.36763 124.0 
194.456436 152.0 
194.583664 192.0 
194.79393 144.0 
194.825516 104.0 
194.889633 144.0 
195.09491 852.0 
195.20929 176.0 
195.276031 224.0 
195.365036 184.0 
195.921799 140.0 
196.106857 1748.0 
196.147522 104.0 
196.627243 148.0 
196.694229 44.0 
196.906433 148.0 
196.939941 72.0 
196.959488 92.0 
197.018784 88.0 
197.060059 80.0 
197.106491 6104.0 
197.164505 116.0 
197.186646 40.0 
197.222961 68.0 
197.333954 148.0 
197.58287 128.0 
197.728363 80.0 
197.761948 140.0 
197.851517 104.0 
197.938324 48.0 
197.988724 144.0 
198.061539 168.0 
198.115219 5380.0 
198.238037 212.0 
198.561554 80.0 
198.608612 112.0 
198.829758 60.0 
198.925186 184.0 
199.122253 1724.0 
199.284653 64.0 
199.307129 124.0 
199.443558 96.0 
199.520721 92.0 
199.576965 72.0 
199.742874 44.0 
199.832901 108.0 
199.908875 44.0 
200.063675 156.0 
200.106537 324.0 
200.129715 168.0 
200.181931 48.0 
200.350922 224.0 
200.612991 80.0 
200.858322 32.0 
200.971161 36.0 
201.128937 128.0 
201.629105 132.0 
201.694107 104.0 
201.747818 160.0 
202.00798 148.0 
202.053238 204.0 
202.093658 168.0 
202.1353 100.0 
202.225845 76.0 
202.387207 168.0 
202.54863 92.0 
202.568466 72.0 
202.670456 184.0 
202.775299 160.0 
202.797974 120.0 
202.848999 144.0 
202.917023 156.0 
202.979401 204.0 
203.055969 164.0 
203.251709 124.0 
203.70311 160.0 
203.79686 236.0 
203.819595 164.0 
204.079315 128.0 
204.37973 148.0 
204.479324 96.0 
204.51918 140.0 
204.539108 72.0 
204.624496 152.0 
204.71846 164.0 
204.738403 132.0 
204.818146 100.0 
204.863724 244.0 
204.93779 152.0 
205.082199 244.0 
205.673538 80.0 
205.762039 132.0 
205.927658 140.0 
206.093796 204.0 
206.290527 136.0 
206.321976 228.0 
206.344849 40.0 
206.429062 212.0 
206.802536 112.0 
207.01152 136.0 
207.100952 356.0 
207.147095 144.0 
207.538757 204.0 
207.986282 100.0 
208.109741 800.0 
208.299255 68.0 
208.438416 192.0 
208.514755 156.0 
208.609604 108.0 
208.704468 68.0 
208.813751 136.0 
209.110641 572.0 
209.222336 112.0 
209.521088 136.0 
209.699783 168.0 
210.125778 1764.0 
210.577576 84.0 
210.652664 148.0 
210.704666 180.0 
210.794235 32.0 
210.945404 248.0 
211.084427 164.0 
211.131165 488.0 
211.326263 112.0 
211.442001 204.0 
211.708344 96.0 
211.815506 176.0 
212.098373 676.0 
212.129669 800.0 
212.282104 196.0 
212.845047 80.0 
212.920547 116.0 
212.996063 64.0 
213.10144 280.0 
213.143341 264.0 
213.382553 160.0 
213.877075 44.0 
213.944031 92.0 
213.984787 48.0 
214.013901 156.0 
214.106995 152.0 
214.129547 180.0 
214.229416 56.0 
214.517914 132.0 
214.625778 44.0 
215.127579 156.0 
215.767349 160.0 
215.863831 148.0 
216.068573 48.0 
216.106613 140.0 
216.211945 148.0 
216.454926 212.0 
216.604279 88.0 
216.944199 40.0 
216.985245 52.0 
217.099594 176.0 
217.786346 120.0 
218.094849 296.0 
218.524185 164.0 
218.647766 220.0 
219.102432 184.0 
219.224976 140.0 
219.991821 132.0 
220.105621 628.0 
220.110687 252.0 
220.14534 92.0 
220.259079 180.0 
220.828018 100.0 
220.922668 64.0 
221.108887 752.0 
221.186035 40.0 
221.411041 132.0 
221.52063 36.0 
221.70137 60.0 
221.932571 108.0 
222.077393 192.0 
222.11911 404.0 
222.161163 204.0 
222.252914 136.0 
222.603165 228.0 
223.113098 408.0 
223.44133 176.0 
223.756805 88.0 
224.103622 740.0 
224.340698 192.0 
224.370514 48.0 
224.451004 128.0 
224.728394 168.0 
225.014908 160.0 
225.112457 168.0 
225.140411 148.0 
225.376297 80.0 
225.412155 196.0 
225.702103 152.0 
225.779846 148.0 
226.087982 260.0 
226.121338 1604.0 
226.438248 124.0 
226.608994 152.0 
226.66066 212.0 
226.70787 148.0 
226.953674 212.0 
227.126984 800.0 
227.1539 284.0 
227.63179 116.0 
227.703873 112.0 
227.980255 28.0 
228.091461 176.0 
228.139862 320.0 
228.476364 164.0 
228.834503 132.0 
229.039276 112.0 
229.105545 80.0 
229.146317 168.0 
229.515427 200.0 
229.925674 172.0 
230.046417 184.0 
230.09169 148.0 
230.203415 72.0 
230.232117 156.0 
230.375565 108.0 
230.650543 48.0 
230.958954 128.0 
230.995255 140.0 
231.104156 224.0 
231.467377 32.0 
232.012741 96.0 
232.109756 184.0 
232.434311 176.0 
232.49501 68.0 
232.710526 140.0 
232.743515 132.0 
232.795532 160.0 
233.109909 260.0 
233.163116 204.0 
233.412384 68.0 
233.914169 288.0 
234.103134 88.0 
234.127502 188.0 
234.328537 136.0 
234.874207 40.0 
235.054199 148.0 
235.084717 164.0 
235.120667 348.0 
235.188477 68.0 
235.331955 172.0 
235.57933 68.0 
235.774872 220.0 
235.866562 60.0 
235.915466 68.0 
236.125092 156.0 
236.279388 124.0 
236.349762 220.0 
236.567047 148.0 
236.821198 172.0 
236.861008 128.0 
236.992737 184.0 
237.106125 296.0 
237.138885 1528.0 
237.173553 176.0 
237.802307 180.0 
237.915878 144.0 
237.958862 196.0 
238.017197 212.0 
238.121323 688.0 
238.145874 648.0 
238.25061 56.0 
238.597885 28.0 
238.628632 128.0 
238.699341 136.0 
238.948471 120.0 
239.062317 196.0 
239.127258 500.0 
239.147202 704.0 
239.237762 48.0 
239.437897 204.0 
239.593262 128.0 
239.61142 84.0 
239.786026 80.0 
240.066559 124.0 
240.13887 596.0 
240.344177 68.0 
240.587997 132.0 
240.906067 164.0 
240.97403 92.0 
241.131866 364.0 
241.530472 144.0 
241.567596 76.0 
241.618042 168.0 
241.672775 108.0 
241.948227 124.0 
242.09375 108.0 
242.564682 60.0 
242.918182 132.0 
242.964706 40.0 
243.048477 196.0 
243.107437 164.0 
243.172913 164.0 
243.3405 92.0 
243.554504 96.0 
243.655426 116.0 
243.846558 96.0 
243.906708 136.0 
244.109375 200.0 
244.157455 156.0 
244.235199 48.0 
244.446747 188.0 
244.614822 124.0 
244.655289 176.0 
244.779816 160.0 
244.85144 156.0 
245.057037 96.0 
245.105118 132.0 
245.128693 220.0 
245.586975 160.0 
245.633759 148.0 
246.136215 192.0 
246.4142 124.0 
247.136429 140.0 
247.292892 164.0 
247.402435 32.0 
247.530807 136.0 
247.781372 72.0 
248.041473 128.0 
248.123489 124.0 
248.257797 140.0 
248.342484 68.0 
248.612289 140.0 
248.973297 108.0 
249.10701 176.0 
249.145035 160.0 
249.202606 204.0 
249.334579 160.0 
249.46344 48.0 
249.935196 88.0 
249.960373 224.0 
250.064209 176.0 
250.098831 140.0 
250.126465 172.0 
250.150513 164.0 
250.227905 72.0 
250.716125 200.0 
250.750793 104.0 
250.968307 148.0 
251.124405 144.0 
251.56456 164.0 
251.643494 144.0 
252.035141 88.0 
252.373337 128.0 
252.635834 156.0 
252.945938 136.0 
253.133423 1240.0 
253.351273 180.0 
253.38295 44.0 
253.493851 48.0 
253.909119 104.0 
254.095932 160.0 
254.143158 232.0 
254.315231 184.0 
254.391403 132.0 
254.772476 164.0 
254.873016 216.0 
254.890976 200.0 
255.080627 148.0 
255.088272 148.0 
255.097519 356.0 
255.148819 5444.0 
255.220596 124.0 
255.396912 108.0 
255.436859 108.0 
255.627747 156.0 
255.668701 252.0 
255.790054 96.0 
256.028839 44.0 
256.093842 308.0 
256.150116 1080.0 
256.207214 52.0 
256.255005 48.0 
256.305969 188.0 
256.423889 56.0 
256.506744 160.0 
256.765015 44.0 
256.898987 72.0 
257.104767 316.0 
257.159149 440.0 
257.205322 68.0 
257.34259 80.0 
257.754272 112.0 
257.939972 76.0 
258.002991 196.0 
258.116516 180.0 
258.160217 148.0 
258.202148 112.0 
258.6987 168.0 
259.124023 240.0 
259.175293 112.0 
259.329102 140.0 
259.492584 128.0 
259.755554 148.0 
259.848572 100.0 
260.082825 164.0 
260.111206 196.0 
260.426392 152.0 
260.773376 164.0 
260.811951 120.0 
261.432648 96.0 
261.503448 244.0 
261.577484 108.0 
261.632202 112.0 
261.709473 124.0 
262.012238 200.0 
262.050873 176.0 
262.136932 124.0 
262.337708 144.0 
262.411865 96.0 
264.13028 236.0 
264.155731 220.0 
264.395142 192.0 
264.709167 68.0 
264.770691 124.0 
265.119843 128.0 
265.172485 188.0 
265.211304 72.0 
265.276123 40.0 
265.366913 60.0 
265.743134 196.0 
265.791809 112.0 
266.100128 148.0 
266.145599 200.0 
266.210541 128.0 
266.385925 172.0 
266.506134 120.0 
266.753113 96.0 
266.811615 128.0 
266.941681 204.0 
267.104279 132.0 
267.322266 116.0 
267.478485 176.0 
267.611969 148.0 
268.113861 144.0 
268.273315 92.0 
268.341766 132.0 
268.413483 148.0 
268.58136 220.0 
268.938721 108.0 
269.113129 220.0 
269.359924 140.0 
269.549408 68.0 
269.670349 232.0 
269.879547 124.0 
270.119873 608.0 
270.200073 40.0 
270.491302 40.0 
270.959595 188.0 
271.119537 1084.0 
271.549622 136.0 
271.588989 168.0 
271.621796 208.0 
271.969574 168.0 
272.125977 280.0 
272.731598 248.0 
272.925568 116.0 
273.13208 196.0 
273.287354 188.0 
273.517731 96.0 
273.817322 136.0 
273.952393 92.0 
274.01828 40.0 
274.127258 180.0 
274.164825 260.0 
274.222565 196.0 
274.45993 88.0 
274.99762 76.0 
275.078064 108.0 
275.146912 160.0 
275.298065 136.0 
275.496216 172.0 
275.552399 136.0 
275.592041 72.0 
275.813446 176.0 
275.998566 108.0 
276.091156 240.0 
276.140411 152.0 
276.158051 176.0 
276.378937 196.0 
276.464996 96.0 
277.126373 124.0 
277.22995 132.0 
277.468597 124.0 
278.072296 124.0 
278.148651 112.0 
278.706573 72.0 
279.12384 204.0 
279.150787 300.0 
279.486267 92.0 
279.571106 100.0 
279.604401 220.0 
280.003906 124.0 
280.093842 140.0 
280.15683 144.0 
280.527008 108.0 
280.627014 212.0 
280.663696 116.0 
280.807098 148.0 
281.10788 544.0 
281.160736 268.0 
281.417755 140.0 
281.65802 164.0 
281.711639 64.0 
281.761749 100.0 
281.928833 68.0 
282.116791 384.0 
282.423615 128.0 
282.905457 76.0 
282.928894 184.0 
282.975769 100.0 
283.120148 1160.0 
283.280518 80.0 
283.991943 132.0 
284.126465 1560.0 
284.172272 120.0 
284.340057 112.0 
285.132111 1408.0 
285.431793 136.0 
285.579773 196.0 
286.017181 148.0 
286.066498 128.0 
286.138428 432.0 
286.377441 112.0 
286.53241 156.0 
286.866028 156.0 
286.92334 168.0 
287.154266 340.0 
287.415741 116.0 
287.506866 52.0 
287.807281 124.0 
287.989655 76.0 
288.060577 56.0 
288.087585 72.0 
288.141327 216.0 
288.382996 124.0 
288.963196 144.0 
289.144073 264.0 
289.32193 100.0 
289.738464 128.0 
289.799438 100.0 
290.087524 72.0 
290.195984 88.0 
290.223114 108.0 
290.769257 140.0 
290.867676 132.0 
290.962738 88.0 
291.054413 132.0 
291.164764 176.0 
291.431427 188.0 
291.57074 156.0 
291.618317 108.0 
291.710114 112.0 
292.084137 204.0 
292.170624 236.0 
292.482239 244.0 
292.710327 176.0 
292.859863 220.0 
293.061157 188.0 
293.106354 908.0 
293.473572 124.0 
293.82486 160.0 
293.893829 184.0 
294.113007 1116.0 
294.592957 128.0 
295.057739 180.0 
295.122437 1812.0 
295.176392 300.0 
295.363129 136.0 
295.594727 48.0 
295.729095 164.0 
295.803497 48.0 
295.86853 56.0 
296.012329 172.0 
296.12558 1128.0 
296.450775 116.0 
296.628998 136.0 
296.697571 144.0 
296.810699 68.0 
297.134766 3536.0 
297.299591 160.0 
297.660095 112.0 
297.740662 60.0 
297.854004 60.0 
298.134766 2072.0 
298.190704 132.0 
298.266327 32.0 
298.328186 44.0 
298.352264 108.0 
298.623566 192.0 
298.66861 48.0 
298.778687 104.0 
299.047089 204.0 
299.146667 892.0 
299.212311 112.0 
299.253632 136.0 
299.27774 60.0 
299.532593 52.0 
299.588959 108.0 
299.873688 176.0 
299.997772 92.0 
300.021912 56.0 
300.101196 140.0 
300.147156 868.0 
300.218445 148.0 
300.332245 60.0 
300.532318 92.0 
300.822235 100.0 
301.154358 388.0 
301.685822 220.0 
302.010864 204.0 
302.107727 112.0 
302.294556 132.0 
302.360291 140.0 
302.512604 36.0 
302.543762 160.0 
302.720001 44.0 
302.952393 132.0 
303.049377 52.0 
303.170654 208.0 
303.205322 104.0 
303.281555 140.0 
303.32663 128.0 
303.590118 116.0 
303.672058 96.0 
303.846802 136.0 
304.000916 180.0 
305.131775 240.0 
305.156128 172.0 
305.476044 132.0 
305.500397 208.0 
305.542145 80.0 
305.573456 164.0 
306.053772 100.0 
306.125244 160.0 
306.179138 176.0 
307.053864 116.0 
307.119781 1124.0 
307.182922 168.0 
307.214325 104.0 
307.2771 108.0 
307.325958 160.0 
307.70639 136.0 
307.982269 144.0 
308.010193 136.0 
308.128998 1048.0 
308.419006 184.0 
308.600616 80.0 
308.639252 116.0 
308.726654 148.0 
309.136841 4684.0 
309.22345 216.0 
309.27243 52.0 
309.601532 80.0 
309.720612 108.0 
309.78717 184.0 
309.871246 56.0 
309.990387 32.0 
310.049683 156.0 
310.138794 2040.0 
310.330383 120.0 
310.490662 96.0 
310.561829 52.0 
310.751251 44.0 
310.855377 148.0 
310.923187 56.0 
310.949036 228.0 
311.14798 2160.0 
311.20752 52.0 
311.267212 92.0 
311.7836 60.0 
311.881989 68.0 
311.958252 232.0 
312.097778 360.0 
312.105133 136.0 
312.148163 2000.0 
312.293365 120.0 
312.472778 44.0 
312.585358 52.0 
312.638153 60.0 
312.845795 200.0 
313.001221 136.0 
313.149841 828.0 
313.345886 140.0 
313.860474 132.0 
314.054413 100.0 
314.163269 1112.0 
314.256592 156.0 
314.336639 144.0 
314.654297 184.0 
314.830841 36.0 
314.86264 140.0 
314.908539 128.0 
314.947388 116.0 
315.032166 56.0 
315.127563 188.0 
315.16098 664.0 
315.664825 104.0 
315.806274 112.0 
315.958374 156.0 
316.174835 140.0 
316.287476 140.0 
316.482178 144.0 
316.638 92.0 
316.694672 144.0 
316.830261 72.0 
317.240326 64.0 
317.839722 144.0 
318.350861 84.0 
318.766479 108.0 
319.121918 172.0 
319.246368 88.0 
319.715942 256.0 
320.399567 112.0 
320.691772 132.0 
321.131409 500.0 
321.212341 152.0 
322.145844 728.0 
322.422699 164.0 
323.103333 360.0 
323.154053 2980.0 
323.25592 40.0 
323.452759 60.0 
323.502869 48.0 
323.6604 36.0 
324.04007 60.0 
324.156799 1960.0 
324.27298 96.0 
324.710358 116.0 
325.01886 68.0 
325.047577 44.0 
325.160156 784.0 
325.262909 140.0 
325.66864 176.0 
325.812317 76.0 
325.884186 96.0 
326.058807 176.0 
326.163208 8320.0 
326.286713 184.0 
326.358612 80.0 
326.480865 56.0 
326.520416 36.0 
326.60675 52.0 
326.646301 48.0 
326.714661 64.0 
326.761414 60.0 
326.970123 152.0 
327.009705 212.0 
327.052917 168.0 
327.166138 3168.0 
327.254486 116.0 
327.414001 116.0 
327.446716 116.0 
327.500458 80.0 
327.56781 52.0 
327.877655 88.0 
328.072296 40.0 
328.17691 952.0 
328.42569 132.0 
328.569977 144.0 
328.952484 36.0 
328.977753 112.0 
329.122162 64.0 
329.165039 460.0 
329.171021 200.0 
329.223267 40.0 
329.421783 108.0 
329.484619 56.0 
329.562805 104.0 
329.956543 128.0 
330.18335 232.0 
330.369019 80.0 
330.409119 96.0 
330.459473 64.0 
330.553558 92.0 
330.596985 52.0 
331.125519 136.0 
331.534882 104.0 
331.846619 52.0 
331.948151 192.0 
332.169373 140.0 
332.212921 112.0 
332.877075 180.0 
333.14389 156.0 
333.854614 124.0 
334.152863 152.0 
334.305695 60.0 
334.5896 160.0 
335.1586 420.0 
335.544891 128.0 
336.155762 232.0 
336.452484 120.0 
336.894379 128.0 
337.055115 112.0 
337.098969 172.0 
337.126007 324.0 
337.164398 676.0 
337.223206 168.0 
337.362122 144.0 
337.462952 144.0 
337.490082 100.0 
338.169159 856.0 
338.254669 192.0 
338.800293 80.0 
339.071442 68.0 
339.175812 976.0 
339.227173 212.0 
339.262024 104.0 
339.650726 80.0 
339.878174 132.0 
340.0159 112.0 
340.061676 52.0 
340.102051 112.0 
340.180359 3984.0 
340.242493 136.0 
340.480194 96.0 
340.520599 188.0 
340.575684 116.0 
340.737305 184.0 
340.921051 32.0 
340.983521 68.0 
341.170624 1944.0 
341.17627 1012.0 
341.248169 64.0 
341.293945 152.0 
341.774139 44.0 
341.991241 40.0 
342.181122 1344.0 
342.363098 40.0 
342.444122 136.0 
342.477264 172.0 
342.510406 112.0 
342.595123 112.0 
342.875153 32.0 
342.932281 104.0 
342.982056 68.0 
343.037323 108.0 
343.070526 112.0 
343.140564 124.0 
343.190918 10484.0 
343.254852 40.0 
343.299103 36.0 
343.376556 44.0 
343.402374 56.0 
343.501953 48.0 
343.590485 116.0 
343.653198 40.0 
343.954834 152.0 
344.048096 60.0 
344.073944 48.0 
344.114563 160.0 
344.193787 3704.0 
344.290283 52.0 
344.506012 44.0 
344.812683 60.0 
344.997498 60.0 
345.135529 160.0 
345.201141 336.0 
345.245239 52.0 
345.420166 108.0 
345.711334 56.0 
346.096313 60.0 
346.192596 208.0 
346.266663 44.0 
346.437042 84.0 
346.792755 116.0 
347.148376 104.0 
347.204285 52.0 
347.259918 60.0 
347.82016 136.0 
347.931519 36.0 
348.161285 280.0 
348.456177 88.0 
348.730164 52.0 
348.964355 120.0 
349.116791 116.0 
349.162628 304.0 
349.232086 108.0 
349.749268 116.0 
349.886993 96.0 
350.162262 264.0 
350.218414 40.0 
351.05069 112.0 
351.149109 276.0 
351.195862 140.0 
351.889008 68.0 
352.079437 164.0 
352.150391 956.0 
352.207031 364.0 
352.942657 196.0 
353.159515 404.0 
353.195312 500.0 
353.28299 188.0 
353.91922 56.0 
353.975372 56.0 
354.016571 108.0 
354.170929 588.0 
354.208374 332.0 
354.91214 156.0 
355.077118 64.0 
355.184814 440.0 
355.358459 128.0 
355.557343 144.0 
356.143005 184.0 
356.197052 824.0 
356.237823 176.0 
356.263214 140.0 
356.297028 128.0 
357.014923 188.0 
357.056305 56.0 
357.203247 2040.0 
357.281982 44.0 
357.349701 112.0 
357.586761 88.0 
357.684631 108.0 
357.838989 64.0 
357.993347 92.0 
358.201324 372.0 
358.42276 92.0 
358.890167 224.0 
359.018372 92.0 
359.157898 68.0 
359.201538 184.0 
359.535187 84.0 
359.61795 56.0 
360.133362 136.0 
360.547272 132.0 
360.781616 144.0 
361.182465 68.0 
361.488892 100.0 
361.678131 32.0 
362.162781 100.0 
362.590881 160.0 
363.186035 284.0 
364.183807 336.0 
364.735291 168.0 
364.799927 76.0 
365.164246 660.0 
365.53775 172.0 
366.119781 156.0 
366.170624 644.0 
366.516327 144.0 
366.588745 120.0 
366.924164 96.0 
367.126251 44.0 
367.180389 2836.0 
367.37796 32.0 
367.664124 32.0 
367.733459 100.0 
368.049683 72.0 
368.182281 1152.0 
368.305542 196.0 
368.737274 108.0 
369.108093 164.0 
369.183685 448.0 
369.208954 232.0 
369.34903 64.0 
369.616821 64.0 
370.189484 152.0 
370.363342 36.0 
370.635315 124.0 
371.160431 116.0 
371.198792 176.0 
371.234894 120.0 
371.739655 40.0 
371.96225 120.0 
372.160248 120.0 
372.200287 44.0 
372.494659 120.0 
373.11084 144.0 
373.168518 144.0 
373.203125 108.0 
373.426147 96.0 
374.06488 120.0 
374.434479 56.0 
374.523071 156.0 
375.039368 120.0 
375.173859 324.0 
375.458862 144.0 
375.864655 64.0 
376.157959 136.0 
376.196564 212.0 
376.323975 152.0 
376.7565 84.0 
377.189301 108.0 
377.436737 192.0 
377.463806 116.0 
377.939545 84.0 
378.168274 160.0 
378.197113 144.0 
378.760284 72.0 
379.116699 172.0 
379.175751 444.0 
379.189117 276.0 
379.198608 300.0 
380.171051 264.0 
380.2117 208.0 
380.718872 172.0 
380.994629 176.0 
381.068451 136.0 
381.196625 3392.0 
381.244812 232.0 
381.820282 152.0 
382.195282 1608.0 
382.297424 56.0 
382.332184 40.0 
382.546234 76.0 
382.620209 156.0 
382.853821 68.0 
383.195343 584.0 
383.512238 124.0 
383.781219 64.0 
384.077606 144.0 
384.16864 120.0 
384.221954 100.0 
384.385803 260.0 
384.838593 104.0 
385.221863 192.0 
385.635498 136.0 
386.076752 152.0 
386.15155 112.0 
386.221954 200.0 
386.973328 136.0 
388.380127 80.0 
388.635132 116.0 
389.043274 140.0 
389.08255 264.0 
389.153198 132.0 
390.182556 164.0 
390.473511 120.0 
390.945618 60.0 
391.681824 208.0 
391.74881 88.0 
392.182251 124.0 
392.68689 92.0 
393.026154 184.0 
393.140594 112.0 
393.198456 168.0 
394.181549 192.0 
394.222595 36.0 
395.209564 276.0 
395.357544 200.0 
395.557312 264.0 
396.216583 248.0 
396.221527 248.0 
397.205231 732.0 
397.237823 488.0 
397.56485 116.0 
397.672028 128.0 
397.83078 100.0 
398.001495 196.0 
398.229034 296.0 
398.307312 56.0 
398.605255 132.0 
398.748322 196.0 
398.82782 152.0 
399.224152 416.0 
399.277069 104.0 
399.678833 68.0 
400.238129 188.0 
400.745911 120.0 
400.82959 96.0 
401.591003 124.0 
402.165558 136.0 
404.063629 136.0 
404.183685 164.0 
404.32373 92.0 
404.567871 128.0 
405.016357 40.0 
405.196503 124.0 
406.197205 164.0 
406.844879 128.0 
407.198242 188.0 
407.382996 156.0 
407.664246 116.0 
408.206909 232.0 
408.255188 156.0 
408.444214 164.0 
408.983368 92.0 
409.182678 136.0 
409.215424 224.0 
410.183838 112.0 
410.23645 204.0 
410.836945 156.0 
411.179932 184.0 
411.688568 160.0 
412.205627 92.0 
412.710907 88.0 
413.847839 112.0 
414.167755 132.0 
414.200165 164.0 
414.232574 136.0 
414.816071 112.0 
415.383759 48.0 
416.215729 112.0 
417.186737 136.0 
417.213715 120.0 
417.540466 180.0 
417.666565 144.0 
418.199554 160.0 
419.168793 112.0 
419.837341 140.0 
420.16153 108.0 
420.205902 492.0 
420.318695 76.0 
421.03714 164.0 
421.191528 144.0 
421.219482 280.0 
421.290375 108.0 
421.378571 68.0 
421.478302 124.0 
421.506897 180.0 
421.813416 72.0 
422.209778 116.0 
422.235748 288.0 
422.402252 52.0 
423.221619 112.0 
423.736786 64.0 
424.195526 132.0 
424.236755 152.0 
424.843689 240.0 
425.246033 136.0 
425.471558 56.0 
425.570099 88.0 
426.120453 124.0 
426.223175 168.0 
426.403961 56.0 
426.773926 120.0 
426.8685 40.0 
426.909637 160.0 
427.041229 128.0 
427.58017 176.0 
428.321289 128.0 
428.99295 108.0 
429.248566 88.0 
430.436951 92.0 
430.643433 56.0 
431.643524 52.0 
431.746887 96.0 
432.003326 148.0 
432.210205 108.0 
433.231415 180.0 
433.526978 76.0 
433.730072 184.0 
433.904175 84.0 
433.995392 160.0 
434.024414 44.0 
434.082458 220.0 
434.215302 1824.0 
434.295837 148.0 
434.526245 48.0 
434.771057 156.0 
434.858215 156.0 
434.997833 144.0 
435.040863 120.0 
435.220062 668.0 
435.275574 88.0 
435.389618 52.0 
435.53598 100.0 
435.630524 96.0 
435.724854 68.0 
435.77594 64.0 
435.806702 128.0 
435.850708 100.0 
435.967072 60.0 
435.996155 156.0 
436.033569 224.0 
436.133789 340.0 
436.18985 120.0 
436.235687 164.0 
436.282593 136.0 
436.353638 120.0 
436.430389 112.0 
436.545959 144.0 
436.588257 204.0 
436.726318 204.0 
436.783356 224.0 
436.826508 96.0 
436.883667 160.0 
436.91507 176.0 
436.973297 168.0 
437.01535 396.0 
437.093201 132.0 
437.101837 72.0 
437.124786 376.0 
437.157898 128.0 
437.232452 46776.0 
437.339142 200.0 
437.382538 204.0 
437.418732 84.0 
437.450836 124.0 
437.482178 44.0 
437.553772 228.0 
437.618408 72.0 
437.688995 80.0 
437.748444 104.0 
437.814117 52.0 
437.84964 220.0 
437.888245 128.0 
437.916382 188.0 
437.966492 48.0 
438.0625 88.0 
438.115662 120.0 
438.23526 13560.0 
438.340546 108.0 
438.397339 60.0 
438.430664 48.0 
438.465485 68.0 
438.543182 56.0 
438.602203 92.0 
438.651581 56.0 
438.688385 48.0 
438.723114 128.0 
438.826965 52.0 
438.855835 128.0 
438.897522 88.0 
438.980927 116.0 
439.022644 136.0 
439.068512 80.0 
439.176147 84.0 
439.237091 2572.0 
439.31073 168.0 
439.364655 100.0 
439.410553 96.0 
439.468964 76.0 
439.577454 100.0 
439.61499 76.0 
439.731842 132.0 
439.806976 56.0 
439.907166 92.0 
439.978119 104.0 
440.052216 48.0 
440.239044 268.0 
440.312164 56.0 
440.355865 132.0 
440.404053 92.0 
440.524445 116.0 
440.588654 124.0 
440.633789 32.0 
440.74765 160.0 
440.795471 92.0 
440.863586 84.0 
440.907623 112.0 
440.976654 92.0 
441.02066 104.0 
441.17041 128.0 
441.205261 140.0 
441.337463 132.0 
441.373566 68.0 
441.404175 88.0 
441.457214 48.0 
441.515747 44.0 
441.670502 40.0 
441.775665 56.0 
441.946594 92.0 
441.980072 160.0 
442.017731 80.0 
442.113983 60.0 
442.22699 60.0 
442.268829 96.0 
442.406952 128.0 
442.465576 48.0 
442.620483 76.0 
442.775421 52.0 
442.942963 52.0 
443.001617 40.0 
443.289307 60.0 
443.403839 56.0 
443.621796 44.0 
443.877533 112.0 
444.328094 104.0 
444.611633 40.0 
444.678802 60.0 
445.6026 80.0 
445.955597 44.0 
446.16156 272.0 
446.228821 180.0 
446.472687 72.0 
446.851257 128.0 
447.040619 68.0 
447.086884 104.0 
447.179474 88.0 
447.242615 124.0 
447.415192 124.0 
448.143799 120.0 
448.221985 160.0 
448.257568 204.0 
449.231476 124.0 
449.268555 76.0 
450.254333 516.0 
450.375397 296.0 
450.738708 80.0 
450.886597 28.0 
451.023865 76.0 
451.072571 108.0 
451.178253 144.0 
451.246979 3020.0 
451.38266 136.0 
451.423492 40.0 
451.558807 132.0 
451.939514 72.0 
452.036835 104.0 
452.249847 1040.0 
452.366974 72.0 
452.426239 72.0 
452.625214 108.0 
452.951324 64.0 
453.249603 372.0 
453.718323 32.0 
454.248413 228.0 
454.27533 148.0 
454.392639 96.0 
454.54538 80.0 
454.838196 140.0 
454.955017 108.0 
454.999512 76.0 
455.211823 88.0 
455.252167 128.0 
455.424164 104.0 
455.832001 40.0 
456.524872 80.0 
456.890656 36.0 
457.205536 140.0 
457.861145 160.0 
458.226074 196.0 
459.800903 88.0 
460.172272 84.0 
460.543762 72.0 
461.231689 136.0 
461.317169 60.0 
462.057007 88.0 
462.253632 216.0 
462.442108 56.0 
463.270447 160.0 
463.722717 68.0 
464.258728 336.0 
464.51593 76.0 
465.228271 104.0 
465.272491 268.0 
468.05722 76.0 
471.02002 72.0 
471.309479 40.0 
472.78833 124.0 
473.281799 96.0 
473.424713 48.0 
473.472351 32.0 
474.251282 176.0 
475.256409 180.0 
476.208954 140.0 
476.253113 164.0 
476.860657 92.0 
478.052246 96.0 
478.213257 112.0 
480.125854 80.0 
480.272797 260.0 
481.26004 156.0 
481.273712 144.0 
481.334595 108.0 
483.284027 96.0 
483.524689 48.0 
489.129547 80.0 
490.913086 116.0 
491.274719 776.0 
491.75647 56.0 
492.264404 1048.0 
492.333344 80.0 
492.436401 64.0 
492.626312 40.0 
492.679962 56.0 
492.807465 92.0 
493.263977 520.0 
493.549988 36.0 
493.713623 84.0 
494.267853 480.0 
494.302948 160.0 
495.253754 140.0 
495.382233 64.0 
496.459229 80.0 
497.612885 60.0 
498.17691 72.0 
499.399261 84.0 
500.605316 108.0 
503.289642 84.0 
505.341156 128.0 
506.218445 156.0 
506.308014 116.0 
506.357269 88.0 
508.913269 84.0 
509.164734 116.0 
509.235901 160.0 
509.28363 1944.0 
509.370514 180.0 
509.411743 208.0 
509.946442 92.0 
510.112762 56.0 
510.162201 128.0 
510.294983 968.0 
510.562378 40.0 
510.736969 92.0 
511.307831 148.0 
511.367676 204.0 
511.457672 168.0 
511.651245 56.0 
512.286194 148.0 
513.408508 48.0 
514.595215 52.0 
518.254211 84.0 
520.22699 76.0 
522.007996 68.0 
527.035645 80.0 
529.437195 40.0 
530.266357 52.0 
533.497742 76.0 
534.302551 96.0 
535.734253 140.0 
535.91394 40.0 
538.718872 72.0 
538.94989 56.0 
550.983276 52.0 
552.161194 84.0 
553.195251 104.0 
556.063782 52.0 
560.182678 36.0 
563.272339 128.0 
573.297424 148.0 
577.096924 84.0 
579.959656 60.0 
580.237671 48.0 
582.834167 56.0 
585.783325 48.0 
587.687561 32.0 
589.459595 68.0 
596.574524 40.0 
598.676392 68.0 
601.704285 60.0 
601.977722 124.0 
605.46936 104.0 
606.086548 36.0 
608.268921 72.0 
608.475098 48.0 
609.703064 68.0 
619.155396 108.0 
619.690369 160.0 
621.430603 104.0 
622.865295 112.0 
624.963196 40.0 
625.455872 104.0 
626.391968 56.0 
628.660461 92.0 
629.264404 100.0 
631.163025 72.0 
638.1474 144.0 
638.388733 56.0 
643.548462 48.0 
647.720581 232.0 
660.328064 172.0 
660.793579 44.0 
662.559814 68.0 
663.287476 68.0 
675.522217 104.0 
679.355591 104.0 
684.042725 72.0 
686.178589 44.0 
694.571777 52.0 
696.046448 140.0 
697.890747 92.0 
711.447449 36.0 
714.370178 108.0 
718.786865 64.0 
731.720093 136.0 
733.93988 56.0 
734.171692 20.0 
734.295776 40.0 
735.849792 60.0 
745.170654 80.0 
755.81897 64.0 
764.241333 96.0 
767.524048 56.0 
772.926086 128.0 
778.197144 124.0 
781.693298 112.0 
792.665833 116.0 
799.319824 96.0 
802.699524 56.0 
804.036499 80.0 
815.692688 104.0 
817.60376 156.0 
820.588501 76.0 
821.997314 52.0 
824.241333 116.0 
832.593323 204.0 
836.762085 56.0 
845.472229 116.0 
846.971802 156.0 
866.844238 60.0 
867.330627 64.0 
875.273376 80.0 
893.586182 100.0 
894.830078 44.0 
913.688171 84.0 
922.982361 44.0 
929.117676 44.0 
936.996643 256.0 
937.861938 52.0 
944.46228 48.0 
947.069702 100.0 
953.560913 240.0 
954.390808 68.0 
963.444397 132.0 
965.380127 108.0 
965.49646 64.0 
966.319153 52.0 
972.981445 32.0 
979.149658 136.0 
980.719727 180.0 
982.365845 52.0 
986.962402 64.0 
987.262573 64.0 
993.463257 224.0 
1002.435181 92.0 
1009.049927 60.0 
1012.365479 76.0 
1013.290283 168.0 
1014.716248 136.0 
1021.54303 76.0 
1022.860229 56.0 
1023.159424 132.0 
1024.783447 176.0 
1032.705444 92.0 
1037.052734 100.0 
1038.957275 40.0 
1045.549561 52.0 
1046.946533 200.0 
1047.539185 136.0 
1049.175903 184.0 
1054.242676 232.0 
1066.264038 132.0 
1068.533447 56.0 
1082.101929 112.0 
1084.315918 136.0 
1086.033691 176.0 
1100.095215 40.0 
1109.75415 136.0 
1110.29126 160.0 
1120.101318 172.0 
1125.1427 180.0 
1125.86377 168.0 
1128.904297 140.0 
1130.556641 92.0 
1135.051514 100.0 
1139.951538 164.0 
1166.621948 44.0 
1169.696533 176.0 
1170.826782 136.0 
1185.24707 216.0 
1189.656982 140.0 
1191.277588 140.0 
1200.196899 52.0 
1201.4729 108.0 
1202.425049 140.0 
1208.111694 116.0 
1212.681641 260.0 
1213.090576 104.0 
1219.40686 104.0 
1221.673584 68.0 
1224.318481 64.0 
1237.424805 212.0 
1239.567993 140.0 
1240.044556 172.0 
1241.117065 196.0 
1244.948364 92.0 
1249.587524 136.0 
1249.904053 204.0 
1250.333374 196.0 
1251.670898 164.0 
1253.727783 168.0 
1253.882812 144.0 
1255.144653 180.0 
1256.844482 156.0 
1257.479614 204.0 
1268.350586 172.0 
1268.485352 184.0 
1272.713501 120.0 
1274.68103 160.0 
1291.605957 72.0 
1301.466919 184.0 
1304.491455 252.0 
1304.987549 160.0 
1312.670166 52.0 
1315.830444 184.0 
1317.094238 120.0 
1317.484253 224.0 
1318.52478 172.0 
1321.561768 180.0 
1321.995972 192.0 
1327.175049 188.0 
1332.640381 216.0 
1337.134277 148.0 
1340.972412 72.0 
1345.786865 88.0 
1347.897705 192.0 
1348.116943 148.0 
1349.432617 180.0 
1353.317627 144.0 
1362.220703 164.0 
1362.573364 216.0 
1364.807617 216.0 
1365.197388 56.0 
1366.469849 108.0 
1370.128784 60.0 
1371.20459 32.0 
1374.619019 88.0 
1374.980591 140.0 
1389.943481 132.0 
1390.277344 56.0 
1396.08667 216.0 
1396.198242 204.0 
1397.604126 84.0 
1402.392456 136.0 
1402.891846 208.0 
1403.100586 212.0 
1403.458496 164.0 
1406.621582 160.0 
1408.025269 196.0 
1408.137329 148.0 
1411.687012 192.0 
1415.054077 144.0 
1418.207764 180.0 
1422.498291 112.0 
1430.692017 100.0 
1430.932983 152.0 
1431.362183 216.0 
1434.255005 180.0 
1434.337891 184.0 
1434.669678 128.0 
1435.898682 80.0 
1436.041992 200.0 
1436.592529 164.0 
1437.060303 96.0 
1439.143433 176.0 
1441.923218 180.0 
1443.13269 184.0 
1447.301636 176.0 
1453.410889 220.0 
1455.315918 220.0 
1462.187744 40.0 
1462.317139 100.0 
1466.376465 128.0 
1469.708862 160.0 
1473.824341 140.0 
1474.045898 168.0 
1474.366943 224.0 
1479.009277 148.0 
1479.124146 196.0 
1479.561279 180.0 
1479.881958 164.0 
1480.655396 116.0 
1485.315308 48.0 
1485.46106 236.0 
1486.865112 168.0 
1487.248901 204.0 
1487.609619 208.0 
1502.60791 120.0 
1504.059204 212.0 
END IONS

