BEGIN IONS
PEPMASS=405.266
CHARGE=1+
COMPOUNDNAME=MLS000069585-01!
LIBRARYQUALITY=1
SMILES=CC[C@H](C)C(=O)O[C@H]1C[C@@H](C)C=C2C=C[C@H](C)[C@H](CC[C@@H]3C[C@@H](O)CC(=O)O3)[C@@H]12
INCHIKEY=PCZOHLXUXFIOCF-BXMDZJJMSA-N
INCHI=N/A
MSLEVEL=2
SOURCE_INSTRUMENT=LC-ESI-qTof
FILENAME=p3-C09_GC9_01_18254.mzXML
SEQ=*..*
IONMODE=Positive
ORGANISM=GNPS-NIH-SMALLMOLECULEPHARMACOLOGICALLYACTIVE
NAME=MLS000069585-01! M+H
PI=Dorrestein
DATACOLLECTOR=VP/LMS
PUBMED=N/A
SUBMITUSER=vphelan
TAGS=
SPECTRUMID=CCMSLIB00000084933
SCANS=2568
45.197392 196.0 
46.956413 132.0 
47.013714 184.0 
47.18993 64.0 
47.199501 120.0 
47.437737 168.0 
49.968353 120.0 
50.721081 204.0 
50.776379 32.0 
51.177124 196.0 
51.3353 152.0 
51.433746 116.0 
51.834206 188.0 
51.954647 160.0 
53.2132 180.0 
54.64854 180.0 
56.416492 160.0 
56.861378 164.0 
56.977001 176.0 
58.702602 148.0 
59.199265 172.0 
59.811874 156.0 
59.827267 148.0 
59.847282 184.0 
60.152546 84.0 
60.825924 104.0 
62.210609 72.0 
62.339405 128.0 
64.419853 176.0 
65.618713 208.0 
67.201752 156.0 
68.483742 156.0 
70.998505 176.0 
71.075668 172.0 
72.70755 232.0 
73.229507 124.0 
73.789238 160.0 
73.861061 184.0 
75.336006 128.0 
75.482925 188.0 
76.645958 152.0 
79.181015 160.0 
80.149193 200.0 
80.988869 48.0 
81.085617 152.0 
81.360069 212.0 
81.381615 212.0 
81.464226 188.0 
84.373024 172.0 
85.346603 100.0 
85.991379 184.0 
86.616348 136.0 
87.126495 108.0 
88.870338 172.0 
89.193359 132.0 
89.648827 156.0 
90.082794 116.0 
90.997528 96.0 
91.056389 552.0 
91.109581 188.0 
92.052414 56.0 
93.073044 168.0 
93.186371 120.0 
93.700073 120.0 
94.32341 160.0 
94.472305 160.0 
94.778214 140.0 
95.788483 152.0 
95.905396 208.0 
96.414803 152.0 
97.461243 156.0 
97.945213 148.0 
98.863304 192.0 
98.966232 56.0 
100.458817 212.0 
100.478767 216.0 
101.280396 136.0 
101.858093 184.0 
101.956543 148.0 
102.014832 208.0 
102.049011 128.0 
102.618813 188.0 
103.052757 160.0 
103.216484 164.0 
103.826027 172.0 
104.227974 228.0 
105.034187 176.0 
105.070679 904.0 
105.156609 140.0 
105.324043 200.0 
105.790276 116.0 
106.089371 164.0 
106.444321 184.0 
106.666214 136.0 
107.044777 252.0 
107.083908 164.0 
109.099823 168.0 
111.408676 116.0 
111.442291 164.0 
111.987144 160.0 
112.529106 184.0 
113.922424 184.0 
114.292595 172.0 
114.805969 116.0 
115.059891 152.0 
116.063362 412.0 
117.073456 160.0 
117.189659 68.0 
118.128792 176.0 
118.947906 28.0 
119.062981 164.0 
119.086243 728.0 
119.739365 112.0 
121.06501 140.0 
121.097923 152.0 
121.845894 168.0 
122.103073 156.0 
124.818771 56.0 
127.063538 168.0 
127.079239 204.0 
127.222878 100.0 
127.699257 180.0 
128.062805 428.0 
128.079636 224.0 
129.067307 512.0 
129.287567 200.0 
129.958313 148.0 
130.076324 140.0 
131.084488 1280.0 
131.234314 164.0 
132.089798 236.0 
132.446732 92.0 
132.855865 196.0 
133.06456 184.0 
133.100876 284.0 
133.340363 180.0 
133.593292 28.0 
133.876404 156.0 
133.908646 52.0 
134.07222 48.0 
134.240509 32.0 
134.852295 84.0 
135.076584 108.0 
135.115921 196.0 
137.061615 180.0 
137.58873 172.0 
138.456238 40.0 
139.822617 112.0 
140.062775 108.0 
140.952209 168.0 
141.065659 356.0 
142.053146 180.0 
142.078232 220.0 
142.098221 148.0 
142.834671 128.0 
143.084702 1688.0 
143.357773 168.0 
143.601639 32.0 
143.871277 144.0 
144.091232 376.0 
144.581192 56.0 
144.863724 208.0 
145.100113 1412.0 
145.326431 180.0 
145.660126 112.0 
145.845154 136.0 
146.102402 336.0 
147.079437 176.0 
147.120163 144.0 
149.020645 132.0 
149.185898 212.0 
149.258835 176.0 
151.078339 164.0 
153.063934 168.0 
154.082153 132.0 
155.005508 120.0 
155.085602 900.0 
155.715027 108.0 
155.943604 184.0 
156.062927 180.0 
156.08844 292.0 
156.244492 92.0 
156.411224 72.0 
157.101837 1556.0 
157.448441 124.0 
157.883286 148.0 
158.106186 544.0 
158.176025 40.0 
158.233597 52.0 
159.085983 140.0 
159.114334 1044.0 
159.231628 52.0 
159.249207 56.0 
159.442657 180.0 
159.548233 32.0 
160.124924 216.0 
161.125885 120.0 
161.211807 204.0 
162.358612 252.0 
165.06308 220.0 
165.094559 144.0 
166.06955 144.0 
166.279938 84.0 
168.092224 468.0 
169.072052 256.0 
169.100174 1076.0 
170.105835 316.0 
171.069687 104.0 
171.114746 968.0 
171.598557 60.0 
171.976807 64.0 
172.123978 312.0 
172.402512 152.0 
172.554123 124.0 
172.692719 40.0 
173.131332 2520.0 
173.221466 44.0 
173.242416 180.0 
173.942581 72.0 
174.134995 416.0 
174.578415 200.0 
175.110031 100.0 
175.144272 124.0 
176.400314 88.0 
176.720306 40.0 
177.085632 148.0 
177.361191 68.0 
177.40625 84.0 
178.960464 188.0 
179.085632 144.0 
179.109604 136.0 
179.778809 64.0 
180.087845 176.0 
180.636475 124.0 
180.949585 160.0 
181.062042 168.0 
181.103546 276.0 
182.108536 328.0 
182.365967 48.0 
182.476196 64.0 
183.073547 200.0 
183.113754 1060.0 
183.295319 160.0 
184.057816 144.0 
184.121887 396.0 
184.171234 36.0 
184.868774 164.0 
185.090363 172.0 
185.128448 352.0 
185.442917 140.0 
186.12384 140.0 
186.143768 188.0 
186.637405 148.0 
187.075775 156.0 
189.122696 140.0 
191.101318 120.0 
191.409592 124.0 
192.093262 136.0 
193.100311 408.0 
193.588364 240.0 
194.06221 88.0 
194.109344 252.0 
195.113647 244.0 
195.239578 84.0 
195.336929 88.0 
196.11348 176.0 
196.122955 156.0 
196.128555 220.0 
196.342422 60.0 
196.398209 52.0 
197.13179 520.0 
198.134415 180.0 
198.170593 152.0 
198.243439 36.0 
198.520966 60.0 
198.885696 96.0 
199.146744 2632.0 
199.26976 84.0 
199.301331 52.0 
199.363159 80.0 
199.391251 108.0 
200.052261 180.0 
200.144943 276.0 
200.41275 88.0 
200.440933 96.0 
200.466293 104.0 
200.728455 132.0 
200.782043 52.0 
201.044403 124.0 
201.163147 568.0 
201.216583 88.0 
201.332352 84.0 
202.064468 108.0 
202.162064 208.0 
203.06575 144.0 
203.149506 152.0 
203.217606 80.0 
204.108322 352.0 
205.07457 172.0 
206.106522 208.0 
207.116043 336.0 
208.114746 160.0 
208.348175 196.0 
210.128708 168.0 
211.106827 152.0 
211.143265 292.0 
212.114151 32.0 
213.151337 108.0 
213.382782 132.0 
213.519455 136.0 
213.557266 112.0 
215.110352 204.0 
215.179398 288.0 
216.007446 84.0 
216.174225 132.0 
216.982651 160.0 
217.132187 140.0 
219.013245 176.0 
221.125931 152.0 
222.802673 120.0 
223.10878 144.0 
223.147034 440.0 
224.102829 136.0 
224.155762 644.0 
225.081177 128.0 
225.163513 1452.0 
225.421707 48.0 
225.645889 48.0 
226.16597 316.0 
227.176239 144.0 
227.938843 68.0 
228.185318 160.0 
228.765945 64.0 
229.118057 464.0 
230.119507 156.0 
230.460892 84.0 
233.133545 200.0 
233.379776 140.0 
239.140259 124.0 
239.179153 352.0 
240.182236 140.0 
241.175964 168.0 
242.882065 88.0 
243.133377 180.0 
243.172501 636.0 
244.174149 168.0 
249.163651 304.0 
250.166336 164.0 
250.695419 32.0 
251.165665 80.0 
252.1819 88.0 
258.190918 164.0 
266.33252 80.0 
267.128906 140.0 
267.170349 736.0 
279.024536 116.0 
283.644775 160.0 
285.189331 264.0 
286.190399 168.0 
287.013458 72.0 
298.970795 148.0 
303.205475 180.0 
309.121643 108.0 
322.119049 116.0 
325.173309 88.0 
327.625641 96.0 
327.996796 148.0 
349.113861 204.0 
361.160889 64.0 
375.133423 136.0 
384.567139 92.0 
396.238708 144.0 
404.230072 132.0 
407.172607 160.0 
408.181274 100.0 
409.275757 152.0 
429.363068 52.0 
444.925903 60.0 
544.088379 76.0 
562.231689 84.0 
591.49939 100.0 
711.773621 64.0 
716.11853 124.0 
924.080566 148.0 
934.120911 176.0 
1018.422363 180.0 
1039.34314 140.0 
1040.967163 196.0 
1062.915039 180.0 
1064.856079 176.0 
1097.551514 248.0 
1127.45752 180.0 
1156.086792 196.0 
1161.581543 124.0 
1168.517822 172.0 
1174.362549 100.0 
1193.042969 204.0 
1228.891602 192.0 
1241.096924 212.0 
1255.688965 228.0 
1276.225586 136.0 
1278.089111 176.0 
1286.070923 204.0 
1288.520264 244.0 
1291.551392 188.0 
1295.903931 28.0 
1306.285156 120.0 
1312.399536 148.0 
1316.81604 208.0 
1318.672852 140.0 
1319.431885 120.0 
1347.902344 200.0 
1360.970093 212.0 
1366.98291 120.0 
1370.952148 136.0 
1371.481567 92.0 
1385.100952 136.0 
1387.620605 144.0 
1397.461792 164.0 
1397.684937 68.0 
1406.852295 136.0 
1430.059937 144.0 
1446.560547 152.0 
1456.091553 144.0 
1457.041138 124.0 
1463.07959 180.0 
1485.018311 96.0 
1490.422852 156.0 
1492.352051 132.0 
1495.852539 136.0 
1495.906494 120.0 
END IONS

