BEGIN IONS
PEPMASS=936.544
CHARGE=1+
COMPOUNDNAME=Rapamycin (Sirolimus)
LIBRARYQUALITY=1
SMILES=[C@@H]1([C@@H](C[C@@H](CC1)C[C@H]([C@@H]2CC([C@@H](/C=C(\C)[C@H]([C@@H](C([C@@H](C[C@@H](/C=C/C=C/C=C(/[C@H](C[C@@H]3CC[C@H]([C@](C(C(N4CCCC[C@@H](C(O2)=O)4)=O)=O)(O3)O)C)OC)C)C)C)=O)OC)O)C)=O)C)OC)O
INCHIKEY=QFJCIRLUMZQUOT-HPIZFEBUSA-N
INCHI=N/A
MSLEVEL=2
SOURCE_INSTRUMENT=LC-ESI-qTof
FILENAME=Plate1_1_20_GG1_01_16488.mzXML
SEQ=*..*
IONMODE=Positive
ORGANISM=GNPS-SELLECKCHEM-FDA-PART2
NAME=Rapamycin (Sirolimus) [M+Na]
PI=Dorrestein
DATACOLLECTOR=Garg_Neha
PUBMED=N/A
SUBMITUSER=negarg
TAGS=
SPECTRUMID=CCMSLIB00000078008
SCANS=3045
45.297939 216.0 
50.617783 180.0 
58.329742 140.0 
61.433022 152.0 
68.582664 120.0 
87.828941 144.0 
93.826126 184.0 
94.312599 184.0 
105.069946 152.0 
115.007896 200.0 
116.172005 184.0 
125.063248 156.0 
128.656479 152.0 
137.04274 144.0 
144.088562 152.0 
147.116791 168.0 
150.851059 184.0 
169.587219 196.0 
171.555023 144.0 
171.586304 212.0 
171.729736 172.0 
172.5811 148.0 
174.135132 144.0 
175.110931 132.0 
180.060211 192.0 
181.108688 184.0 
189.896759 192.0 
199.145752 240.0 
200.084732 212.0 
202.745911 164.0 
203.120178 192.0 
205.120773 168.0 
207.108109 228.0 
209.041992 328.0 
209.0979 196.0 
210.045868 152.0 
212.859116 140.0 
213.80101 200.0 
219.0923 160.0 
220.115799 212.0 
220.145325 160.0 
223.807617 220.0 
225.158524 196.0 
229.106079 144.0 
230.956573 224.0 
233.148712 216.0 
245.116135 408.0 
259.122375 132.0 
260.133484 184.0 
261.033142 176.0 
261.705658 180.0 
262.159851 228.0 
268.181824 160.0 
269.137695 156.0 
273.179657 116.0 
273.221649 144.0 
276.093933 132.0 
279.881195 156.0 
280.73761 164.0 
281.187988 148.0 
284.170258 184.0 
284.951965 156.0 
285.18576 564.0 
286.183289 148.0 
288.210236 228.0 
290.102203 196.0 
291.191437 140.0 
294.044617 144.0 
301.176239 400.0 
305.214844 152.0 
306.916565 184.0 
307.453796 220.0 
308.199707 148.0 
309.180298 140.0 
311.192871 268.0 
312.18335 180.0 
312.211487 152.0 
314.68692 108.0 
320.111725 1244.0 
321.114777 432.0 
326.09964 148.0 
329.644623 232.0 
332.187744 172.0 
333.229675 176.0 
334.24054 148.0 
336.071533 196.0 
337.008118 164.0 
340.969574 156.0 
342.61441 188.0 
345.20224 924.0 
346.2099 284.0 
349.895752 156.0 
351.249695 272.0 
353.43042 168.0 
358.311584 180.0 
360.375427 188.0 
363.207245 184.0 
365.056915 144.0 
365.235474 188.0 
365.246735 168.0 
366.251892 132.0 
367.712372 140.0 
368.265991 160.0 
370.248749 208.0 
372.09549 144.0 
374.21402 156.0 
377.202972 172.0 
381.238373 1224.0 
382.239838 288.0 
383.249573 300.0 
387.79184 184.0 
388.278015 140.0 
392.228333 160.0 
392.663361 192.0 
395.220459 124.0 
397.236755 268.0 
398.2323 188.0 
399.249756 148.0 
400.24649 112.0 
401.264679 196.0 
407.219604 156.0 
408.618286 252.0 
409.234802 3872.0 
409.971252 240.0 
410.239685 628.0 
411.236725 628.0 
412.029175 172.0 
413.260559 488.0 
414.265472 352.0 
415.257843 148.0 
418.246033 164.0 
423.13266 148.0 
425.243896 260.0 
427.245239 1424.0 
427.56189 148.0 
428.253021 128.0 
429.245453 276.0 
435.20401 264.0 
436.23175 208.0 
436.514496 156.0 
441.186249 152.0 
441.257874 2788.0 
442.266266 904.0 
443.214355 148.0 
443.255829 112.0 
443.266327 100.0 
445.3414 156.0 
448.231689 192.0 
450.311554 140.0 
453.223663 3796.0 
453.305847 144.0 
453.423584 112.0 
454.220642 1076.0 
455.226624 316.0 
456.223846 176.0 
456.950165 156.0 
457.022491 152.0 
457.26004 800.0 
458.255188 188.0 
459.266663 664.0 
459.382812 168.0 
460.264832 104.0 
464.258972 148.0 
465.263031 148.0 
468.234528 132.0 
468.286072 164.0 
469.225525 148.0 
471.233978 976.0 
472.24057 196.0 
473.196136 184.0 
474.282379 564.0 
474.344208 152.0 
475.274689 324.0 
476.366425 176.0 
476.432373 156.0 
477.753235 152.0 
479.189972 156.0 
480.252319 128.0 
485.247955 504.0 
485.291687 180.0 
486.258575 256.0 
487.263824 124.0 
487.306152 156.0 
492.248596 176.0 
493.378296 208.0 
494.308624 148.0 
496.270935 168.0 
497.273529 140.0 
502.272308 296.0 
503.26178 268.0 
503.426422 156.0 
504.311035 144.0 
505.626007 200.0 
507.323669 188.0 
510.331787 232.0 
513.894653 164.0 
517.252563 152.0 
519.391357 148.0 
521.273987 140.0 
522.719788 108.0 
523.299744 152.0 
526.290894 164.0 
529.258484 160.0 
529.876831 184.0 
531.265991 180.0 
532.344604 180.0 
538.306274 512.0 
539.315125 152.0 
540.342102 156.0 
541.313904 128.0 
542.310242 156.0 
547.768677 148.0 
550.269043 128.0 
552.317017 128.0 
552.382324 156.0 
553.121704 168.0 
564.296814 648.0 
565.29834 596.0 
566.294373 156.0 
567.287292 168.0 
567.320435 440.0 
568.324036 264.0 
569.272278 248.0 
570.337646 132.0 
570.406128 192.0 
571.319031 108.0 
571.335327 104.0 
571.447693 160.0 
580.299744 144.0 
581.341003 604.0 
582.29895 2796.0 
583.039246 160.0 
583.304932 996.0 
583.388245 172.0 
584.316223 368.0 
587.329285 160.0 
587.86969 164.0 
596.315918 668.0 
597.328186 432.0 
598.263611 156.0 
598.300842 140.0 
600.371704 196.0 
602.778442 148.0 
605.204712 140.0 
606.34613 160.0 
606.978516 164.0 
607.39563 3260.0 
607.925659 108.0 
608.399414 1312.0 
609.404968 244.0 
610.029419 104.0 
610.409729 352.0 
612.07959 108.0 
613.739807 148.0 
613.9823 196.0 
614.134338 172.0 
614.328308 5928.0 
614.462402 144.0 
614.748901 100.0 
615.332275 2180.0 
616.328613 376.0 
617.346924 124.0 
618.254944 160.0 
618.477722 144.0 
619.180786 140.0 
619.650818 104.0 
621.118835 144.0 
623.393494 140.0 
634.403748 320.0 
635.436951 152.0 
639.245789 192.0 
642.316162 240.0 
643.321533 316.0 
644.293091 184.0 
644.334473 316.0 
651.466797 152.0 
654.808777 140.0 
671.806824 188.0 
674.409424 168.0 
675.397888 124.0 
677.535095 148.0 
678.276123 208.0 
684.706726 164.0 
685.297363 152.0 
688.439941 168.0 
689.121948 168.0 
690.40271 120.0 
694.293945 160.0 
696.782043 176.0 
698.438049 156.0 
702.82135 148.0 
703.45166 952.0 
704.453125 568.0 
705.462891 300.0 
710.428711 108.0 
711.448608 288.0 
713.419617 192.0 
713.892822 148.0 
719.511963 148.0 
721.463379 140.0 
722.429321 152.0 
726.938538 176.0 
727.496887 160.0 
727.588074 140.0 
729.86084 176.0 
731.445862 2144.0 
731.518677 152.0 
732.444336 1084.0 
733.445068 476.0 
734.45575 124.0 
735.40448 140.0 
735.476746 532.0 
736.46698 108.0 
737.894836 172.0 
738.073303 144.0 
738.427979 116.0 
743.930237 160.0 
747.1203 192.0 
747.23999 148.0 
747.416626 104.0 
748.446472 128.0 
749.458862 912.0 
749.744873 180.0 
750.449463 248.0 
751.462891 580.0 
752.453247 152.0 
752.477234 124.0 
752.48938 156.0 
754.478882 120.0 
757.392639 96.0 
758.431763 188.0 
759.641785 172.0 
760.909485 216.0 
760.991882 192.0 
762.453064 144.0 
763.473145 1732.0 
764.174316 168.0 
764.470154 672.0 
765.393738 176.0 
765.477478 780.0 
766.47937 112.0 
770.454102 160.0 
772.49408 176.0 
773.861084 164.0 
774.182251 156.0 
774.409302 172.0 
775.438293 584.0 
776.430359 588.0 
777.446838 308.0 
778.423157 132.0 
779.460449 168.0 
780.24115 96.0 
780.469238 188.0 
781.468994 560.0 
782.496338 748.0 
782.656372 176.0 
783.452881 296.0 
786.732117 140.0 
790.440552 188.0 
792.711365 148.0 
793.20459 140.0 
793.448242 700.0 
794.446655 516.0 
795.46167 272.0 
795.5177 132.0 
797.830444 192.0 
798.313965 152.0 
799.506653 148.0 
801.646667 204.0 
807.469543 512.0 
808.47345 244.0 
809.472656 156.0 
810.443848 128.0 
811.648682 188.0 
814.921936 144.0 
815.49115 176.0 
815.677795 220.0 
815.73468 220.0 
816.488159 140.0 
817.355591 148.0 
817.984314 112.0 
822.216736 188.0 
822.604858 152.0 
825.481201 312.0 
826.476013 232.0 
827.487244 144.0 
828.529602 144.0 
830.574524 108.0 
833.745605 152.0 
834.481384 144.0 
835.64325 248.0 
837.734192 156.0 
840.02179 204.0 
840.823792 140.0 
843.226501 188.0 
846.528137 236.0 
847.521484 440.0 
848.042053 140.0 
848.302917 176.0 
848.533325 108.0 
855.634277 136.0 
857.353027 196.0 
860.52124 100.0 
864.525085 256.0 
864.630066 144.0 
865.524963 460.0 
865.882935 148.0 
866.530396 520.0 
867.56427 160.0 
868.444275 148.0 
868.506287 204.0 
870.011108 164.0 
870.423828 124.0 
873.613647 144.0 
874.561401 140.0 
877.274963 164.0 
881.750977 152.0 
883.317871 156.0 
883.530884 108.0 
884.409912 200.0 
884.512085 120.0 
884.536194 96.0 
885.513916 176.0 
885.673828 164.0 
886.497742 328.0 
887.511963 248.0 
888.465088 108.0 
888.523376 208.0 
889.403015 124.0 
890.015137 152.0 
890.491455 132.0 
891.500122 184.0 
892.558289 648.0 
893.307739 156.0 
893.551758 228.0 
894.178223 152.0 
897.220459 156.0 
902.677917 148.0 
904.203491 180.0 
904.518616 1784.0 
904.658386 164.0 
905.388916 160.0 
905.51239 1020.0 
905.727722 148.0 
906.368469 124.0 
906.507751 776.0 
907.038879 160.0 
907.466736 168.0 
907.536743 416.0 
908.223938 148.0 
908.539978 176.0 
908.787842 148.0 
909.553955 148.0 
910.282532 172.0 
910.532288 148.0 
911.361511 100.0 
911.543518 148.0 
912.698181 144.0 
913.871094 140.0 
917.669006 112.0 
917.782227 176.0 
917.864746 168.0 
918.02594 152.0 
918.13446 140.0 
918.536377 452.0 
918.885803 120.0 
919.511169 156.0 
919.525452 100.0 
919.775452 160.0 
919.907043 116.0 
920.530518 200.0 
920.59314 96.0 
920.848999 164.0 
921.407837 184.0 
921.580627 172.0 
921.886902 112.0 
922.285645 108.0 
922.405518 100.0 
922.722595 112.0 
922.955139 172.0 
923.336121 152.0 
923.436401 160.0 
923.669373 96.0 
924.580383 116.0 
924.834839 100.0 
925.390015 120.0 
925.810242 256.0 
926.458618 128.0 
927.320068 144.0 
927.577393 212.0 
927.932312 176.0 
929.001099 332.0 
931.610168 176.0 
931.670959 148.0 
931.907898 164.0 
931.957886 156.0 
932.521667 164.0 
932.609985 176.0 
932.985046 144.0 
933.220825 152.0 
933.318054 140.0 
933.433594 144.0 
933.506348 168.0 
933.546875 240.0 
933.703918 196.0 
933.911987 180.0 
934.020508 524.0 
934.136108 120.0 
934.223816 140.0 
934.42511 176.0 
934.52655 472.0 
934.665222 164.0 
934.826904 300.0 
934.944397 276.0 
935.052551 252.0 
935.10791 100.0 
935.17749 156.0 
935.24823 256.0 
935.340454 128.0 
935.462769 172.0 
935.520508 332.0 
935.595703 188.0 
935.742493 248.0 
935.918823 168.0 
935.982727 252.0 
936.089722 408.0 
936.165771 308.0 
936.19397 180.0 
936.305908 268.0 
936.36322 428.0 
936.54364 117420.0 
936.709106 440.0 
936.861938 288.0 
936.983643 232.0 
937.057739 460.0 
937.079712 328.0 
937.147705 308.0 
937.220459 248.0 
937.276611 304.0 
937.320251 256.0 
937.380859 292.0 
937.547485 63372.0 
937.771851 240.0 
937.918762 280.0 
937.959473 236.0 
938.016602 320.0 
938.089539 308.0 
938.205139 236.0 
938.250183 272.0 
938.321655 256.0 
938.371399 220.0 
938.437317 184.0 
938.548889 19160.0 
938.86261 124.0 
938.921143 132.0 
938.992737 128.0 
939.153992 164.0 
939.253662 204.0 
939.413208 236.0 
939.54895 4092.0 
939.682556 336.0 
939.905701 116.0 
940.066162 172.0 
940.11731 348.0 
940.250488 116.0 
940.559082 1084.0 
940.654724 184.0 
940.980103 292.0 
941.054138 176.0 
941.279236 432.0 
941.33783 112.0 
941.388 108.0 
941.534973 312.0 
941.62915 260.0 
941.744385 156.0 
941.836853 268.0 
941.95282 180.0 
942.1828 280.0 
942.248047 104.0 
942.299805 200.0 
942.34552 280.0 
942.693115 164.0 
942.839355 192.0 
942.933533 172.0 
943.024902 144.0 
943.088562 140.0 
943.17981 100.0 
943.276306 140.0 
943.434998 104.0 
943.679565 176.0 
943.76062 104.0 
943.963013 116.0 
944.025269 172.0 
944.349976 112.0 
945.005005 240.0 
945.457825 152.0 
945.734741 100.0 
945.987305 116.0 
946.312012 192.0 
954.793884 164.0 
961.832031 140.0 
965.706299 160.0 
968.452759 144.0 
970.500916 96.0 
996.396362 148.0 
1045.978882 148.0 
1106.052734 148.0 
1182.411865 180.0 
1189.986694 164.0 
1194.584473 160.0 
1248.908936 156.0 
1264.849243 168.0 
1278.782959 152.0 
1278.896851 160.0 
1291.476562 152.0 
1293.752197 148.0 
1301.064819 228.0 
1314.301147 224.0 
1321.490723 160.0 
1323.722046 156.0 
1345.969971 220.0 
1352.413086 160.0 
1360.807129 172.0 
1365.958862 160.0 
1374.284058 148.0 
1396.28064 108.0 
1405.068359 148.0 
1406.964111 160.0 
1437.604614 188.0 
1438.548096 140.0 
1442.786255 148.0 
1455.65979 140.0 
1474.622437 172.0 
1486.416382 144.0 
1491.116455 204.0 
1557.898682 108.0 
1735.950317 172.0 
1990.522949 156.0 
END IONS

