BEGIN IONS
PEPMASS=245.095
CHARGE=1+
COMPOUNDNAME=Biotin (Vitamin B7)
LIBRARYQUALITY=1
SMILES=C1(N[C@@]2([C@](N1)([C@H](SC2)CCCCC(=O)O)[H])[H])=O
INCHIKEY=YBJHBAHKTGYVGT-OOZYFLPDSA-N
INCHI=N/A
MSLEVEL=2
SOURCE_INSTRUMENT=LC-ESI-qTof
FILENAME=Plate9_41_60_GC6_01_15755.mzXML
SEQ=*..*
IONMODE=Positive
ORGANISM=GNPS-SELLECKCHEM-FDA-PART2
NAME=Biotin (Vitamin B7) [M+H]
PI=Dorrestein
DATACOLLECTOR=Garg_Neha
PUBMED=N/A
SUBMITUSER=negarg
TAGS=
SPECTRUMID=CCMSLIB00000078581
SCANS=1015
44.957783 184.0 
45.282658 224.0 
45.34697 168.0 
45.780918 160.0 
46.436394 240.0 
46.607445 140.0 
46.904133 148.0 
47.289318 144.0 
47.647224 168.0 
47.680202 160.0 
48.249496 144.0 
48.325565 152.0 
48.516689 140.0 
48.629051 212.0 
48.681629 136.0 
48.86668 140.0 
48.940449 316.0 
49.072815 172.0 
49.304535 152.0 
49.402412 164.0 
49.557816 156.0 
49.744343 196.0 
49.867954 180.0 
50.632652 184.0 
50.98307 144.0 
51.257721 324.0 
51.385967 140.0 
51.500252 152.0 
51.958336 184.0 
51.979858 156.0 
52.275883 140.0 
52.346416 152.0 
52.577076 152.0 
52.634819 164.0 
53.386913 176.0 
53.519333 184.0 
53.589249 180.0 
53.756935 220.0 
53.987751 168.0 
54.037483 184.0 
54.068214 152.0 
54.186821 164.0 
55.174374 204.0 
55.381546 176.0 
55.445255 140.0 
55.563881 176.0 
56.24247 216.0 
56.26038 224.0 
56.63422 224.0 
56.659687 140.0 
56.883137 156.0 
57.574654 188.0 
57.67849 144.0 
57.769218 160.0 
57.966049 204.0 
58.555492 164.0 
58.695694 168.0 
59.00259 192.0 
59.036228 184.0 
59.267376 212.0 
59.479015 208.0 
59.586514 196.0 
59.795643 172.0 
60.304615 156.0 
60.781605 160.0 
61.375801 164.0 
61.86013 172.0 
61.896137 244.0 
62.02774 156.0 
62.360504 160.0 
62.410809 140.0 
63.196304 184.0 
63.368885 156.0 
63.473499 156.0 
63.492527 176.0 
64.045631 160.0 
64.088646 196.0 
64.168343 196.0 
64.500191 156.0 
64.607536 152.0 
64.810867 160.0 
64.947136 160.0 
65.343933 248.0 
65.56292 152.0 
65.787125 172.0 
65.885635 164.0 
65.927643 168.0 
66.520454 260.0 
66.633713 248.0 
66.891083 176.0 
67.177887 144.0 
67.280693 164.0 
67.413002 176.0 
67.940224 172.0 
68.122452 152.0 
68.530457 180.0 
68.743172 164.0 
68.992577 188.0 
69.313667 196.0 
69.423073 152.0 
69.525932 156.0 
69.871552 144.0 
69.893181 168.0 
70.279755 176.0 
70.665718 168.0 
71.430717 144.0 
71.998726 172.0 
72.347046 168.0 
72.56221 196.0 
72.670067 148.0 
72.813347 180.0 
74.217804 168.0 
74.863914 168.0 
74.948318 192.0 
75.784607 188.0 
76.696983 232.0 
77.366028 156.0 
77.541191 144.0 
77.960632 152.0 
78.203339 168.0 
79.149597 212.0 
79.537857 164.0 
79.58934 176.0 
79.864799 144.0 
80.092636 168.0 
80.114006 204.0 
80.429642 224.0 
80.572502 164.0 
80.747681 204.0 
80.991096 164.0 
81.204391 160.0 
81.25103 200.0 
81.736145 272.0 
82.307556 148.0 
82.376183 148.0 
83.024155 172.0 
83.725655 176.0 
84.010002 208.0 
84.287521 212.0 
84.472176 192.0 
84.545364 184.0 
84.581757 156.0 
84.757782 152.0 
84.797699 148.0 
85.527283 140.0 
85.656174 168.0 
85.842323 168.0 
85.984085 152.0 
86.503769 160.0 
87.586349 212.0 
87.709328 168.0 
88.312431 148.0 
88.878197 148.0 
89.272675 160.0 
89.389305 156.0 
89.64164 144.0 
89.762283 212.0 
89.858475 160.0 
90.04158 152.0 
90.724663 180.0 
91.037727 148.0 
91.056725 172.0 
91.296181 140.0 
92.956261 244.0 
93.642586 204.0 
93.663773 152.0 
93.837212 140.0 
94.066788 244.0 
94.095749 208.0 
95.572662 188.0 
95.607689 184.0 
96.078812 412.0 
96.200226 160.0 
96.239273 192.0 
96.262703 152.0 
96.802895 116.0 
96.878807 200.0 
97.012482 340.0 
97.040352 780.0 
97.086578 144.0 
97.153267 188.0 
97.23568 192.0 
98.01619 192.0 
98.045158 296.0 
98.064522 204.0 
98.096825 79652.0 
98.156349 128.0 
98.240639 168.0 
98.341743 116.0 
98.398247 140.0 
98.420296 116.0 
98.680374 144.0 
99.023911 164.0 
99.099258 4408.0 
99.211533 164.0 
99.241455 180.0 
99.700439 148.0 
99.756096 140.0 
99.772781 112.0 
99.863342 132.0 
99.891319 144.0 
99.922905 132.0 
99.981224 108.0 
100.02066 176.0 
100.952393 176.0 
101.062408 208.0 
102.000984 180.0 
104.068565 152.0 
105.070305 488.0 
105.091499 228.0 
105.723358 220.0 
105.932785 160.0 
106.872047 208.0 
106.962601 156.0 
107.082161 344.0 
107.715248 168.0 
108.080116 452.0 
109.084976 156.0 
109.58445 232.0 
110.097595 140.0 
111.02523 248.0 
111.054054 200.0 
111.51387 168.0 
112.018234 256.0 
113.021965 160.0 
113.040741 176.0 
113.271515 176.0 
113.481323 144.0 
114.186333 176.0 
115.056259 152.0 
115.500206 172.0 
116.578629 192.0 
117.053345 124.0 
119.430359 188.0 
119.89846 176.0 
120.081596 156.0 
120.736794 176.0 
120.881172 176.0 
121.062866 308.0 
122.092812 312.0 
122.532349 208.0 
122.616089 172.0 
123.025925 1104.0 
123.06163 172.0 
123.092598 148.0 
123.455002 152.0 
123.609856 140.0 
123.809929 180.0 
124.027893 216.0 
124.065895 160.0 
124.074677 144.0 
124.080513 284.0 
124.807671 164.0 
125.037704 368.0 
125.998436 108.0 
127.539604 140.0 
128.864685 140.0 
129.756424 196.0 
131.026871 172.0 
131.711227 176.0 
132.079453 140.0 
133.061676 148.0 
133.082092 300.0 
134.049103 220.0 
134.083679 200.0 
135.86647 176.0 
136.019318 152.0 
137.039719 132.0 
137.075516 144.0 
138.038254 680.0 
138.089371 320.0 
138.165894 168.0 
138.913193 184.0 
139.021133 140.0 
139.057816 1388.0 
139.089188 152.0 
139.409286 128.0 
139.829575 224.0 
139.996719 140.0 
140.014481 140.0 
140.059158 296.0 
141.063171 176.0 
142.07106 204.0 
142.347321 160.0 
143.010605 176.0 
143.032028 380.0 
143.639664 152.0 
143.766113 156.0 
143.811462 144.0 
144.033508 156.0 
144.090851 200.0 
146.123947 140.0 
146.885208 156.0 
146.945526 180.0 
147.080658 212.0 
147.370453 140.0 
147.566238 156.0 
148.075089 356.0 
148.130112 156.0 
149.039291 304.0 
149.511642 144.0 
149.543289 188.0 
149.587097 172.0 
150.037781 200.0 
150.091232 2200.0 
150.167023 208.0 
150.726059 172.0 
150.875153 204.0 
151.089935 504.0 
152.091202 208.0 
153.111343 124.0 
154.069046 160.0 
155.028534 208.0 
155.543472 144.0 
156.047775 184.0 
156.085068 260.0 
156.482468 212.0 
156.869324 140.0 
157.051346 148.0 
157.078781 152.0 
158.431198 156.0 
159.066177 172.0 
161.332855 248.0 
161.826187 148.0 
162.561615 148.0 
163.088333 136.0 
163.6772 164.0 
165.102341 196.0 
166.067413 972.0 
166.097458 188.0 
166.981018 188.0 
167.051407 552.0 
167.882401 172.0 
168.055389 200.0 
168.434723 192.0 
170.104919 168.0 
170.169815 232.0 
170.941803 176.0 
171.218994 128.0 
172.517166 176.0 
172.95401 140.0 
173.087524 192.0 
174.780579 160.0 
175.088577 180.0 
175.905945 176.0 
176.659073 176.0 
177.432373 148.0 
179.799759 180.0 
181.091095 140.0 
182.060867 172.0 
183.048874 156.0 
183.067719 296.0 
183.488068 160.0 
183.652557 152.0 
184.079651 904.0 
184.105972 140.0 
184.74115 152.0 
185.076324 444.0 
186.936157 180.0 
188.061722 168.0 
190.251587 180.0 
191.444901 188.0 
191.491714 180.0 
191.836151 184.0 
192.048767 200.0 
192.368561 144.0 
192.849182 140.0 
195.400391 248.0 
196.581818 168.0 
196.969894 236.0 
197.042526 160.0 
198.119614 160.0 
199.089783 1412.0 
199.378174 156.0 
199.753036 120.0 
200.088303 196.0 
201.081772 132.0 
201.120041 140.0 
201.916809 184.0 
202.089355 200.0 
202.426193 240.0 
202.737808 172.0 
202.88237 148.0 
205.530258 172.0 
206.787659 160.0 
208.272888 140.0 
208.844864 176.0 
209.072769 856.0 
210.060806 228.0 
211.676041 152.0 
211.974396 148.0 
213.597336 152.0 
214.258148 168.0 
214.293121 188.0 
214.914154 160.0 
215.001694 196.0 
215.143585 200.0 
216.53624 172.0 
221.209473 160.0 
221.301254 196.0 
221.718918 148.0 
223.102112 172.0 
225.950211 168.0 
226.871124 160.0 
226.937592 184.0 
227.085312 38776.0 
227.302719 160.0 
227.363968 152.0 
227.440445 136.0 
227.477783 104.0 
227.973389 128.0 
228.01828 112.0 
228.088516 3888.0 
229.082779 1528.0 
229.584747 160.0 
229.741592 176.0 
229.964874 156.0 
230.00824 120.0 
230.095779 164.0 
231.885437 196.0 
238.751785 252.0 
239.897186 164.0 
242.056839 152.0 
242.677963 104.0 
243.219437 200.0 
244.016571 180.0 
244.128143 108.0 
244.602676 180.0 
244.979462 196.0 
245.095703 10600.0 
245.612198 112.0 
245.810654 156.0 
245.915863 144.0 
246.014801 160.0 
246.042892 256.0 
246.096329 1448.0 
246.284576 184.0 
246.324707 204.0 
246.406158 140.0 
246.45517 180.0 
246.515533 164.0 
246.542664 188.0 
246.590088 116.0 
246.643829 184.0 
246.72879 204.0 
246.783218 176.0 
246.793777 96.0 
246.845108 152.0 
246.876556 124.0 
246.913818 100.0 
246.970764 276.0 
247.025299 128.0 
247.055801 108.0 
247.091827 976.0 
247.181656 155260.0 
247.284393 336.0 
247.386459 156.0 
247.42775 116.0 
247.478439 256.0 
247.535278 120.0 
247.626404 212.0 
247.695587 1208.0 
247.732986 200.0 
247.795853 144.0 
247.835022 180.0 
247.877609 116.0 
247.905121 128.0 
248.029327 176.0 
248.06694 160.0 
248.183334 15000.0 
248.397171 160.0 
248.434296 140.0 
248.703796 148.0 
249.118195 224.0 
249.42128 104.0 
249.503265 100.0 
249.653885 148.0 
249.778336 176.0 
249.815887 132.0 
249.877563 224.0 
249.904419 256.0 
250.046341 184.0 
250.121307 156.0 
250.908859 144.0 
1163.655884 204.0 
1174.182861 224.0 
1194.360718 148.0 
1203.298706 216.0 
1234.239014 176.0 
1240.154541 148.0 
1254.043091 164.0 
1283.226318 208.0 
1296.22998 224.0 
1307.144775 160.0 
1316.407837 192.0 
1316.978271 152.0 
1317.556152 152.0 
1321.995728 156.0 
1328.828735 148.0 
1332.811157 176.0 
1334.719238 240.0 
1334.937378 228.0 
1335.010132 192.0 
1349.901123 144.0 
1351.203125 196.0 
1370.372925 176.0 
1386.64502 180.0 
1388.179565 188.0 
1389.714966 196.0 
1394.950806 160.0 
1403.508423 140.0 
1405.65332 184.0 
1417.932739 192.0 
1418.817261 168.0 
1419.37207 140.0 
1421.359863 160.0 
1431.131348 176.0 
1437.411133 156.0 
1443.128052 140.0 
1444.406128 148.0 
1446.812622 172.0 
1447.804565 148.0 
1451.229614 176.0 
1461.909546 152.0 
1464.56665 156.0 
1467.027954 140.0 
1482.697144 152.0 
1483.785645 156.0 
1483.908325 196.0 
1493.730591 192.0 
1494.061401 192.0 
1495.161743 168.0 
1501.509888 244.0 
1503.670166 252.0 
1509.232178 160.0 
1513.828491 148.0 
1520.270508 148.0 
1520.324829 304.0 
1520.542114 184.0 
1522.071411 156.0 
1524.751465 180.0 
1527.426147 148.0 
1528.196289 208.0 
1535.35498 204.0 
1536.759155 144.0 
1550.725708 208.0 
1551.133179 192.0 
1555.055054 180.0 
1557.748291 148.0 
1558.42395 220.0 
1560.805542 172.0 
1562.795532 164.0 
1571.786011 168.0 
1582.036987 176.0 
1588.741333 168.0 
1589.780762 164.0 
1591.64624 152.0 
1591.733521 192.0 
1596.008423 208.0 
1596.803711 172.0 
1599.500977 144.0 
1599.644287 252.0 
1600.082153 192.0 
1601.953613 164.0 
1614.964722 176.0 
1615.164673 144.0 
1617.341064 140.0 
1618.421753 184.0 
1619.350708 140.0 
1620.928955 184.0 
1621.698364 144.0 
1622.042969 184.0 
1622.171265 164.0 
1626.992554 196.0 
1628.421875 196.0 
1630.060669 200.0 
1633.236328 148.0 
1635.674438 184.0 
1636.616333 196.0 
1642.999634 148.0 
1644.516724 240.0 
1649.597412 148.0 
1650.486694 208.0 
1652.694946 204.0 
1661.639771 212.0 
1661.964233 140.0 
1664.293823 220.0 
1668.640625 192.0 
1671.92688 188.0 
1674.279663 192.0 
1681.029541 216.0 
1683.08667 176.0 
1683.454102 164.0 
1683.543945 144.0 
1684.540405 200.0 
1688.471924 240.0 
1691.834839 200.0 
1695.684692 172.0 
1698.685669 160.0 
1700.449829 144.0 
1702.017822 148.0 
1706.257446 156.0 
1707.128906 168.0 
1707.721069 148.0 
1712.190186 232.0 
1713.186768 176.0 
1716.137207 168.0 
1717.22583 172.0 
1721.12915 180.0 
1724.491455 176.0 
1731.847046 156.0 
1735.543091 188.0 
1743.653442 224.0 
1744.966797 172.0 
1751.716064 140.0 
1752.174194 140.0 
1753.174194 148.0 
1753.58252 172.0 
1757.285034 168.0 
1758.261353 144.0 
1758.720337 144.0 
1760.398438 216.0 
1761.993774 224.0 
1767.369873 148.0 
1768.491333 156.0 
1769.805664 192.0 
1780.480591 176.0 
1788.745605 192.0 
1791.246582 164.0 
1791.532959 188.0 
1791.987915 220.0 
1793.091797 200.0 
1793.867188 152.0 
1798.464355 176.0 
1800.634277 192.0 
1801.664795 204.0 
1803.135132 176.0 
1804.124023 232.0 
1806.009766 152.0 
1806.838745 192.0 
1808.624268 284.0 
1808.72583 156.0 
1808.878174 216.0 
1810.292114 188.0 
1811.681152 160.0 
1812.15564 196.0 
1813.596313 236.0 
1816.470825 208.0 
1820.018311 144.0 
1820.536255 164.0 
1823.186768 160.0 
1826.33252 240.0 
1829.203125 212.0 
1829.73645 200.0 
1832.308472 156.0 
1833.884888 148.0 
1838.234375 140.0 
1840.116455 152.0 
1840.325684 144.0 
1841.398682 128.0 
1845.614624 224.0 
1846.298706 196.0 
1846.709229 144.0 
1849.335938 152.0 
1851.108154 156.0 
1852.581299 152.0 
1854.200684 184.0 
1854.397827 172.0 
1859.389404 176.0 
1865.290161 200.0 
1873.155151 168.0 
1878.284058 172.0 
1887.793091 212.0 
1888.017944 168.0 
1889.133667 196.0 
1891.270996 204.0 
1891.738403 196.0 
1895.904541 144.0 
1896.814697 280.0 
1896.875366 176.0 
1898.080444 160.0 
1906.34436 140.0 
1906.735474 184.0 
1909.213135 208.0 
1911.013794 168.0 
1912.728149 184.0 
1914.6698 192.0 
1914.93103 148.0 
1915.540771 152.0 
1916.221191 196.0 
1917.448975 148.0 
1919.654541 220.0 
1922.227905 156.0 
1923.807739 184.0 
1925.615234 196.0 
1931.550049 424.0 
1937.11731 168.0 
1944.350952 220.0 
1944.991699 192.0 
1945.492065 256.0 
1947.819092 192.0 
1949.532349 184.0 
1949.646606 148.0 
1953.066772 140.0 
1954.166382 240.0 
1954.377563 140.0 
1954.606323 164.0 
1954.799927 216.0 
1956.384155 144.0 
1957.995483 144.0 
1958.312622 204.0 
1965.065063 140.0 
1966.865356 176.0 
1967.898315 172.0 
1977.303711 192.0 
1978.808594 196.0 
1979.345215 164.0 
1981.6073 176.0 
1985.188354 160.0 
1993.239746 220.0 
1997.578369 228.0 
1999.5448 164.0 
1999.725708 148.0 
END IONS

