BEGIN IONS
TITLE=Scan Number: 2207
PEPMASS=507.228
CHARGE=1+
COMPOUNDNAME=Asperphenamate_130119
LIBRARYQUALITY=2
SMILES=O=C(C(NC(C1=CC=CC=C1)=O)CC2=CC=CC=C2)OCC(NC(C3=CC=CC=C3)=O)CC4=CC=CC=C4
INCHIKEY=CVULDJMCSSACEO-UHFFFAOYSA-N
INCHI=N/A
MSLEVEL=2
SOURCE_INSTRUMENT=LC-ESI-qToF
FILENAME=P2_C5_conc_GE5_01_2423.mzXML
SEQ=*..*
NOTES=
IONMODE=Positive
ORGANISM=GNPS-LIBRARY
NAME=Asperphenamate_130119 M+H
SPECTRUMID=CCMSLIB00000478524
ACTIVATION=CID
INSTRUMENT=ion trap
SCANS=2207
91.053856 884.0 
92.059219 420.0 
104.049782 388.0 
105.033844 45140.0 
106.036446 3876.0 
115.05381 2348.0 
116.060104 484.0 
117.069939 22256.0 
118.072258 2764.0 
119.075867 312.0 
122.059547 7224.0 
123.061287 708.0 
134.095886 3228.0 
135.099808 528.0 
146.063583 460.0 
224.106522 32648.0 
225.109924 5580.0 
226.11171 572.0 
237.173035 252.0 
237.731293 296.0 
237.998337 476.0 
238.12291 263464.0 
238.628494 860.0 
239.125183 40064.0 
239.338333 256.0 
239.998367 260.0 
240.053436 328.0 
240.12764 3784.0 
240.411942 308.0 
240.742096 332.0 
240.81424 272.0 
240.900772 252.0 
240.926529 452.0 
252.101425 26532.0 
253.104294 5556.0 
254.106079 836.0 
255.121933 256.0 
255.826736 400.0 
256.133514 102376.0 
256.697113 268.0 
257.135956 12952.0 
258.138855 1008.0 
258.925629 356.0 
258.987671 340.0 
507.227081 1344.0 
508.227936 1264.0 
509.23645 376.0 
509.711517 292.0 
END IONS

