BEGIN IONS
PEPMASS=243.149
CHARGE=1+
COMPOUNDNAME="(5R,9R,Z)-5-amino-11-ethylidene-7-methyl-5,6,9,10-tetrahydro-5,9-methanocycloocta[b]pyridin-2-ol"
LIBRARYQUALITY=1
SMILES=C/C=C\1/[C@@H]2Cc3nc(O)ccc3[C@@]1(N)CC(=C2)C
INCHIKEY=ZRJBHWIHUMBLCN-SEQYCRGISA-N
INCHI=N/A
MSLEVEL=2
SOURCE_INSTRUMENT=LC-ESI-qTof
FILENAME=NCP003672_A27B27C27D27_BE4_01_15740.mzXML
SEQ=*..*
IONMODE=Positive
ORGANISM=GNPS-NIH-CLINICALCOLLECTION1
NAME="(5R,9R,Z)-5-amino-11-ethylidene-7-methyl-5,6,9,10-tetrahydro-5,9-methanocycloocta[b]pyridin-2-ol" [M+H]
PI=Dorrestein
DATACOLLECTOR=Garg_Neha
PUBMED=N/A
SUBMITUSER=negarg
TAGS=
SPECTRUMID=CCMSLIB00000079225
SCANS=989
45.009075 140.0 
55.146824 168.0 
56.552402 184.0 
56.796635 176.0 
58.803005 140.0 
59.198963 140.0 
59.488743 212.0 
61.410622 140.0 
63.604092 176.0 
63.882175 212.0 
64.576042 212.0 
67.295876 144.0 
68.030968 272.0 
68.661156 156.0 
68.991394 168.0 
69.167633 148.0 
70.448845 144.0 
70.500641 176.0 
71.038101 176.0 
72.249352 168.0 
74.472237 160.0 
76.451843 140.0 
76.706131 176.0 
78.070053 140.0 
81.529747 204.0 
82.021103 220.0 
82.519356 216.0 
82.660439 212.0 
83.808022 152.0 
84.276939 192.0 
84.397575 168.0 
84.78199 160.0 
92.116096 144.0 
92.247948 160.0 
94.128891 176.0 
94.949417 192.0 
95.868958 264.0 
96.438843 176.0 
96.612869 148.0 
99.191574 144.0 
99.490181 160.0 
101.118713 152.0 
101.734077 188.0 
103.052101 200.0 
103.170448 156.0 
104.047661 192.0 
104.378838 152.0 
104.800179 168.0 
105.03054 176.0 
105.395973 144.0 
106.066689 352.0 
106.165649 168.0 
106.340034 216.0 
106.997826 196.0 
108.66362 180.0 
109.029076 140.0 
110.074829 144.0 
110.607956 228.0 
110.909576 140.0 
113.479385 148.0 
115.05674 204.0 
115.278023 180.0 
116.055573 128.0 
116.301735 248.0 
116.417671 140.0 
117.056343 216.0 
119.070869 144.0 
119.447891 196.0 
120.035927 152.0 
121.010437 176.0 
125.014633 168.0 
127.054932 120.0 
127.229675 160.0 
127.276825 144.0 
127.541924 208.0 
128.036896 144.0 
128.06134 292.0 
129.050079 152.0 
129.068542 1012.0 
130.064987 196.0 
130.519348 148.0 
131.074631 152.0 
131.314117 140.0 
132.043839 180.0 
132.081558 140.0 
132.848953 192.0 
133.053162 340.0 
133.618561 156.0 
134.058517 804.0 
134.094238 248.0 
135.053314 260.0 
135.100647 112.0 
136.117126 144.0 
137.084824 148.0 
138.458466 148.0 
138.83812 192.0 
139.056427 148.0 
140.053207 204.0 
141.068375 264.0 
142.076508 364.0 
142.582443 216.0 
143.085739 212.0 
144.076492 300.0 
144.167236 152.0 
145.273407 144.0 
145.419785 156.0 
146.059174 708.0 
147.054016 280.0 
147.541946 172.0 
148.622147 168.0 
150.484131 140.0 
151.075546 152.0 
151.680405 140.0 
152.06633 256.0 
152.107208 228.0 
153.069153 396.0 
153.36937 160.0 
153.43808 228.0 
154.064728 620.0 
155.06929 316.0 
156.083008 1096.0 
157.064255 208.0 
157.090164 204.0 
158.063721 512.0 
158.093094 276.0 
159.067947 232.0 
159.100586 148.0 
159.821899 164.0 
160.072449 164.0 
160.9991 172.0 
161.08252 320.0 
162.162872 200.0 
162.251587 180.0 
162.931732 144.0 
163.447861 172.0 
163.587845 192.0 
164.08461 168.0 
165.068481 692.0 
165.461655 172.0 
165.743393 184.0 
165.976654 176.0 
166.067596 692.0 
166.795609 184.0 
167.075668 568.0 
167.22258 152.0 
168.082031 1644.0 
169.089966 840.0 
169.274963 188.0 
169.873657 148.0 
170.062607 416.0 
170.095459 1024.0 
170.369492 144.0 
171.069794 416.0 
171.097656 148.0 
172.078629 672.0 
172.116287 156.0 
173.079407 148.0 
176.560837 164.0 
177.05838 240.0 
177.384277 184.0 
178.064941 1020.0 
178.94635 184.0 
179.069473 520.0 
180.080139 1416.0 
181.099625 1492.0 
182.060577 1972.0 
182.09639 1040.0 
182.776566 244.0 
183.066101 2056.0 
183.104294 740.0 
184.07637 2652.0 
184.117477 160.0 
185.074936 324.0 
185.120148 172.0 
186.090149 484.0 
187.087112 584.0 
187.641144 152.0 
188.097015 144.0 
188.80983 160.0 
190.064316 136.0 
191.074997 316.0 
192.080811 588.0 
192.321106 208.0 
192.995163 164.0 
193.088272 1512.0 
194.093323 144.0 
195.070969 156.0 
195.091003 340.0 
196.075333 4628.0 
196.16568 208.0 
197.083603 6480.0 
198.092163 3136.0 
198.127487 1228.0 
199.095718 496.0 
199.12883 252.0 
199.15007 220.0 
200.090622 112.0 
200.529953 232.0 
200.634247 148.0 
201.463928 168.0 
202.105713 156.0 
203.832535 152.0 
204.381317 148.0 
206.093491 412.0 
207.101944 140.0 
207.282425 152.0 
208.045349 148.0 
208.111557 1712.0 
209.107834 700.0 
210.090317 4800.0 
210.124481 232.0 
210.227066 224.0 
211.098312 4064.0 
211.131271 168.0 
212.103027 768.0 
213.103577 704.0 
213.268036 152.0 
216.14061 184.0 
218.446609 240.0 
220.111801 144.0 
221.753662 168.0 
224.002945 204.0 
224.107651 1432.0 
225.110809 460.0 
225.621796 128.0 
225.937836 164.0 
226.001007 164.0 
226.123444 42996.0 
226.211731 112.0 
226.42218 108.0 
226.492004 152.0 
226.94191 128.0 
226.976669 140.0 
227.072632 180.0 
227.124191 5788.0 
227.54538 96.0 
228.129379 744.0 
228.173782 124.0 
228.614838 244.0 
228.652939 180.0 
228.683029 148.0 
228.821503 140.0 
229.136505 180.0 
232.406097 200.0 
233.940872 152.0 
238.55986 212.0 
243.078735 160.0 
243.149323 14716.0 
243.336349 196.0 
243.384018 256.0 
243.861328 180.0 
244.151855 2868.0 
245.101334 192.0 
245.153488 540.0 
1095.343018 176.0 
1467.925415 172.0 
1520.469604 152.0 
1533.792847 180.0 
1556.918091 116.0 
1596.792358 160.0 
1744.022583 140.0 
1751.028076 188.0 
1796.391724 164.0 
1840.678467 256.0 
1895.70752 176.0 
1956.958252 144.0 
1964.863892 204.0 
1973.492798 176.0 
1988.321533 168.0 
END IONS

