BEGIN IONS
PEPMASS=271.061
CHARGE=1+
COMPOUNDNAME=MLS001066370-01!518-82-1
LIBRARYQUALITY=1
SMILES=Cc1cc(O)c2C(=O)c3c(O)cc(O)cc3C(=O)c2c1
INCHIKEY=RHMXXJGYXNZAPX-UHFFFAOYSA-N
INCHI=N/A
MSLEVEL=2
SOURCE_INSTRUMENT=LC-ESI-qTof
FILENAME=p3-F02_GF2_01_18283.mzXML
SEQ=*..*
IONMODE=Positive
ORGANISM=GNPS-NIH-SMALLMOLECULEPHARMACOLOGICALLYACTIVE
NAME=MLS001066370-01!518-82-1 M+H
PI=Dorrestein
DATACOLLECTOR=VP/LMS
PUBMED=N/A
SUBMITUSER=vphelan
TAGS=
SPECTRUMID=CCMSLIB00000085113
SCANS=2342
45.282108 160.0 
45.69828 180.0 
45.770969 144.0 
47.288879 120.0 
48.156521 160.0 
48.564857 176.0 
48.693947 108.0 
48.75647 168.0 
49.544895 200.0 
49.922489 152.0 
50.697571 112.0 
51.16634 168.0 
52.605797 144.0 
53.136959 72.0 
54.403831 136.0 
55.150719 132.0 
55.335644 228.0 
56.097824 140.0 
56.743702 200.0 
56.908752 156.0 
57.642353 108.0 
58.40955 132.0 
60.065556 188.0 
61.716557 228.0 
62.247784 104.0 
63.458103 140.0 
65.026161 224.0 
67.742561 208.0 
68.397797 208.0 
69.104156 132.0 
70.095497 148.0 
70.118828 148.0 
70.664902 208.0 
70.825623 208.0 
70.86248 56.0 
70.922813 180.0 
72.554703 180.0 
72.970673 144.0 
73.099953 128.0 
75.035606 124.0 
78.132477 128.0 
78.259201 32.0 
78.537659 208.0 
79.608467 144.0 
82.135811 120.0 
83.178131 144.0 
83.343407 120.0 
83.818344 204.0 
84.459183 168.0 
85.175919 172.0 
85.679993 128.0 
87.065506 152.0 
87.625427 168.0 
89.357353 116.0 
89.762337 144.0 
90.451965 144.0 
91.053596 364.0 
91.294411 236.0 
91.478973 216.0 
92.054802 188.0 
93.225327 264.0 
93.242622 76.0 
93.321442 148.0 
93.40799 212.0 
93.563873 132.0 
95.005646 72.0 
96.114708 116.0 
96.323616 204.0 
97.067368 200.0 
98.320541 48.0 
98.976875 196.0 
99.244385 152.0 
99.520195 44.0 
100.535439 168.0 
100.970978 180.0 
103.054253 576.0 
103.257828 120.0 
105.028328 184.0 
106.474098 52.0 
106.673409 140.0 
106.747429 212.0 
107.088173 100.0 
108.084976 132.0 
108.260132 56.0 
108.427948 224.0 
108.473549 144.0 
108.741135 148.0 
108.820023 180.0 
109.027748 124.0 
109.099167 352.0 
109.214882 144.0 
109.541695 184.0 
109.643799 116.0 
109.716751 180.0 
110.102791 172.0 
110.608795 116.0 
110.721863 172.0 
111.081573 244.0 
112.32354 80.0 
112.581039 132.0 
114.899048 132.0 
115.029228 96.0 
115.053162 2288.0 
115.276993 68.0 
115.390282 80.0 
115.574226 160.0 
115.888992 180.0 
115.951141 228.0 
116.056183 96.0 
116.373749 176.0 
117.067711 184.0 
117.34845 176.0 
117.512375 184.0 
118.074036 136.0 
118.123787 156.0 
118.398674 68.0 
119.049301 124.0 
119.084053 120.0 
120.107094 144.0 
120.185638 120.0 
121.097198 172.0 
121.204628 96.0 
121.382187 192.0 
123.041252 160.0 
124.132118 180.0 
125.095047 200.0 
126.093506 184.0 
126.142685 52.0 
126.480469 176.0 
127.056572 200.0 
127.112503 56.0 
127.635902 156.0 
128.007202 124.0 
128.06543 188.0 
128.399338 140.0 
128.485062 64.0 
128.582092 220.0 
129.246506 200.0 
129.291763 84.0 
130.591827 88.0 
131.051697 196.0 
131.083603 292.0 
132.051605 164.0 
133.059433 172.0 
133.100449 212.0 
135.045105 612.0 
135.079117 184.0 
135.511703 48.0 
136.049774 132.0 
136.407532 140.0 
136.458679 252.0 
136.53775 72.0 
137.021622 368.0 
137.10582 224.0 
137.366974 120.0 
137.724121 52.0 
137.871323 228.0 
138.418747 180.0 
138.976639 164.0 
139.056427 300.0 
139.072861 156.0 
140.062027 232.0 
141.069412 1932.0 
141.6763 92.0 
142.070694 560.0 
142.281067 108.0 
142.982315 260.0 
143.048965 168.0 
143.07753 148.0 
143.170395 56.0 
143.4897 104.0 
144.057709 448.0 
144.076828 196.0 
144.480865 204.0 
144.696274 72.0 
144.839966 148.0 
144.873505 188.0 
144.990906 112.0 
145.063553 1256.0 
145.091583 140.0 
146.065323 236.0 
146.87117 228.0 
147.037659 176.0 
147.076279 248.0 
147.107651 188.0 
148.411728 152.0 
148.4384 40.0 
149.020981 116.0 
149.135818 224.0 
149.283508 128.0 
149.797073 124.0 
150.045654 136.0 
150.773087 156.0 
151.049393 172.0 
151.151718 228.0 
151.250046 160.0 
152.058228 272.0 
153.066635 184.0 
153.084122 244.0 
153.158005 84.0 
153.379318 108.0 
153.44635 132.0 
154.043594 184.0 
155.046188 228.0 
155.102722 88.0 
156.05014 212.0 
157.768921 112.0 
157.79892 104.0 
157.818924 172.0 
158.186707 144.0 
158.417099 164.0 
158.883392 172.0 
159.079147 116.0 
159.403152 228.0 
160.68483 220.0 
160.757996 140.0 
161.270706 136.0 
161.609589 120.0 
162.590286 136.0 
162.625824 160.0 
163.070328 140.0 
163.126251 224.0 
163.324585 108.0 
163.6147 196.0 
164.897812 144.0 
165.867935 140.0 
165.993561 168.0 
167.142654 460.0 
168.059814 532.0 
168.891037 208.0 
169.062759 2972.0 
169.1064 152.0 
169.15239 40.0 
169.369904 52.0 
169.450211 48.0 
169.470947 64.0 
169.504623 52.0 
169.652374 48.0 
169.794983 116.0 
170.066635 892.0 
170.267349 44.0 
170.345276 48.0 
170.454391 72.0 
170.792389 64.0 
171.107269 132.0 
172.066727 200.0 
172.23909 72.0 
173.057465 984.0 
173.167664 40.0 
173.227921 160.0 
173.678787 180.0 
174.059647 392.0 
174.798019 60.0 
175.034927 108.0 
175.061264 180.0 
175.775681 92.0 
176.037018 64.0 
176.250992 180.0 
177.121414 216.0 
177.497772 140.0 
179.028473 116.0 
179.049515 168.0 
181.07695 264.0 
181.240356 60.0 
181.878662 208.0 
182.563797 116.0 
183.043747 376.0 
184.051529 156.0 
184.102631 164.0 
185.13031 264.0 
187.077164 128.0 
187.968445 188.0 
189.05336 76.0 
191.598801 144.0 
195.13623 224.0 
196.054642 160.0 
196.221588 236.0 
197.022827 160.0 
197.057388 3756.0 
197.410919 52.0 
197.654739 188.0 
198.062866 744.0 
198.130722 180.0 
199.059158 156.0 
200.045166 304.0 
200.147415 128.0 
200.251617 92.0 
201.054169 1408.0 
202.059189 224.0 
202.14035 56.0 
202.933487 112.0 
203.030838 180.0 
203.069717 368.0 
203.711945 180.0 
204.746506 96.0 
205.085556 172.0 
205.139725 208.0 
207.044128 224.0 
207.808105 64.0 
208.043396 192.0 
208.385223 88.0 
209.15596 136.0 
209.807022 232.0 
210.031952 116.0 
211.034088 100.0 
213.089096 36.0 
215.116104 176.0 
216.314667 192.0 
216.654373 132.0 
219.0457 164.0 
219.222488 100.0 
220.497437 128.0 
224.036118 164.0 
225.053864 3368.0 
225.14415 52.0 
225.460831 52.0 
225.604309 36.0 
225.945251 160.0 
226.057297 928.0 
227.058044 180.0 
227.379868 64.0 
228.062424 184.0 
229.046417 1804.0 
229.607025 28.0 
229.923813 112.0 
230.051102 276.0 
231.46257 152.0 
240.481796 68.0 
242.805405 172.0 
243.062134 184.0 
247.664642 108.0 
250.208344 132.0 
252.033112 116.0 
252.730225 196.0 
253.050598 384.0 
254.089493 124.0 
254.962738 156.0 
257.304016 160.0 
265.818054 172.0 
267.755646 152.0 
268.717285 176.0 
270.053406 104.0 
270.164642 92.0 
270.21698 140.0 
270.583557 48.0 
270.816071 164.0 
270.861267 204.0 
270.947083 64.0 
271.059143 6272.0 
271.114197 116.0 
271.248596 48.0 
271.346954 32.0 
271.553528 48.0 
271.983368 68.0 
272.063202 804.0 
272.315033 108.0 
273.089691 220.0 
273.432892 52.0 
273.67981 60.0 
273.795044 32.0 
274.220062 216.0 
275.246094 56.0 
276.581787 76.0 
282.869995 60.0 
288.978455 64.0 
293.78598 68.0 
308.81015 108.0 
310.979004 156.0 
338.640503 44.0 
354.348541 56.0 
356.26947 112.0 
406.848724 20.0 
595.598083 120.0 
624.721558 52.0 
706.881042 20.0 
932.396301 40.0 
951.412109 88.0 
1046.574097 200.0 
1155.826416 188.0 
1160.778198 180.0 
1194.946045 156.0 
1211.911011 204.0 
1215.003296 168.0 
1224.109009 192.0 
1238.566528 124.0 
1250.383789 176.0 
1308.755615 224.0 
1310.14563 180.0 
1321.980347 180.0 
1322.040894 172.0 
1328.450684 168.0 
1336.930298 192.0 
1339.974121 124.0 
1346.101318 168.0 
1347.613403 228.0 
1349.338257 136.0 
1352.908569 176.0 
1365.471313 112.0 
1384.490845 196.0 
1402.092041 188.0 
1421.048096 180.0 
1425.884155 156.0 
1427.056885 168.0 
1432.950317 172.0 
1442.633423 188.0 
1447.710571 48.0 
1450.453369 128.0 
1460.758179 104.0 
1465.356567 40.0 
1466.34729 164.0 
1470.511719 216.0 
1482.580688 152.0 
1488.933228 128.0 
END IONS

