BEGIN IONS
PEPMASS=276.171
CHARGE=1+
COMPOUNDNAME=Physostigmine
LIBRARYQUALITY=1
SMILES=CNC(=O)Oc1ccc2N(C)C3N(C)CC[C@@]3(C)c2c1
INCHIKEY=PIJVFDBKTWXHHD-WUJWULDRSA-N
INCHI=N/A
MSLEVEL=2
SOURCE_INSTRUMENT=LC-ESI-qTof
FILENAME=NCP003512_A2_B11_BD4_01_15728.mzXML
SEQ=*..*
IONMODE=Positive
ORGANISM=GNPS-NIH-CLINICALCOLLECTION1
NAME=Physostigmine [M+H]
PI=Dorrestein
DATACOLLECTOR=Garg_Neha
PUBMED=N/A
SUBMITUSER=negarg
TAGS=
SPECTRUMID=CCMSLIB00000079263
SCANS=1024
45.106106 164.0 
45.13953 172.0 
45.239876 152.0 
45.287437 116.0 
45.395298 192.0 
45.413597 180.0 
45.907654 180.0 
46.183167 152.0 
46.919174 188.0 
47.461971 140.0 
47.892117 184.0 
47.904514 140.0 
48.183186 144.0 
48.245373 160.0 
48.562473 188.0 
48.776302 156.0 
49.40942 204.0 
49.630711 180.0 
49.817085 156.0 
49.831421 168.0 
49.894665 148.0 
50.125496 220.0 
50.767281 224.0 
50.958904 156.0 
51.163704 156.0 
51.514519 144.0 
51.585968 196.0 
51.651749 164.0 
51.704685 220.0 
51.850765 192.0 
52.088943 144.0 
52.143543 204.0 
52.412647 224.0 
53.507637 188.0 
53.699986 148.0 
53.892681 144.0 
54.352448 208.0 
54.719898 160.0 
55.087112 204.0 
55.264523 164.0 
55.350372 156.0 
55.526718 164.0 
55.600899 196.0 
56.030628 152.0 
56.479958 208.0 
56.673077 164.0 
57.137009 228.0 
58.059921 168.0 
58.149433 144.0 
58.258759 156.0 
58.752003 176.0 
58.845554 148.0 
58.973419 172.0 
59.088104 172.0 
59.335106 172.0 
59.37608 140.0 
59.526474 232.0 
59.87402 148.0 
60.032753 148.0 
60.312195 144.0 
60.367855 196.0 
60.818695 176.0 
60.84198 164.0 
61.26342 164.0 
61.464546 160.0 
61.561329 144.0 
61.587879 180.0 
61.841171 160.0 
62.187557 148.0 
62.35561 148.0 
62.608902 148.0 
62.654579 140.0 
62.772793 180.0 
63.657372 168.0 
64.20002 168.0 
64.373962 208.0 
64.404312 144.0 
65.30188 168.0 
65.744926 180.0 
66.113388 184.0 
66.251015 168.0 
66.828987 140.0 
67.09446 152.0 
67.823532 172.0 
67.985901 188.0 
68.675247 152.0 
69.25705 156.0 
69.653481 164.0 
69.741547 172.0 
69.837982 148.0 
70.371246 164.0 
70.414658 148.0 
70.804337 156.0 
71.044029 192.0 
71.230362 156.0 
71.289162 192.0 
71.418617 216.0 
71.699791 168.0 
71.81443 184.0 
72.695862 164.0 
73.253532 172.0 
73.273972 172.0 
73.412041 156.0 
74.078613 212.0 
74.107735 188.0 
75.218697 220.0 
75.90728 156.0 
76.014824 256.0 
76.039124 152.0 
76.096085 216.0 
76.470146 216.0 
76.672173 148.0 
76.769798 156.0 
77.070038 192.0 
77.535507 200.0 
77.965477 140.0 
78.15715 140.0 
78.352577 144.0 
78.460083 160.0 
78.486526 228.0 
78.705322 236.0 
79.009323 180.0 
79.503677 160.0 
79.614517 256.0 
79.791428 200.0 
80.002647 152.0 
80.076134 168.0 
80.359566 160.0 
80.679253 188.0 
81.392326 192.0 
81.937302 208.0 
81.969734 188.0 
82.447945 184.0 
82.826088 164.0 
83.510368 196.0 
83.739693 152.0 
84.290634 140.0 
84.456398 244.0 
84.546646 152.0 
84.817711 144.0 
84.847038 176.0 
84.927727 148.0 
85.045151 188.0 
85.076363 152.0 
85.291283 168.0 
85.333565 140.0 
85.451271 144.0 
85.532242 192.0 
85.956123 164.0 
86.266403 144.0 
86.340363 164.0 
86.532806 180.0 
86.603172 164.0 
86.999992 204.0 
87.177238 176.0 
87.383972 188.0 
88.001617 164.0 
88.510193 152.0 
88.847557 160.0 
88.947014 140.0 
89.593903 172.0 
90.9972 156.0 
91.514343 192.0 
91.828773 164.0 
91.90126 184.0 
93.408981 168.0 
93.651512 188.0 
94.062218 144.0 
94.100822 216.0 
95.071472 196.0 
95.393005 140.0 
95.591385 144.0 
95.963417 188.0 
96.169785 228.0 
96.33226 164.0 
96.471008 164.0 
96.74292 236.0 
96.827118 152.0 
97.287903 176.0 
97.85804 176.0 
98.061462 164.0 
98.419968 172.0 
98.914215 212.0 
99.743355 152.0 
101.211685 192.0 
101.289795 176.0 
101.454109 240.0 
101.785156 164.0 
101.947868 192.0 
102.311928 204.0 
102.340111 240.0 
102.410599 148.0 
102.515358 184.0 
102.842072 168.0 
103.746262 176.0 
103.908508 168.0 
104.298401 140.0 
104.37159 148.0 
104.542458 192.0 
104.715508 236.0 
105.121193 200.0 
105.239586 192.0 
105.278381 156.0 
105.523582 232.0 
106.008682 168.0 
106.043526 280.0 
106.074272 296.0 
106.462044 156.0 
107.229408 208.0 
108.06366 144.0 
108.467484 224.0 
108.506874 208.0 
108.554565 164.0 
108.739197 140.0 
109.146362 184.0 
109.217857 212.0 
109.423088 152.0 
109.675148 144.0 
110.061089 192.0 
110.134186 172.0 
110.175964 160.0 
110.531395 228.0 
110.929321 192.0 
111.078201 140.0 
111.359467 144.0 
111.556976 164.0 
112.342461 168.0 
112.773216 152.0 
113.007942 160.0 
113.175156 176.0 
113.346725 156.0 
114.476807 168.0 
115.033272 200.0 
115.484123 156.0 
116.859184 160.0 
116.975395 180.0 
117.067703 172.0 
117.207993 144.0 
117.475334 212.0 
118.069305 176.0 
118.216415 188.0 
118.443741 164.0 
118.484077 180.0 
118.54557 168.0 
118.601913 160.0 
118.80471 200.0 
119.70121 172.0 
120.694038 196.0 
121.025459 188.0 
121.068085 480.0 
121.11203 184.0 
121.164604 144.0 
121.241295 216.0 
121.256638 188.0 
121.392555 140.0 
121.987549 168.0 
122.06546 148.0 
122.093086 144.0 
123.030373 224.0 
123.060432 140.0 
123.250381 204.0 
123.717041 144.0 
124.315483 160.0 
124.453102 192.0 
124.748581 160.0 
124.828621 184.0 
125.102287 164.0 
125.728607 176.0 
125.784401 192.0 
125.804497 180.0 
126.08593 188.0 
126.128395 156.0 
126.213348 140.0 
126.311745 164.0 
127.634933 176.0 
128.051682 292.0 
128.190933 160.0 
128.702972 200.0 
128.784271 160.0 
129.012482 236.0 
129.306534 192.0 
130.024979 228.0 
130.911575 144.0 
131.046112 352.0 
131.069855 192.0 
131.278473 148.0 
132.082397 164.0 
132.16246 164.0 
132.897964 172.0 
133.067856 292.0 
133.08847 172.0 
133.14357 148.0 
133.24234 148.0 
133.474487 148.0 
133.605713 204.0 
134.063599 156.0 
134.098068 2316.0 
134.555084 184.0 
134.765244 208.0 
135.019516 152.0 
135.08136 380.0 
135.100067 256.0 
135.990265 168.0 
136.062225 200.0 
136.229431 148.0 
136.51532 192.0 
136.557175 152.0 
137.020401 156.0 
137.736557 192.0 
138.440536 152.0 
138.766235 156.0 
139.764465 160.0 
140.494827 140.0 
140.74736 168.0 
140.943405 144.0 
141.059891 168.0 
141.167969 156.0 
141.210541 200.0 
141.338287 156.0 
141.572632 144.0 
141.826126 260.0 
141.873642 100.0 
142.954239 156.0 
143.137527 176.0 
143.346771 176.0 
143.402557 160.0 
143.645157 196.0 
144.043808 336.0 
144.080811 572.0 
144.122635 140.0 
144.187164 232.0 
144.249298 164.0 
144.51236 168.0 
144.612869 188.0 
144.699051 180.0 
144.881058 164.0 
145.039215 188.0 
145.064819 176.0 
145.086639 744.0 
145.120728 152.0 
145.343781 256.0 
145.821671 156.0 
146.059891 3760.0 
146.637558 144.0 
146.772552 176.0 
146.87384 148.0 
147.001709 184.0 
147.068359 28200.0 
147.226151 304.0 
147.565201 124.0 
147.726944 96.0 
147.961563 100.0 
148.07164 2716.0 
148.116837 308.0 
148.179245 140.0 
148.814682 148.0 
148.940964 140.0 
149.072815 264.0 
149.113464 216.0 
149.753342 192.0 
149.858093 200.0 
149.977493 252.0 
151.362686 292.0 
151.607651 148.0 
152.615662 160.0 
152.980637 172.0 
153.678085 180.0 
153.907639 168.0 
154.575027 200.0 
154.70372 148.0 
155.157074 144.0 
155.35051 172.0 
157.064392 228.0 
157.081863 180.0 
157.328903 184.0 
157.353867 220.0 
157.51619 140.0 
159.076965 224.0 
159.10553 168.0 
159.32988 180.0 
159.528397 156.0 
159.618912 160.0 
159.719513 188.0 
160.076172 4576.0 
160.111237 604.0 
160.356522 144.0 
160.924103 148.0 
161.00238 148.0 
161.046524 100.0 
161.084152 15080.0 
161.16037 212.0 
161.189301 164.0 
161.444626 168.0 
161.578674 180.0 
161.639404 184.0 
161.662186 168.0 
161.696991 132.0 
161.758362 176.0 
161.834305 164.0 
161.861343 200.0 
161.902969 140.0 
161.948868 100.0 
161.978775 176.0 
162.005615 360.0 
162.037125 152.0 
162.092377 167628.0 
162.208557 244.0 
162.288727 168.0 
162.351791 184.0 
162.506454 264.0 
162.575897 184.0 
162.681793 128.0 
162.785172 176.0 
162.813721 172.0 
162.835327 96.0 
162.861404 156.0 
162.882507 132.0 
162.940948 96.0 
162.974823 168.0 
163.048065 180.0 
163.094864 14008.0 
163.143417 180.0 
163.16568 128.0 
163.304977 192.0 
163.456238 140.0 
163.709198 108.0 
164.01442 96.0 
164.054764 184.0 
164.098099 1356.0 
164.168152 144.0 
164.318909 148.0 
164.355072 192.0 
164.396408 152.0 
164.437012 140.0 
165.425873 136.0 
165.66214 196.0 
166.914612 224.0 
167.586411 148.0 
167.918945 196.0 
168.03244 152.0 
168.133072 204.0 
168.840927 232.0 
169.141068 148.0 
169.236847 148.0 
169.467361 260.0 
169.664337 184.0 
169.762863 160.0 
170.106766 188.0 
170.137512 160.0 
171.103668 136.0 
171.259827 184.0 
172.077789 216.0 
172.896805 148.0 
172.949158 152.0 
173.083755 3900.0 
174.087097 452.0 
174.389099 160.0 
174.954636 208.0 
174.996765 216.0 
175.096008 360.0 
175.692535 204.0 
175.732101 184.0 
175.944046 184.0 
176.107407 39372.0 
176.167282 188.0 
176.593277 232.0 
176.710495 124.0 
176.945221 172.0 
177.03714 112.0 
177.067017 152.0 
177.111038 3168.0 
177.178192 144.0 
178.11702 288.0 
178.444336 140.0 
179.76535 224.0 
179.941513 204.0 
180.976212 144.0 
181.284256 140.0 
182.59433 156.0 
183.63121 172.0 
183.933411 156.0 
183.952301 204.0 
184.071091 176.0 
184.947021 220.0 
185.408707 112.0 
186.05571 140.0 
186.259384 172.0 
186.618103 200.0 
186.963562 228.0 
187.105103 160.0 
187.614532 140.0 
188.029144 184.0 
188.107773 15336.0 
188.407639 96.0 
188.509781 184.0 
189.11203 1724.0 
190.109818 640.0 
190.595047 184.0 
194.516754 160.0 
194.675003 160.0 
196.038086 148.0 
198.95816 212.0 
200.079865 148.0 
201.266846 144.0 
201.309189 156.0 
202.143097 148.0 
203.123367 196.0 
204.182785 164.0 
207.053833 200.0 
207.285873 180.0 
210.106445 140.0 
210.568298 168.0 
211.890213 140.0 
213.949677 200.0 
216.246506 176.0 
217.101959 176.0 
217.448135 168.0 
218.098175 152.0 
218.139374 268.0 
218.223831 120.0 
218.470688 200.0 
218.678314 156.0 
218.748703 164.0 
218.917847 204.0 
219.000626 124.0 
219.032639 176.0 
219.078674 440.0 
219.114395 133280.0 
219.315689 124.0 
219.346024 120.0 
219.409363 140.0 
219.434875 184.0 
219.495071 236.0 
219.59761 480.0 
219.657349 200.0 
219.755173 140.0 
219.784515 120.0 
219.862 100.0 
219.945114 176.0 
220.064789 120.0 
220.116867 14784.0 
220.198563 152.0 
220.74231 180.0 
221.032089 132.0 
221.118759 1480.0 
221.30278 208.0 
221.38205 196.0 
221.567505 256.0 
221.588242 172.0 
221.642456 156.0 
221.688339 120.0 
221.767578 116.0 
221.843643 132.0 
225.928909 144.0 
227.12413 184.0 
228.490936 156.0 
231.832504 152.0 
232.094162 180.0 
232.722229 144.0 
232.835617 164.0 
233.129318 18832.0 
233.388184 112.0 
234.13205 3148.0 
235.131332 288.0 
235.843277 140.0 
245.128784 6268.0 
245.964188 160.0 
246.135254 808.0 
247.624451 152.0 
261.142914 168.0 
262.124817 160.0 
262.360077 152.0 
273.784302 184.0 
276.171509 7896.0 
277.174683 1272.0 
277.564697 172.0 
278.150452 500.0 
278.212372 168.0 
278.852722 212.0 
765.73291 160.0 
1212.353638 152.0 
1304.159424 140.0 
1325.398193 148.0 
1327.609009 220.0 
1344.282349 148.0 
1350.960327 140.0 
1373.821533 160.0 
1383.606079 196.0 
1401.356323 200.0 
1409.877808 208.0 
1447.680542 148.0 
1471.525879 164.0 
1480.127563 160.0 
1507.605103 180.0 
1512.454346 216.0 
1546.945923 176.0 
1558.325195 216.0 
1559.41748 240.0 
1559.480347 188.0 
1564.144653 144.0 
1596.830444 152.0 
1597.498535 276.0 
1612.448853 224.0 
1615.583252 176.0 
1627.57312 164.0 
1634.147827 152.0 
1638.229492 148.0 
1640.187622 280.0 
1642.703369 152.0 
1644.83374 200.0 
1668.756348 240.0 
1670.049316 168.0 
1684.599243 188.0 
1686.584839 168.0 
1689.479614 148.0 
1691.672729 144.0 
1695.817383 236.0 
1701.075073 140.0 
1716.080811 172.0 
1716.789917 156.0 
1717.557007 192.0 
1721.650635 176.0 
1722.022217 148.0 
1742.025757 152.0 
1748.494629 164.0 
1755.550781 160.0 
1756.292969 192.0 
1762.253418 188.0 
1764.501709 168.0 
1768.818237 200.0 
1770.693726 184.0 
1799.485962 148.0 
1804.36084 228.0 
1809.047485 184.0 
1809.826416 144.0 
1810.402222 224.0 
1826.017578 180.0 
1826.170654 192.0 
1829.038086 240.0 
1830.09375 168.0 
1839.684814 164.0 
1843.075439 252.0 
1843.739624 188.0 
1844.5625 156.0 
1846.187012 148.0 
1850.054321 172.0 
1853.934326 156.0 
1854.028687 148.0 
1854.73999 148.0 
1861.122681 216.0 
1861.569214 172.0 
1863.312866 156.0 
1875.601318 156.0 
1886.598755 240.0 
1897.073486 144.0 
1899.917847 152.0 
1900.551147 152.0 
1904.284058 164.0 
1904.431641 152.0 
1904.978882 156.0 
1909.446533 172.0 
1913.423096 188.0 
1919.853516 196.0 
1931.548218 148.0 
1933.359375 204.0 
1934.943604 196.0 
1937.746216 224.0 
1940.340332 216.0 
1941.910034 152.0 
1943.15564 140.0 
1945.288208 144.0 
1945.674438 140.0 
1946.561157 156.0 
1948.774658 180.0 
1953.064697 168.0 
1954.076294 148.0 
1960.583496 164.0 
1977.407471 140.0 
1979.549927 224.0 
1979.673828 176.0 
1982.606079 148.0 
1991.353638 216.0 
1993.947998 208.0 
1995.992554 156.0 
1996.570557 192.0 
1999.266113 148.0 
2001.277832 184.0 
2001.642944 268.0 
2001.990234 148.0 
END IONS

