BEGIN IONS
PEPMASS=353.073
CHARGE=1+
COMPOUNDNAME=MLS001183742-01!
LIBRARYQUALITY=1
SMILES=COC1=CC(=O)CC(C)C21Oc3c(C2=O)c(OC)cc(OC)c3Cl
INCHIKEY=DDUHZTYCFQRHIY-UHFFFAOYSA-N
INCHI=N/A
MSLEVEL=2
SOURCE_INSTRUMENT=LC-ESI-qTof
FILENAME=p3-H04_GH4_01_18309.mzXML
SEQ=*..*
IONMODE=Positive
ORGANISM=GNPS-NIH-SMALLMOLECULEPHARMACOLOGICALLYACTIVE
NAME=MLS001183742-01! M+H
PI=Dorrestein
DATACOLLECTOR=VP/LMS
PUBMED=N/A
SUBMITUSER=vphelan
TAGS=
SPECTRUMID=CCMSLIB00000085321
SCANS=1993
45.241657 136.0 
45.26844 196.0 
45.486992 160.0 
45.499077 140.0 
46.048515 52.0 
46.180977 112.0 
46.438335 188.0 
46.538765 132.0 
46.603966 276.0 
46.843426 160.0 
47.187355 148.0 
47.392673 232.0 
47.81015 240.0 
48.203197 124.0 
48.468895 140.0 
48.570107 124.0 
48.781189 140.0 
48.835621 120.0 
48.900818 132.0 
49.090302 184.0 
49.242428 132.0 
49.26897 112.0 
49.557201 156.0 
49.669361 120.0 
49.710049 156.0 
49.934841 128.0 
49.964382 160.0 
50.019272 184.0 
50.294155 192.0 
50.305447 156.0 
50.373234 228.0 
50.466515 152.0 
50.483482 76.0 
50.663254 96.0 
50.688759 108.0 
50.81496 152.0 
51.063568 164.0 
51.224419 136.0 
51.23439 164.0 
51.344154 156.0 
51.548309 40.0 
51.858147 288.0 
51.937752 128.0 
52.317139 156.0 
52.419407 36.0 
52.586708 144.0 
52.597679 160.0 
53.252769 76.0 
53.583 172.0 
53.62672 232.0 
53.920097 64.0 
54.092701 48.0 
54.129307 256.0 
54.15274 196.0 
54.33305 200.0 
54.775566 96.0 
55.002663 60.0 
55.265736 216.0 
55.545753 124.0 
55.609562 108.0 
55.775928 124.0 
56.175026 144.0 
56.387066 172.0 
56.493237 108.0 
56.693886 200.0 
56.915909 128.0 
57.064667 124.0 
57.175987 160.0 
57.270847 200.0 
57.580055 224.0 
57.882526 148.0 
58.015865 188.0 
58.109898 180.0 
58.125072 140.0 
58.207047 144.0 
58.686378 112.0 
59.06361 232.0 
59.172268 140.0 
59.356144 140.0 
59.472748 172.0 
59.838634 92.0 
60.319988 144.0 
60.369465 128.0 
60.388023 184.0 
61.233948 172.0 
61.463123 112.0 
61.611454 192.0 
61.658333 124.0 
61.669277 100.0 
61.705231 200.0 
61.78656 192.0 
61.817856 220.0 
61.875774 180.0 
62.192448 220.0 
62.524094 184.0 
62.719406 180.0 
62.817177 208.0 
62.915024 236.0 
63.150482 204.0 
63.471981 200.0 
63.50053 148.0 
63.606842 136.0 
63.622719 140.0 
63.764095 112.0 
64.037766 152.0 
64.351936 48.0 
64.702087 144.0 
65.205795 164.0 
65.300659 152.0 
65.395592 176.0 
65.509918 160.0 
65.722748 148.0 
66.189911 200.0 
66.575882 196.0 
66.811577 180.0 
66.932022 80.0 
67.251572 192.0 
67.302185 136.0 
67.364243 96.0 
67.50972 204.0 
67.634071 168.0 
67.771637 164.0 
68.144104 208.0 
68.431435 44.0 
68.583519 224.0 
68.786415 116.0 
68.854118 144.0 
68.903671 160.0 
68.916893 148.0 
69.0905 156.0 
69.288826 208.0 
70.136734 136.0 
70.215103 224.0 
70.701286 252.0 
70.724716 48.0 
71.021309 160.0 
71.182434 40.0 
71.690483 108.0 
72.224022 160.0 
72.273087 160.0 
72.469505 184.0 
72.513573 116.0 
72.866547 224.0 
73.135239 140.0 
73.563118 144.0 
73.786919 172.0 
73.841644 48.0 
73.87072 136.0 
74.177261 152.0 
74.525665 72.0 
75.059288 212.0 
75.152435 68.0 
75.793961 160.0 
75.993362 184.0 
76.25386 188.0 
76.27993 44.0 
76.797104 112.0 
76.818039 148.0 
78.396126 192.0 
78.41375 148.0 
78.607559 168.0 
78.752518 208.0 
79.639946 204.0 
79.91906 156.0 
79.979568 160.0 
80.013397 176.0 
80.040108 208.0 
80.134514 104.0 
80.309219 260.0 
80.368095 100.0 
80.434128 200.0 
80.526978 168.0 
80.662781 184.0 
80.995628 64.0 
81.074463 108.0 
81.112106 148.0 
81.550087 220.0 
81.692146 264.0 
81.904572 164.0 
81.926186 120.0 
82.46936 116.0 
82.588699 160.0 
82.709938 116.0 
82.76606 88.0 
83.065109 200.0 
83.172173 164.0 
83.266594 240.0 
83.446503 180.0 
83.845169 100.0 
83.945435 212.0 
84.316048 144.0 
84.367226 196.0 
84.63253 168.0 
84.889076 140.0 
84.938599 148.0 
85.793732 100.0 
86.044647 236.0 
86.223831 136.0 
86.595726 108.0 
87.094688 252.0 
87.113266 72.0 
87.211754 184.0 
87.548515 192.0 
87.61557 224.0 
87.71994 116.0 
87.951248 244.0 
87.968048 68.0 
88.124931 232.0 
88.160439 216.0 
88.350922 152.0 
88.525246 192.0 
88.744484 140.0 
88.980354 176.0 
89.050385 40.0 
89.452789 280.0 
89.473495 216.0 
89.507385 180.0 
90.154449 120.0 
90.699562 220.0 
90.71283 148.0 
91.018295 208.0 
91.050133 152.0 
91.166229 124.0 
91.446053 200.0 
91.71653 148.0 
91.800423 144.0 
92.189873 164.0 
92.281631 176.0 
92.819695 212.0 
92.925194 196.0 
93.197853 112.0 
93.24205 96.0 
93.442047 232.0 
93.499771 124.0 
93.522873 164.0 
93.621063 140.0 
93.919815 92.0 
94.006638 192.0 
94.041428 780.0 
94.294403 188.0 
94.40847 108.0 
94.776276 132.0 
94.884819 192.0 
94.931358 56.0 
95.05162 684.0 
95.08268 168.0 
95.459579 116.0 
95.517929 148.0 
95.730087 204.0 
96.749344 140.0 
96.988983 184.0 
97.004028 188.0 
97.047157 44.0 
97.08638 64.0 
97.11776 224.0 
98.11676 164.0 
98.586555 180.0 
98.788239 160.0 
98.980225 152.0 
98.999641 164.0 
99.247734 164.0 
99.275497 276.0 
99.424294 176.0 
100.000679 132.0 
100.126114 164.0 
100.355286 204.0 
100.490921 152.0 
100.978355 180.0 
100.99836 160.0 
101.020363 32.0 
101.24855 196.0 
101.639473 160.0 
101.76593 56.0 
101.800064 140.0 
101.984909 52.0 
102.047226 120.0 
102.179977 156.0 
102.506172 184.0 
102.61924 176.0 
102.960091 140.0 
102.996666 224.0 
103.042915 164.0 
103.275398 204.0 
104.313629 196.0 
104.474037 228.0 
104.639145 276.0 
104.804131 148.0 
104.946815 172.0 
105.033165 192.0 
105.067154 200.0 
105.251488 180.0 
105.688286 200.0 
106.005692 192.0 
106.03643 152.0 
106.518631 88.0 
106.574104 136.0 
106.631645 184.0 
106.94017 148.0 
107.006966 172.0 
107.04863 1264.0 
107.131676 28.0 
107.154335 92.0 
107.230583 100.0 
107.259125 208.0 
107.403786 212.0 
107.542038 120.0 
108.045853 180.0 
108.211845 176.0 
108.487396 132.0 
108.887878 64.0 
109.022926 112.0 
109.059967 696.0 
109.077408 192.0 
109.311989 208.0 
109.334885 200.0 
109.83078 196.0 
109.993538 132.0 
110.012329 228.0 
110.162689 180.0 
110.687675 156.0 
110.838501 196.0 
111.006203 176.0 
111.25589 56.0 
111.604668 172.0 
111.928726 228.0 
111.977158 140.0 
112.109894 216.0 
112.445229 52.0 
113.079308 88.0 
113.153397 204.0 
113.475449 160.0 
113.519981 144.0 
113.657867 176.0 
113.989136 144.0 
114.112419 168.0 
114.159836 200.0 
114.201736 224.0 
114.423058 140.0 
114.710663 180.0 
114.770363 84.0 
114.838608 120.0 
114.982124 152.0 
115.047729 200.0 
115.289101 112.0 
115.408813 172.0 
116.166992 244.0 
116.428864 168.0 
116.648033 172.0 
116.873856 220.0 
116.968552 136.0 
116.98793 180.0 
117.007309 128.0 
117.037453 184.0 
117.464188 96.0 
117.494392 92.0 
117.979027 180.0 
118.620201 220.0 
118.838005 200.0 
118.933495 36.0 
118.955208 148.0 
119.050156 348.0 
119.831665 168.0 
120.093269 244.0 
120.202354 196.0 
120.401016 216.0 
120.501503 236.0 
120.794456 152.0 
120.941071 192.0 
120.965149 180.0 
121.028175 168.0 
121.234558 220.0 
121.27401 132.0 
122.03672 4000.0 
122.070976 156.0 
122.128708 120.0 
122.570686 44.0 
123.014008 120.0 
123.038864 400.0 
123.116966 216.0 
123.69931 80.0 
123.846413 232.0 
123.922997 104.0 
124.016068 124.0 
124.054733 236.0 
124.157967 216.0 
124.379852 160.0 
124.490868 120.0 
124.715263 128.0 
124.873131 232.0 
124.976517 180.0 
125.060036 204.0 
125.09761 148.0 
125.458778 140.0 
125.492226 132.0 
125.54351 136.0 
125.65728 48.0 
125.784485 136.0 
126.135201 144.0 
126.390167 160.0 
126.569244 168.0 
126.891899 108.0 
126.999634 192.0 
127.999664 176.0 
128.150574 204.0 
128.33316 116.0 
128.43013 184.0 
128.865845 148.0 
128.974503 1616.0 
129.009842 284.0 
129.069458 148.0 
129.419998 252.0 
129.70546 216.0 
129.805222 160.0 
129.880066 148.0 
129.89595 56.0 
129.979889 156.0 
130.013931 108.0 
130.225082 232.0 
130.684311 136.0 
130.748016 48.0 
130.971359 308.0 
131.019562 208.0 
131.05368 180.0 
131.105591 52.0 
131.687378 104.0 
132.030212 76.0 
132.057663 212.0 
132.19722 88.0 
132.307083 144.0 
132.646149 184.0 
132.992523 104.0 
133.070786 132.0 
133.314056 116.0 
133.394516 208.0 
133.585388 216.0 
134.50946 184.0 
135.042053 324.0 
135.44368 144.0 
135.547943 176.0 
135.62674 136.0 
136.023407 224.0 
136.047012 144.0 
136.485748 168.0 
136.820801 184.0 
137.023422 196.0 
137.060211 184.0 
137.347473 224.0 
137.709595 168.0 
137.926575 140.0 
138.071533 132.0 
138.385117 192.0 
138.593582 216.0 
138.839722 172.0 
139.062622 224.0 
139.259842 196.0 
139.36322 144.0 
139.431366 192.0 
139.483078 220.0 
139.584167 156.0 
140.443817 224.0 
140.514587 52.0 
140.533463 60.0 
140.767151 136.0 
140.828552 256.0 
140.95195 88.0 
141.012848 224.0 
141.869766 208.0 
141.98111 720.0 
142.608017 52.0 
142.776825 144.0 
142.986786 720.0 
143.031418 180.0 
143.090927 160.0 
143.143326 56.0 
143.381546 212.0 
143.550827 92.0 
143.977295 152.0 
143.996231 348.0 
144.291046 80.0 
144.974823 164.0 
145.008286 148.0 
145.064331 156.0 
145.359344 156.0 
145.803619 168.0 
145.986343 168.0 
146.020004 160.0 
146.378601 264.0 
146.412308 192.0 
146.891739 248.0 
146.920929 104.0 
147.042313 288.0 
147.072952 192.0 
147.650421 44.0 
148.054596 176.0 
148.529663 180.0 
148.777191 172.0 
148.886459 176.0 
149.037064 92.0 
149.058945 132.0 
149.253403 88.0 
149.345825 64.0 
149.455307 204.0 
149.998413 144.0 
150.031372 2960.0 
150.089996 184.0 
150.176422 72.0 
150.569382 232.0 
150.933502 144.0 
151.035339 480.0 
151.297363 180.0 
151.73172 88.0 
151.79303 240.0 
151.999084 148.0 
152.114441 136.0 
152.163544 128.0 
152.80011 180.0 
152.903458 148.0 
152.96669 180.0 
153.007233 156.0 
153.033936 208.0 
153.27533 200.0 
153.645172 124.0 
153.664917 120.0 
153.724136 132.0 
154.019653 368.0 
154.037704 116.0 
154.168655 52.0 
154.705414 136.0 
154.992722 188.0 
155.027405 124.0 
155.507675 124.0 
155.564255 164.0 
155.846298 152.0 
156.065033 140.0 
156.687286 160.0 
156.749573 116.0 
156.846786 52.0 
156.931549 144.0 
156.966873 456.0 
157.006592 664.0 
157.041275 40.0 
157.845459 60.0 
157.97052 112.0 
158.008041 288.0 
158.074097 220.0 
158.097137 196.0 
158.130661 136.0 
158.415817 164.0 
158.671753 60.0 
158.965958 320.0 
159.018219 184.0 
159.065048 124.0 
159.113327 164.0 
159.201202 160.0 
159.817078 164.0 
159.960541 92.0 
160.184662 160.0 
160.910995 124.0 
160.928665 180.0 
161.061462 296.0 
161.095352 156.0 
161.644012 160.0 
162.008621 120.0 
162.066925 464.0 
162.132782 176.0 
162.170807 136.0 
162.381256 160.0 
162.713684 228.0 
162.733994 104.0 
162.985458 104.0 
163.036285 284.0 
163.05661 208.0 
163.585693 184.0 
163.682449 152.0 
164.005341 320.0 
164.051895 196.0 
164.113083 160.0 
164.694946 148.0 
164.815033 196.0 
164.855011 180.0 
164.973495 192.0 
165.014664 272.0 
165.054214 20828.0 
165.100159 200.0 
165.124359 208.0 
165.147583 48.0 
165.167847 84.0 
165.221451 176.0 
165.262497 48.0 
165.280411 128.0 
165.349503 32.0 
165.393021 284.0 
165.433975 100.0 
165.472382 104.0 
165.546646 104.0 
165.564056 60.0 
165.610672 284.0 
165.64653 40.0 
165.699188 144.0 
165.736206 88.0 
165.818207 176.0 
165.859222 40.0 
166.019562 352.0 
166.058258 2252.0 
166.149002 120.0 
166.182358 36.0 
166.387695 268.0 
166.505814 132.0 
166.79808 64.0 
166.834717 124.0 
166.999298 304.0 
167.025757 128.0 
167.058014 448.0 
167.254028 72.0 
167.287506 36.0 
167.320511 112.0 
167.4729 52.0 
167.789871 64.0 
168.043503 392.0 
168.207809 80.0 
168.662445 116.0 
169.001236 228.0 
169.042709 144.0 
169.177231 116.0 
169.247559 100.0 
169.301529 100.0 
169.319656 72.0 
169.757629 100.0 
169.974167 896.0 
170.043015 40.0 
170.323441 112.0 
170.40657 96.0 
170.877182 108.0 
170.985062 864.0 
171.006775 160.0 
171.018082 304.0 
171.043732 164.0 
171.598648 188.0 
171.679489 148.0 
171.729034 176.0 
171.838608 112.0 
171.929932 152.0 
171.991028 4848.0 
172.036957 64.0 
172.162292 56.0 
172.276398 76.0 
172.39209 108.0 
172.473206 56.0 
172.920486 52.0 
172.992493 652.0 
173.059235 136.0 
173.4758 56.0 
173.677719 140.0 
173.756424 56.0 
173.916504 136.0 
173.942749 144.0 
173.989212 1068.0 
174.215866 232.0 
174.334671 132.0 
174.655121 84.0 
174.8022 192.0 
174.825897 72.0 
174.899582 164.0 
174.992844 180.0 
175.0168 180.0 
175.042007 172.0 
175.334183 72.0 
175.476532 56.0 
175.64003 144.0 
176.09668 268.0 
176.29483 84.0 
177.006439 52.0 
177.050064 128.0 
177.088547 48.0 
177.708878 84.0 
177.791153 76.0 
178.072571 192.0 
178.115067 104.0 
179.033554 248.0 
179.12326 76.0 
179.605743 108.0 
179.749817 160.0 
179.992935 260.0 
180.029541 184.0 
180.150314 144.0 
180.436279 184.0 
180.759933 200.0 
180.920181 156.0 
181.88559 164.0 
181.982239 340.0 
182.012283 108.0 
182.476624 160.0 
182.815567 132.0 
182.855865 152.0 
182.983292 492.0 
183.729004 120.0 
183.853134 208.0 
183.904419 108.0 
183.990906 200.0 
184.047501 120.0 
184.187943 360.0 
184.571716 172.0 
184.715057 120.0 
184.877396 268.0 
185.003296 236.0 
185.054764 180.0 
185.075012 148.0 
185.09668 96.0 
185.339264 36.0 
186.005676 176.0 
186.360718 120.0 
186.667877 96.0 
186.825638 156.0 
186.988907 160.0 
187.016312 180.0 
187.036713 156.0 
187.072296 120.0 
187.983749 456.0 
188.020737 376.0 
188.07373 144.0 
188.092834 164.0 
188.379562 148.0 
188.998184 120.0 
189.03479 112.0 
189.053757 168.0 
190.064758 232.0 
190.335129 56.0 
190.662048 196.0 
190.804993 108.0 
190.989243 172.0 
191.041504 176.0 
191.069855 392.0 
191.440613 156.0 
191.997314 164.0 
192.038681 152.0 
192.552063 220.0 
193.115906 140.0 
193.138031 120.0 
193.891144 256.0 
194.002014 120.0 
194.087967 84.0 
195.019211 368.0 
195.070816 100.0 
195.816544 156.0 
196.023987 280.0 
196.195526 152.0 
196.530212 108.0 
196.982498 204.0 
197.031296 620.0 
197.547195 168.0 
197.614349 56.0 
198.014252 192.0 
198.051071 132.0 
198.861404 120.0 
198.965271 164.0 
199.028564 288.0 
199.060745 152.0 
199.237701 140.0 
199.476578 48.0 
199.656525 180.0 
199.986176 6116.0 
200.054031 148.0 
200.291977 52.0 
200.363068 72.0 
200.382782 144.0 
200.537781 88.0 
200.64772 144.0 
200.81691 72.0 
200.901535 56.0 
200.94104 212.0 
200.990753 316.0 
201.028519 100.0 
201.050232 200.0 
201.09343 252.0 
201.361649 60.0 
201.984207 1380.0 
202.028763 96.0 
202.096664 116.0 
202.47403 156.0 
202.990219 356.0 
203.034332 200.0 
203.52243 140.0 
203.832047 40.0 
204.315414 108.0 
204.432083 80.0 
205.010696 180.0 
205.375137 120.0 
206.057831 168.0 
206.091721 120.0 
206.426163 132.0 
206.978455 140.0 
207.012817 48.0 
207.063248 296.0 
207.181808 92.0 
207.789612 112.0 
207.981888 120.0 
208.024948 48.0 
208.073761 196.0 
208.214462 140.0 
208.470154 260.0 
208.648361 76.0 
209.003372 216.0 
209.117264 152.0 
209.57515 104.0 
209.606857 112.0 
210.003677 172.0 
210.376953 104.0 
210.894028 224.0 
211.015625 192.0 
211.079056 148.0 
211.134003 184.0 
211.154251 32.0 
211.455154 120.0 
211.692551 48.0 
212.008789 168.0 
212.050354 132.0 
212.283737 44.0 
212.739273 152.0 
212.922211 112.0 
212.989014 192.0 
213.05748 216.0 
213.349731 156.0 
213.558731 136.0 
213.861343 104.0 
213.902084 96.0 
214.003128 460.0 
214.059479 140.0 
214.120468 128.0 
214.169983 244.0 
214.482101 232.0 
214.817123 164.0 
214.852127 144.0 
214.892975 92.0 
215.010376 12892.0 
215.066223 280.0 
215.097031 48.0 
215.179016 88.0 
215.585037 28.0 
215.605499 80.0 
215.690262 52.0 
215.968048 164.0 
216.01355 1952.0 
216.143585 156.0 
216.172852 52.0 
216.325043 60.0 
216.679413 48.0 
216.711639 64.0 
216.931458 72.0 
217.007797 4960.0 
217.078064 48.0 
217.12204 40.0 
217.211563 100.0 
217.262848 128.0 
217.36554 56.0 
217.403687 204.0 
217.501968 112.0 
217.550446 132.0 
217.573944 40.0 
217.682587 64.0 
217.735443 160.0 
217.944016 128.0 
217.996155 976.0 
218.096848 60.0 
218.290878 48.0 
218.334991 88.0 
218.393814 44.0 
218.885315 76.0 
218.944214 48.0 
218.994278 152.0 
219.027069 368.0 
219.100327 124.0 
219.132736 84.0 
219.21524 36.0 
219.539536 52.0 
219.596741 140.0 
219.747025 208.0 
219.992783 360.0 
220.109085 120.0 
220.339462 44.0 
220.833145 184.0 
220.997986 232.0 
221.049118 120.0 
221.076279 176.0 
221.834015 128.0 
222.008484 208.0 
222.036575 164.0 
222.079971 76.0 
222.127594 104.0 
222.249237 84.0 
222.356064 52.0 
222.798508 80.0 
223.009064 136.0 
223.023849 116.0 
223.028824 232.0 
223.057053 176.0 
223.982513 212.0 
224.022629 1536.0 
224.095718 56.0 
224.334152 240.0 
224.826309 120.0 
224.985901 180.0 
225.025146 612.0 
225.109909 180.0 
226.020309 424.0 
227.011505 392.0 
227.76355 140.0 
228.016205 356.0 
229.017303 248.0 
229.043365 104.0 
229.067963 204.0 
229.078018 128.0 
229.08522 200.0 
230.006165 216.0 
230.09259 364.0 
231.021576 352.0 
231.827698 104.0 
232.006531 180.0 
232.994125 120.0 
233.832153 160.0 
234.008499 352.0 
234.17012 36.0 
235.020264 336.0 
235.39003 108.0 
235.469421 68.0 
235.66188 48.0 
235.994034 180.0 
236.019562 240.0 
236.092896 76.0 
236.297852 84.0 
237.010452 312.0 
238.005051 184.0 
238.045044 40.0 
238.121826 128.0 
239.013062 248.0 
240.010895 432.0 
240.066895 152.0 
240.184097 92.0 
241.027237 828.0 
241.081421 96.0 
241.614426 52.0 
242.031815 476.0 
242.052017 464.0 
242.679871 116.0 
242.940399 112.0 
243.029831 160.0 
243.063156 120.0 
243.117264 104.0 
243.266251 88.0 
243.992813 152.0 
244.025055 184.0 
244.276215 36.0 
245.042084 112.0 
245.076355 192.0 
246.002457 124.0 
246.058853 120.0 
247.005341 172.0 
248.029739 108.0 
248.993011 196.0 
249.033279 308.0 
250.002197 144.0 
250.041367 332.0 
250.162735 100.0 
250.755936 124.0 
251.006317 404.0 
251.05127 340.0 
251.341492 32.0 
252.017227 676.0 
252.125244 44.0 
252.26059 44.0 
252.53569 36.0 
252.84259 112.0 
253.025513 488.0 
253.241531 132.0 
253.52034 64.0 
254.016541 160.0 
254.02594 112.0 
254.837234 76.0 
255.011261 480.0 
255.759506 120.0 
256.007843 300.0 
256.032928 128.0 
256.068359 212.0 
256.485779 76.0 
256.996155 236.0 
257.005524 136.0 
257.05542 348.0 
257.379089 88.0 
257.768799 52.0 
258.034088 112.0 
258.065643 252.0 
259.049042 260.0 
259.72821 116.0 
260.026611 172.0 
260.055634 180.0 
261.003204 156.0 
261.037659 184.0 
261.872131 120.0 
262.010803 164.0 
262.046112 220.0 
262.11377 68.0 
262.729614 64.0 
263.021393 172.0 
263.840576 116.0 
264.016815 484.0 
264.151062 64.0 
264.377533 40.0 
265.011841 300.0 
265.024078 280.0 
265.030121 108.0 
265.060211 756.0 
265.999847 352.0 
266.06308 52.0 
266.998932 316.0 
267.060822 160.0 
267.184326 144.0 
267.539093 116.0 
267.763763 88.0 
268.016541 392.0 
268.055573 116.0 
268.869019 128.0 
268.996307 68.0 
269.044861 252.0 
269.924194 52.0 
270.028687 1392.0 
270.094269 116.0 
270.156433 56.0 
270.234955 180.0 
270.467316 44.0 
270.575348 80.0 
270.886475 160.0 
271.03183 312.0 
271.0896 152.0 
271.191193 60.0 
271.214142 112.0 
271.279694 76.0 
271.627319 116.0 
271.827454 188.0 
271.945618 256.0 
272.024048 724.0 
272.065979 208.0 
272.113037 40.0 
272.411896 124.0 
272.638611 132.0 
272.717499 96.0 
272.78653 144.0 
272.858856 124.0 
272.999817 160.0 
273.036407 168.0 
273.335785 120.0 
274.815277 124.0 
275.033112 148.0 
275.10199 152.0 
276.025116 124.0 
277.027039 816.0 
278.035736 924.0 
279.034851 436.0 
279.330994 48.0 
280.022095 160.0 
280.046906 308.0 
280.773224 96.0 
281.027863 276.0 
281.270386 144.0 
282.001892 132.0 
282.036011 180.0 
282.12558 140.0 
282.941895 136.0 
283.038086 412.0 
284.155182 124.0 
285.001312 208.0 
285.052002 4040.0 
285.152527 36.0 
285.377777 40.0 
285.472839 104.0 
285.697266 76.0 
286.054962 672.0 
286.087677 316.0 
286.128052 72.0 
286.1651 40.0 
286.882721 60.0 
287.046967 1080.0 
287.091766 228.0 
287.139008 180.0 
287.797058 68.0 
287.861206 112.0 
288.016571 180.0 
288.048431 316.0 
288.111145 52.0 
288.229431 108.0 
289.02066 156.0 
289.115417 64.0 
289.186493 48.0 
291.006104 252.0 
292.86377 124.0 
293.024536 364.0 
293.055389 456.0 
293.330627 108.0 
294.065887 180.0 
295.046234 368.0 
295.920258 40.0 
296.002808 332.0 
296.965454 120.0 
297.003204 180.0 
297.040924 192.0 
298.012451 176.0 
299.36438 68.0 
302.0289 132.0 
302.160339 80.0 
302.336823 216.0 
303.070953 116.0 
303.937836 104.0 
305.004059 84.0 
305.033081 260.0 
305.633545 76.0 
306.027222 864.0 
306.786407 72.0 
307.029297 252.0 
308.007599 288.0 
311.031616 160.0 
311.063202 476.0 
311.387878 136.0 
311.412476 100.0 
312.061279 208.0 
313.066986 140.0 
313.20636 64.0 
314.062927 140.0 
314.161682 84.0 
314.676971 92.0 
315.882111 112.0 
316.515656 108.0 
317.39798 64.0 
319.033478 192.0 
319.963348 88.0 
320.050262 68.0 
321.058044 548.0 
323.050476 280.0 
324.047241 160.0 
326.450714 64.0 
335.050018 200.0 
336.072083 88.0 
340.050018 148.0 
349.481232 72.0 
353.07309 108.0 
353.968048 220.0 
354.305145 76.0 
354.518738 116.0 
355.4375 80.0 
359.743286 76.0 
369.552856 48.0 
371.180786 116.0 
377.009186 124.0 
380.64682 68.0 
381.377228 64.0 
386.811005 64.0 
398.794891 120.0 
407.000793 64.0 
411.914368 104.0 
419.955688 128.0 
442.261841 128.0 
443.235046 128.0 
469.266663 60.0 
480.020508 76.0 
481.067657 176.0 
488.047089 52.0 
514.34375 40.0 
550.398315 80.0 
550.445007 40.0 
558.708557 128.0 
576.805725 92.0 
622.272461 48.0 
627.322266 48.0 
651.001831 224.0 
710.368347 80.0 
721.88385 80.0 
725.508789 40.0 
746.415588 72.0 
770.942688 68.0 
822.259094 228.0 
847.111572 32.0 
901.819519 152.0 
961.705017 36.0 
999.417114 208.0 
1021.637878 192.0 
1042.952026 52.0 
1044.00647 228.0 
1061.42334 48.0 
1079.016968 56.0 
1085.551758 208.0 
1088.439209 200.0 
1097.071533 196.0 
1100.766479 140.0 
1104.983643 148.0 
1109.699463 168.0 
1119.234497 204.0 
1145.509521 104.0 
1164.456177 188.0 
1180.362793 52.0 
1189.200562 96.0 
1208.102539 164.0 
1210.843628 48.0 
1211.993652 248.0 
1212.721313 144.0 
1213.608643 160.0 
1218.036499 108.0 
1219.75293 124.0 
1220.302124 172.0 
1221.887939 232.0 
1227.216187 132.0 
1229.748657 116.0 
1230.621216 80.0 
1244.569336 156.0 
1247.864746 176.0 
1249.7146 152.0 
1249.869385 144.0 
1250.256348 144.0 
1252.911011 196.0 
1254.447388 112.0 
1254.701172 56.0 
1260.941406 112.0 
1262.567505 92.0 
1266.077881 172.0 
1266.311523 156.0 
1269.217163 152.0 
1273.077637 172.0 
1275.983887 156.0 
1282.32666 140.0 
1282.925415 140.0 
1291.094116 64.0 
1293.09021 188.0 
1295.145264 260.0 
1303.510742 168.0 
1311.975342 164.0 
1318.363403 192.0 
1334.172607 180.0 
1334.587036 196.0 
1335.685181 144.0 
1335.794312 92.0 
1336.012573 172.0 
1338.698486 184.0 
1342.400513 128.0 
1350.046631 80.0 
1352.168335 224.0 
1356.401978 28.0 
1359.6073 164.0 
1367.802002 196.0 
1372.613892 176.0 
1374.037476 180.0 
1376.598755 172.0 
1379.369507 120.0 
1379.894409 140.0 
1382.550049 152.0 
1391.504639 168.0 
1400.324219 196.0 
1408.574097 188.0 
1413.224365 168.0 
1417.627441 148.0 
1423.531494 104.0 
1437.918579 172.0 
1441.921631 116.0 
1446.119385 152.0 
1446.32373 156.0 
1456.310059 152.0 
1459.578003 40.0 
1464.585815 68.0 
1468.168091 108.0 
1472.869751 184.0 
1475.345703 212.0 
1478.765137 152.0 
1479.109497 212.0 
1482.088745 132.0 
1482.303345 76.0 
1484.825562 128.0 
1488.540039 152.0 
1490.652588 180.0 
1493.389526 184.0 
1502.579956 108.0 
END IONS

