BEGIN IONS
PEPMASS=291.123
CHARGE=1+
COMPOUNDNAME="MLS000876814-01!13,15-dihydroxy-5-methyl-4-oxabicyclo[10.4.0]hexadeca-1(16),9,12,14-tetraene-3,11-dione"
LIBRARYQUALITY=1
SMILES=CC1CCCC=CC(=O)c2c(O)cc(O)cc2CC(=O)O1
INCHIKEY=AVIRMQMUBGNCKS-UHFFFAOYSA-N
INCHI=N/A
MSLEVEL=2
SOURCE_INSTRUMENT=LC-ESI-qTof
FILENAME=p1-H06_GH6_01_17962.mzXML
SEQ=*..*
IONMODE=Positive
ORGANISM=GNPS-NIH-NATURALPRODUCTSLIBRARY
NAME="MLS000876814-01!13,15-dihydroxy-5-methyl-4-oxabicyclo[10.4.0]hexadeca-1(16),9,12,14-tetraene-3,11-dione" M+H
PI=Dorrestein
DATACOLLECTOR=VVP/LMS
PUBMED=N/A
SUBMITUSER=vphelan
TAGS=
SPECTRUMID=CCMSLIB00000079481
SCANS=2128
96.591789 200.0 
97.25016 244.0 
98.54792 112.0 
98.802971 172.0 
99.094002 36.0 
99.582001 176.0 
99.840363 148.0 
100.80323 156.0 
101.006073 132.0 
102.321625 160.0 
102.896217 176.0 
103.460266 200.0 
104.062408 288.0 
105.071899 176.0 
105.617325 200.0 
106.076012 172.0 
107.045494 152.0 
107.290955 132.0 
108.616508 108.0 
109.025536 172.0 
109.389519 184.0 
109.82502 84.0 
110.658836 140.0 
110.811729 168.0 
110.973114 120.0 
111.149307 112.0 
115.058731 664.0 
116.06263 180.0 
116.313202 216.0 
116.390488 148.0 
116.749352 168.0 
117.065697 152.0 
118.98362 172.0 
119.055275 172.0 
119.085411 228.0 
119.159538 68.0 
121.061295 168.0 
123.62851 60.0 
125.585854 184.0 
126.050217 100.0 
126.309563 208.0 
126.363251 160.0 
127.749718 192.0 
128.060349 116.0 
129.07048 712.0 
130.040985 192.0 
131.049088 236.0 
133.024368 156.0 
133.060989 92.0 
133.143753 184.0 
135.040558 68.0 
135.07988 112.0 
136.115875 100.0 
136.634186 148.0 
137.058182 380.0 
137.256287 264.0 
137.580383 176.0 
139.094971 128.0 
140.264053 236.0 
141.069672 288.0 
143.088837 232.0 
143.304642 156.0 
144.005997 180.0 
144.055847 368.0 
145.066116 160.0 
146.074585 112.0 
147.045624 208.0 
147.076782 304.0 
147.113205 172.0 
147.168732 116.0 
148.056198 144.0 
148.087692 196.0 
149.05809 96.0 
150.536728 228.0 
151.03775 176.0 
153.262009 212.0 
158.076935 252.0 
158.941452 180.0 
159.086456 160.0 
160.053833 392.0 
160.117935 152.0 
160.442993 220.0 
160.465683 92.0 
161.060486 524.0 
161.096619 180.0 
161.898407 128.0 
162.066391 316.0 
163.042572 200.0 
163.073502 116.0 
164.086212 188.0 
164.410614 112.0 
167.664642 152.0 
170.885971 140.0 
171.128036 88.0 
172.074463 180.0 
172.197189 156.0 
172.275558 136.0 
173.070633 164.0 
174.063324 124.0 
175.073868 844.0 
175.973419 160.0 
176.047272 308.0 
176.08432 128.0 
177.053299 532.0 
177.296021 92.0 
178.036179 52.0 
178.924286 172.0 
179.916046 192.0 
180.172424 300.0 
184.796829 132.0 
185.05809 264.0 
186.07338 152.0 
186.168411 176.0 
187.06839 132.0 
188.049667 164.0 
188.587738 68.0 
188.945969 32.0 
189.05629 260.0 
189.126572 112.0 
190.062592 1656.0 
190.097244 184.0 
190.343826 76.0 
190.83017 40.0 
191.067215 272.0 
191.631088 136.0 
192.635315 100.0 
192.790039 48.0 
196.226471 144.0 
198.093323 144.0 
199.097443 116.0 
201.000443 164.0 
201.150024 32.0 
202.065659 164.0 
202.393982 116.0 
202.603561 96.0 
202.918152 208.0 
202.997955 136.0 
203.032104 172.0 
203.070221 7580.0 
203.150711 128.0 
203.193253 96.0 
203.315979 80.0 
203.516815 140.0 
203.692902 52.0 
204.071869 1036.0 
204.358139 92.0 
204.497589 40.0 
204.688324 52.0 
205.068893 184.0 
205.514938 68.0 
205.597702 72.0 
205.834641 32.0 
206.563431 204.0 
211.318985 100.0 
211.6866 180.0 
214.927734 172.0 
215.10083 300.0 
215.970688 68.0 
217.019089 56.0 
217.086746 432.0 
217.834961 44.0 
218.02301 120.0 
218.087677 112.0 
219.082275 156.0 
224.930222 156.0 
229.719528 156.0 
230.970123 156.0 
231.100204 140.0 
232.104935 220.0 
232.845276 60.0 
233.118134 200.0 
235.057556 808.0 
239.327927 72.0 
241.4216 172.0 
245.119797 232.0 
247.026459 88.0 
249.079681 120.0 
249.114243 184.0 
250.044952 148.0 
259.127106 148.0 
291.082489 176.0 
291.121735 924.0 
291.690613 104.0 
292.130829 260.0 
293.126862 192.0 
314.776031 52.0 
321.820953 108.0 
333.293488 92.0 
350.862244 120.0 
351.119537 136.0 
383.828186 48.0 
404.929108 80.0 
436.941895 76.0 
465.03363 100.0 
562.995178 68.0 
683.278137 132.0 
685.126282 112.0 
878.120544 180.0 
995.746338 120.0 
1088.088745 84.0 
1110.783936 136.0 
1187.191284 208.0 
1301.331421 228.0 
1343.876953 140.0 
1394.061157 208.0 
1415.859863 168.0 
1448.640259 168.0 
1451.960205 160.0 
1467.167847 176.0 
1484.463135 144.0 
1495.626343 188.0 
END IONS

