BEGIN IONS
PEPMASS=756.45
CHARGE=1+
COMPOUNDNAME=Erythromycin (E-Mycin)
LIBRARYQUALITY=1
SMILES=C1[C@H](C([C@@H]([C@@H](O)[C@@]([C@H](OC([C@@H]([C@H]([C@@H]([C@@H](O[C@@H]2[C@@H]([C@@H](CC(C)O2)N(C)C)O)[C@@]1(C)O)C)O[C@@H]3C[C@]([C@@H]([C@H](O3)C)O)(OC)C)C)=O)CC)(O)C)C)=O)C
INCHIKEY=ULGZDMOVFRHVEP-IKHZKFQISA-N
INCHI=N/A
MSLEVEL=2
SOURCE_INSTRUMENT=LC-ESI-qTof
FILENAME=Plate3_61_88_GH1_01_16501.mzXML
SEQ=*..*
IONMODE=Positive
ORGANISM=GNPS-SELLECKCHEM-FDA-PART2
NAME=Erythromycin (E-Mycin) [M+Na]
PI=Dorrestein
DATACOLLECTOR=Garg_Neha
PUBMED=N/A
SUBMITUSER=negarg
TAGS=
SPECTRUMID=CCMSLIB00000078218
SCANS=1124
51.269444 252.0 
80.06575 196.0 
158.958908 172.0 
193.046448 204.0 
260.552887 208.0 
263.455536 168.0 
263.646149 156.0 
269.482178 196.0 
291.147034 184.0 
297.140045 160.0 
310.181732 156.0 
318.072632 216.0 
327.17868 148.0 
328.17569 156.0 
336.451447 144.0 
337.18927 224.0 
351.194092 160.0 
352.893219 212.0 
355.183228 216.0 
357.333893 164.0 
361.230927 164.0 
363.234772 200.0 
369.115143 160.0 
369.184296 136.0 
379.244141 144.0 
383.201416 132.0 
392.237762 156.0 
401.854156 168.0 
405.225647 108.0 
406.672241 160.0 
420.849457 184.0 
421.204742 196.0 
422.280731 192.0 
423.240417 440.0 
423.292877 148.0 
424.109894 140.0 
441.240814 532.0 
443.559448 168.0 
448.734436 160.0 
454.23172 208.0 
466.289459 140.0 
478.301392 160.0 
483.257843 160.0 
484.284546 708.0 
485.293854 244.0 
485.339417 172.0 
486.085114 144.0 
496.491638 144.0 
509.435791 156.0 
509.597534 140.0 
512.273804 284.0 
512.286987 168.0 
513.270386 148.0 
514.294434 168.0 
518.340271 320.0 
525.320923 160.0 
536.360352 248.0 
537.369202 100.0 
540.319397 132.0 
541.338806 132.0 
550.672607 148.0 
551.555664 148.0 
553.288818 144.0 
562.331848 372.0 
563.312622 252.0 
569.365784 176.0 
570.216187 144.0 
580.343811 984.0 
581.324585 200.0 
581.359802 284.0 
582.380676 160.0 
583.356079 160.0 
598.270508 176.0 
598.355042 5052.0 
599.352478 1952.0 
600.358948 580.0 
601.359192 148.0 
604.24884 144.0 
613.082397 144.0 
613.33374 144.0 
624.325073 148.0 
624.367676 156.0 
641.433594 148.0 
642.378235 304.0 
643.391541 156.0 
648.216064 140.0 
652.845642 176.0 
654.08197 156.0 
670.362549 108.0 
677.069153 268.0 
683.801392 160.0 
692.008789 152.0 
694.645203 168.0 
698.38385 136.0 
711.40625 156.0 
711.954895 148.0 
712.413818 188.0 
713.419434 156.0 
716.797913 160.0 
720.421692 116.0 
722.880005 140.0 
724.427856 132.0 
728.2948 144.0 
737.346375 156.0 
738.346497 180.0 
738.435425 1476.0 
739.44281 500.0 
739.55304 196.0 
740.457092 96.0 
745.257996 152.0 
749.839905 188.0 
752.10083 104.0 
754.403076 160.0 
754.77417 96.0 
755.215881 160.0 
755.491333 140.0 
755.609863 172.0 
755.81958 144.0 
756.104126 148.0 
756.162476 128.0 
756.266418 120.0 
756.450745 21336.0 
756.658264 220.0 
756.761353 132.0 
756.993347 240.0 
757.061707 100.0 
757.11792 136.0 
757.452515 9028.0 
757.788879 168.0 
757.884033 116.0 
758.223572 208.0 
758.356262 112.0 
758.45343 2820.0 
758.533508 216.0 
758.828918 204.0 
759.44751 448.0 
760.45575 124.0 
760.482361 120.0 
760.741089 172.0 
761.375427 124.0 
761.55072 96.0 
762.715576 120.0 
933.354431 144.0 
938.35321 140.0 
END IONS

