BEGIN IONS
TITLE=Scan Number: 26
PEPMASS=734.5
CHARGE=1+
COMPOUNDNAME=Erythromycin A
LIBRARYQUALITY=3
SMILES=CC[C@@H]1[C@@]([C@@H]([C@H](C(=O)[C@@H](C[C@@]([C@@H]([C@H]([C@@H]([C@H](C(=O)O1)C)O[C@H]2C[C@@]([C@H]([C@@H](O2)C)O)(C)OC)C)O[C@H]3[C@@H]([C@H](C[C@H](O3)C)N(C)C)O)(C)O)C)C)O)(C)O
INCHIKEY=ULGZDMOVFRHVEP-RWJQBGPGSA-N
INCHI="InChI=1S/C37H67NO13/c1-14-25-37(10,45)30(41)20(4)27(39)18(2)16-35(8,44)32(51-34-28(40)24(38(11)12)15-19(3)47-34)21(5)29(22(6)33(43)49-25)50-26-17-36(9,46-13)31(42)23(7)48-26/h18-26,28-32,34,40-42,44-45H,14-17H2,1-13H3/t18-,19-,20+,21+,22-,23+,24+,25-,26+,28-,29+,30-,31+,32-,34+,35-,36-,37-/m1/s1"
MSLEVEL=2
SOURCE_INSTRUMENT=DI-ESI-Hybrid FT
FILENAME=Erythromycin_A_FT_734mz.mzXML
SEQ=*..*
NOTES=
IONMODE=Positive
ORGANISM=GNPS-LIBRARY
NAME=Erythromycin A M+H
SPECTRUMID=CCMSLIB00000075306
ACTIVATION=CID
INSTRUMENT=ion trap
SCANS=26
200.130737 258.877808 
200.534012 245.871384 
200.804108 263.81311 
201.052917 234.104294 
201.157822 249.648666 
201.399368 305.638428 
201.672516 249.97525 
202.012756 277.49176 
202.299362 249.35437 
202.373444 243.249832 
202.497177 245.545898 
202.539047 646.896973 
202.675735 279.258881 
203.144943 218.661285 
203.301971 291.79425 
203.311325 242.861542 
203.847458 370.316101 
203.993179 249.864807 
204.028412 329.619965 
204.246445 249.252869 
204.689804 261.157043 
204.829819 238.384521 
204.861771 323.294861 
204.91716 243.141129 
205.292679 305.116669 
206.123154 223.365616 
206.831741 278.822968 
206.977371 253.290604 
206.995483 294.550079 
207.177902 217.632111 
207.436493 235.82814 
207.576431 202.400421 
207.915756 313.672882 
208.02861 394.135956 
208.11351 277.488708 
208.283463 304.358795 
208.53923 294.415253 
208.595673 333.188904 
208.764511 233.66124 
209.213577 272.626801 
209.494217 323.406952 
209.737091 265.816132 
209.822388 252.77063 
210.891418 230.370728 
211.134766 302.785217 
211.353439 239.730728 
211.531815 274.664581 
212.384537 259.391052 
212.42952 283.954681 
212.445038 241.256042 
212.549759 228.181442 
212.742599 330.135315 
212.917786 248.242035 
213.425476 242.261597 
213.603226 299.178284 
213.751694 333.37912 
214.226654 254.694931 
215.142105 268.633392 
215.454544 258.970276 
215.585129 244.985184 
215.753998 256.44696 
215.980408 244.478226 
215.99614 279.952148 
216.359985 268.228302 
216.927002 331.792664 
217.240891 242.037598 
217.447891 267.032043 
217.546234 248.561447 
217.563828 272.982208 
217.612732 366.418427 
217.919769 251.55899 
218.567947 283.332306 
218.620377 249.103378 
218.872025 279.039368 
218.91304 258.706818 
218.983215 357.522034 
219.23584 247.251938 
219.259048 217.027023 
219.853134 249.065735 
220.078369 235.428452 
220.383728 336.652618 
220.834564 312.067291 
220.936569 281.786774 
221.291183 278.622864 
221.400803 209.461411 
221.469162 284.121277 
221.638779 305.623413 
221.777908 264.969299 
221.878387 271.318878 
221.893402 239.28302 
222.469818 248.248932 
222.60376 279.184387 
223.056503 251.680664 
223.078964 238.66864 
223.219238 276.30423 
223.458481 240.087662 
223.614365 238.742203 
223.994843 290.200958 
224.044769 247.528656 
224.326538 334.434937 
224.350952 234.570328 
224.482895 239.631943 
224.767441 298.252228 
224.871857 266.405731 
224.968445 234.54863 
225.003876 276.753662 
225.227493 308.613739 
225.257004 325.89447 
225.377182 249.151245 
225.78215 266.735229 
225.914963 292.162018 
225.966187 227.534454 
226.330719 228.450607 
226.349899 286.93573 
226.702148 293.647888 
226.86705 211.360321 
226.942688 219.315369 
227.145477 293.577362 
227.437546 274.711151 
227.619812 278.065094 
227.711243 242.573746 
228.032959 248.248642 
228.251663 283.028107 
228.327179 270.320892 
228.508011 296.237915 
228.58461 309.038971 
228.739441 247.924118 
229.311172 242.646866 
229.396881 247.53952 
229.949463 268.025452 
230.189163 290.24942 
230.304489 254.915375 
230.398117 362.396088 
230.517654 244.922791 
230.522049 288.448486 
230.666763 237.983383 
230.689911 203.792847 
230.690689 212.994049 
230.93541 272.362396 
231.065247 236.166122 
231.125824 293.596588 
231.508148 239.833725 
231.604767 219.590744 
231.713409 231.672714 
231.718384 241.91301 
231.815674 219.236252 
232.56279 272.614349 
232.845749 237.666336 
232.868317 227.789062 
233.193314 334.806122 
233.249756 295.698303 
233.262421 277.793671 
233.41893 323.065643 
233.545288 290.142822 
234.329163 294.135956 
234.372177 255.287094 
234.541138 249.927689 
234.910172 256.945526 
234.99527 272.36908 
235.180634 297.567108 
236.046066 261.001953 
236.398178 281.199829 
236.463943 344.262939 
236.495209 248.350632 
236.549255 279.304352 
237.295532 311.459503 
237.300766 256.692841 
237.415466 263.865967 
237.445038 257.547485 
237.58342 287.349884 
238.101852 217.506439 
238.48645 247.123993 
238.656754 269.138123 
238.824265 261.043884 
238.97142 269.391785 
239.332703 235.648911 
239.717712 309.698608 
240.23587 230.94397 
240.500473 234.609894 
241.514694 213.390991 
241.659332 240.739471 
241.669754 280.655914 
242.004791 244.456223 
243.871536 218.361481 
243.963196 278.044708 
244.341354 283.761353 
244.387589 256.699158 
244.873886 258.509399 
245.107529 275.725159 
245.304596 276.488342 
245.505539 266.909454 
245.628799 277.87146 
245.742599 249.393951 
245.809067 284.197632 
246.716156 320.492554 
246.986313 252.82103 
247.120361 266.940491 
247.365845 253.82547 
247.939606 234.219467 
248.292572 265.72522 
248.322174 279.307831 
248.769257 234.616745 
248.923843 270.405823 
249.250977 306.457214 
249.329346 227.685913 
249.691818 299.411255 
249.80217 312.911865 
250.286346 224.559906 
250.405716 388.18576 
250.947311 239.389893 
251.150467 292.49353 
251.475693 267.037506 
251.93399 232.236313 
252.371338 272.834656 
252.960022 267.712158 
252.97583 249.577942 
253.382141 320.627075 
254.138382 249.879105 
254.27858 303.120209 
255.270935 240.432251 
255.680984 347.857971 
255.902298 246.435837 
256.687286 247.779144 
256.832306 250.977936 
256.893494 231.535309 
256.945404 264.422516 
256.970734 369.752625 
257.423981 298.31485 
257.528351 308.377899 
257.548492 278.731262 
257.724426 248.107742 
258.005188 277.505707 
258.064453 282.787262 
258.265747 250.820068 
258.834106 247.598572 
259.059998 294.934357 
259.106171 254.604294 
259.369202 230.243271 
259.537933 250.208679 
259.62561 277.74292 
259.67041 217.394714 
259.693909 232.777161 
259.968658 256.352509 
260.013672 241.363495 
260.025818 263.132446 
260.661469 285.778229 
260.673401 218.445435 
260.803772 246.580673 
260.911926 267.305817 
261.038483 356.049255 
261.13974 241.542374 
261.359283 217.01062 
261.424316 272.00238 
262.153473 264.471222 
262.507141 239.441849 
262.511566 279.641418 
262.512787 248.546677 
263.050415 250.888168 
263.102509 225.926971 
263.232849 267.755463 
263.311859 285.995575 
264.844757 302.74939 
264.938751 299.395599 
265.392853 254.742035 
265.518341 282.302124 
265.589447 235.928055 
265.817383 263.00766 
265.992065 313.423981 
266.15155 263.280853 
266.214905 262.460114 
266.521851 244.302597 
266.665131 252.732117 
266.819763 445.500519 
266.994324 254.734741 
267.191925 247.096817 
267.696045 269.016418 
267.793823 238.550537 
268.881989 246.735565 
269.39328 323.660431 
269.990204 269.937134 
271.089447 307.789612 
271.976776 350.461273 
272.006134 318.293121 
272.008148 369.80188 
272.419159 279.494598 
272.667664 262.543915 
272.817383 326.369171 
272.855377 432.148102 
273.646606 287.441254 
273.916504 267.104034 
274.350677 260.534332 
274.398346 291.377808 
274.481598 305.84964 
275.464813 252.185974 
276.200653 303.663513 
276.668182 280.288055 
276.985229 235.925034 
277.800018 302.044159 
277.914246 253.581192 
277.953247 290.525085 
278.378815 287.382568 
279.075867 242.556412 
279.777802 270.84256 
279.831207 256.507507 
279.900391 329.620697 
280.357361 328.851776 
280.419525 232.259048 
280.485016 271.001617 
280.48822 288.882355 
281.108124 234.491547 
281.171265 312.300934 
281.18219 348.638794 
281.535522 246.619705 
281.671967 229.634094 
281.841736 336.569275 
282.37793 301.973206 
282.888031 360.958649 
283.033325 220.253281 
283.206268 327.567719 
283.694794 378.890808 
283.888184 342.070068 
284.11203 246.025696 
284.250977 339.619049 
284.279877 255.878098 
284.595856 264.113831 
285.023865 266.050079 
285.152496 271.968933 
285.565399 261.677734 
285.858215 277.786407 
286.032806 268.227783 
286.207489 288.97998 
286.776978 223.382599 
287.276581 264.388245 
287.29892 388.569733 
287.883575 289.610321 
288.001648 261.107788 
288.186127 514.343506 
288.547607 264.306183 
289.475891 293.668335 
289.502289 321.104218 
289.613159 274.930664 
290.095154 261.868958 
291.182587 243.28363 
291.406403 291.496765 
291.687225 262.327301 
291.904175 227.215622 
293.185425 322.100677 
293.264496 296.577148 
293.805206 336.917297 
293.885223 378.554626 
294.00827 259.018555 
295.324005 275.983063 
295.424103 268.26532 
295.511963 328.458344 
296.227814 317.13501 
296.422485 249.933029 
296.837769 269.536407 
297.565338 360.632202 
297.728516 300.814575 
297.790161 257.237488 
297.987518 296.111938 
298.147888 264.105835 
298.427338 306.555145 
298.779388 227.149185 
299.120728 255.87706 
300.14267 304.72052 
300.453339 292.745636 
300.855225 331.722046 
300.9133 248.861908 
300.947815 266.648895 
300.952179 295.775574 
301.704041 330.390564 
302.159332 279.152252 
302.294067 269.507019 
302.591583 261.742401 
302.859009 285.302917 
303.031311 281.750031 
303.301361 240.720993 
304.526855 304.519104 
304.830414 260.565155 
305.454559 337.005951 
306.093811 255.086121 
306.387787 273.995148 
306.442139 237.494843 
306.748199 258.213135 
307.485474 297.831604 
307.628174 241.529541 
307.634033 318.612152 
308.142609 261.403351 
309.504211 286.504852 
309.683929 326.953949 
309.750305 310.318451 
310.543091 266.783936 
311.11853 279.170837 
311.246368 459.661774 
311.314728 276.643097 
311.381165 294.343018 
311.576721 268.994415 
312.360321 256.235565 
312.736542 264.602356 
312.930878 325.151367 
313.227844 282.772827 
313.509979 297.636292 
313.733032 252.641403 
313.901642 256.265259 
313.904388 322.136566 
314.682648 286.870728 
314.849121 252.650558 
314.995789 373.851379 
316.895569 300.334961 
317.380219 207.059586 
317.381256 218.868896 
317.531921 290.129578 
317.63974 300.277557 
317.992004 263.157867 
318.120117 224.355377 
318.590027 274.18161 
319.171906 262.135559 
319.467133 241.373642 
319.698547 330.026337 
320.108398 264.042053 
320.127899 294.073395 
321.266937 322.698608 
321.435547 276.394684 
322.28537 302.246185 
322.728027 260.196564 
322.800751 276.435791 
322.870239 266.31781 
323.058502 297.498657 
324.085876 284.125397 
324.466125 324.465057 
324.61673 310.483612 
325.413483 227.924057 
326.637756 271.580444 
326.859711 273.897766 
327.095795 304.904205 
327.381683 268.233887 
327.687927 290.77298 
328.047516 309.181671 
328.781189 330.937317 
331.379639 275.74881 
332.595551 248.43718 
333.036041 313.072571 
333.08316 378.250732 
333.373047 254.053009 
334.1409 386.144287 
335.25531 255.648026 
335.512665 284.424255 
335.645844 253.678452 
335.875488 276.090515 
335.97287 275.572662 
336.117767 281.447632 
336.155548 243.997696 
336.720978 341.582306 
337.086365 239.068771 
337.637787 339.974731 
337.753632 315.009796 
337.874359 323.646545 
338.158508 289.929016 
340.033539 264.096497 
340.781067 247.926224 
340.809509 258.255859 
340.84317 288.669403 
341.387787 272.544952 
341.39679 348.930115 
341.442596 231.065262 
341.449249 246.47731 
343.255951 282.097229 
344.744476 294.227173 
344.850098 312.098511 
345.071747 292.225525 
345.390533 294.277863 
345.43515 281.625092 
345.868927 259.964783 
346.034546 293.721008 
346.200562 258.676971 
347.048889 265.428284 
347.194458 331.030151 
347.25238 242.097137 
349.033417 283.186066 
349.376526 357.99826 
350.224762 341.916901 
350.982422 261.053589 
351.817505 390.697968 
353.24176 265.208954 
355.989258 333.669769 
356.111603 318.660767 
356.178802 290.025909 
356.258301 261.551544 
356.780151 287.881165 
357.439636 255.53685 
358.556671 267.838348 
358.720856 236.778519 
358.907257 264.661804 
359.39859 281.329285 
359.617584 334.968475 
359.753998 314.246979 
359.776093 326.312866 
360.413849 255.436707 
361.330383 231.699707 
363.05545 288.9021 
363.074341 283.755798 
363.317017 372.572357 
363.445953 267.245087 
363.974548 266.135406 
364.975403 357.86911 
365.197021 271.827454 
365.266418 271.061401 
365.604645 281.223572 
366.86792 338.316193 
367.409668 247.627426 
367.609131 246.278137 
367.742279 264.019043 
368.295685 342.571045 
369.54892 298.660858 
371.093903 272.577606 
371.617706 322.710541 
371.706421 292.175171 
371.864288 248.778091 
372.081787 270.267639 
372.272919 276.090088 
373.408264 302.578125 
373.418976 313.770386 
373.771576 283.80304 
374.065918 267.758728 
374.20752 271.352844 
374.706207 234.349777 
374.880402 228.993149 
375.074036 290.789368 
375.832489 282.10788 
375.881073 262.604401 
375.994141 286.150299 
376.015625 256.126526 
376.962616 281.310242 
377.166199 250.041672 
377.499207 284.273376 
378.599213 258.139648 
379.409698 248.760376 
379.697113 264.748566 
380.030975 309.157135 
380.77005 271.198181 
381.35498 277.877655 
382.282318 255.623337 
382.661682 312.383545 
382.815155 374.825623 
383.790161 260.830078 
384.139221 226.114594 
384.339569 277.53241 
384.533325 292.365601 
384.788666 257.299652 
385.282104 262.33252 
385.892792 296.767609 
386.023529 324.024689 
386.337799 274.761444 
387.841003 281.785217 
387.915222 326.253021 
388.165314 263.395142 
388.569427 334.765076 
391.720093 253.041748 
392.118256 264.860199 
392.236908 273.540497 
392.467163 358.96994 
392.506012 303.792297 
393.526672 309.586273 
395.296875 270.515717 
395.498199 292.271851 
395.567352 331.152863 
395.709442 390.172455 
396.197479 310.138031 
397.419373 251.487839 
399.82959 260.311249 
400.265015 269.489532 
400.69754 295.395172 
401.021057 365.553986 
401.497253 297.21521 
401.628235 278.496552 
401.778473 309.230652 
403.811981 230.269348 
405.208069 320.3591 
405.538971 306.82785 
405.698059 288.691772 
405.807526 295.433411 
406.335632 282.646179 
407.154205 256.95993 
407.336639 291.104279 
407.385345 267.503296 
408.427277 347.775269 
408.981323 269.895203 
409.088776 346.858429 
409.737335 262.249268 
410.258057 269.193298 
411.347168 357.837006 
411.549194 298.219971 
411.714294 352.187653 
412.80127 255.486938 
413.169891 282.920105 
413.235168 292.698486 
413.394196 316.332825 
413.453247 293.495392 
413.758575 294.637238 
414.126099 241.806015 
414.35672 258.085724 
414.807922 323.03183 
416.822754 299.998413 
418.139099 343.06366 
418.437042 291.315918 
419.867584 293.159668 
421.056396 255.606155 
421.981049 262.957489 
422.718353 218.02623 
423.182373 274.427063 
425.686737 319.742401 
426.904236 347.397522 
426.991791 374.455811 
428.924042 257.301453 
429.195648 376.000183 
430.098846 284.863434 
431.30127 271.088715 
431.306183 245.952393 
432.553955 279.829926 
433.420593 267.61261 
433.663177 258.306732 
433.867828 290.465363 
434.892212 250.571487 
435.201477 234.193222 
435.229584 231.042206 
435.2948 307.233917 
435.41394 342.322845 
435.737213 265.361877 
436.238098 234.084656 
436.279602 276.832001 
437.302094 264.513184 
438.229645 310.941406 
438.781006 338.46817 
439.606659 246.744385 
440.947205 285.700195 
441.387421 270.392242 
442.061615 285.256226 
442.705597 237.952225 
445.125244 239.488358 
445.766541 303.109375 
446.0047 308.788635 
446.129242 273.721558 
446.486938 395.552673 
447.971893 345.627747 
448.981262 261.695038 
450.226746 263.733765 
450.393951 269.542816 
450.434601 297.816528 
451.493164 270.088776 
451.692444 253.449432 
452.408569 273.658447 
454.011475 267.161499 
454.344452 325.092499 
455.011353 301.815399 
455.127533 251.937515 
456.616821 261.561432 
456.926666 266.298187 
458.008209 389.37088 
458.380707 243.875519 
459.077118 257.263123 
459.147888 309.656525 
459.4086 262.257721 
459.808655 273.016663 
459.998932 345.226013 
460.261841 248.167206 
460.325592 283.828278 
460.54364 259.863068 
462.127686 283.631104 
462.770935 292.118622 
463.224365 308.44101 
464.269745 238.865295 
464.272583 223.204407 
464.726227 350.89917 
465.768158 300.127625 
465.911957 276.044159 
465.918549 253.690796 
467.642761 292.263885 
467.908051 304.973145 
469.529846 292.533173 
470.644745 300.718384 
471.853912 280.971771 
473.819977 316.016693 
474.023438 389.745819 
474.299927 316.052917 
476.37796 250.488678 
477.121765 357.34021 
479.608368 272.949738 
480.179169 255.815475 
480.958435 344.313812 
481.365112 319.471405 
482.689758 318.588531 
485.500336 237.570923 
486.69397 282.775024 
488.533173 288.074524 
488.693756 278.535889 
489.082611 255.920776 
489.365112 284.349274 
489.526947 257.002655 
490.387695 227.828842 
494.058807 246.013321 
496.414886 314.231476 
497.29187 303.862976 
497.711792 260.443085 
498.924713 288.680542 
499.062164 311.490448 
499.315826 271.583038 
499.92627 257.994232 
500.087891 285.063995 
500.840698 258.63028 
501.039398 295.788452 
501.382507 284.594025 
502.841858 247.185257 
503.14743 360.614441 
503.519287 373.621796 
507.736206 327.75528 
508.838959 275.634369 
508.985352 304.784027 
509.370819 398.372803 
509.97345 312.305328 
510.004242 317.524292 
510.25293 290.139343 
510.494659 297.417236 
510.545776 226.829544 
513.417847 266.965607 
515.041626 232.387344 
515.461975 284.097534 
516.840515 248.275391 
519.199585 284.728607 
519.750183 251.791168 
520.602661 239.341248 
520.609131 301.356995 
521.742859 265.3703 
522.341248 1591.337402 
522.397461 359.592743 
522.473694 333.17395 
522.911621 349.558319 
523.265564 268.269226 
523.344543 1244.285522 
523.895081 316.009491 
525.18158 313.795074 
525.811768 302.694977 
526.004639 304.9599 
526.436951 316.795105 
526.668274 300.595459 
526.923523 303.557617 
528.605225 285.877014 
529.741028 330.856781 
531.052917 312.172089 
532.291748 222.0858 
533.17749 258.057739 
533.605347 258.975403 
533.885193 367.51355 
534.306946 315.507294 
536.283569 285.081909 
536.298828 394.313263 
536.307617 353.949951 
536.356262 270.532867 
539.161377 253.850555 
539.739502 299.71048 
539.905334 284.752686 
540.351013 1546.117554 
540.622437 271.078247 
541.354919 889.839722 
541.761414 284.63623 
541.93634 339.470093 
541.952698 325.271393 
542.227722 271.183685 
544.975891 304.956146 
545.403198 386.280334 
547.149475 280.577209 
547.353699 339.281616 
548.013733 250.268692 
551.078186 277.041199 
553.156921 290.540558 
553.650513 333.56485 
554.426636 310.607849 
556.028137 232.368774 
556.78241 306.000153 
558.362183 2787.851318 
559.365234 1232.275269 
559.701538 243.914352 
560.145691 257.410248 
560.2146 331.132172 
560.28894 311.199493 
560.891846 286.769775 
561.730652 305.749603 
561.991028 316.385559 
563.32074 327.369629 
563.903198 333.546265 
564.666809 325.244781 
566.355835 275.396851 
566.754761 272.436615 
566.943298 314.597656 
567.680786 264.41391 
567.989319 342.146912 
568.143677 278.275482 
568.555664 259.968872 
569.857971 284.512573 
569.878723 295.015747 
569.911987 472.978119 
570.233765 364.955597 
570.9729 304.658325 
572.259399 304.449554 
572.944397 298.051361 
572.972595 350.779694 
573.14209 305.395935 
573.15094 348.12204 
573.211121 448.569183 
573.223022 250.578857 
573.232788 348.067322 
573.273254 262.509613 
573.584961 267.32486 
574.056458 275.703735 
574.349731 356.637878 
574.386353 260.012573 
575.619934 368.32724 
575.638733 384.713135 
575.664978 331.679932 
576.016907 239.114944 
576.281311 313.145569 
576.297241 324.671204 
576.35437 1582.286499 
576.371887 13362.134766 
576.501648 359.677948 
576.519714 377.675262 
576.580261 342.704163 
576.809875 265.615173 
576.993835 315.912933 
577.358582 531.921143 
577.375671 5205.52002 
581.024353 326.466766 
581.505432 312.011749 
582.174316 282.226929 
582.856812 252.596634 
583.093994 406.122864 
584.454102 274.821747 
585.557251 286.577118 
586.586365 481.70755 
586.676086 287.001312 
586.953308 341.594421 
589.224792 277.385254 
590.64978 267.782501 
592.157288 270.274658 
592.484375 262.183777 
593.316528 310.844238 
594.299683 247.260071 
594.308044 263.554779 
594.346741 304.197968 
595.66272 284.046997 
595.696106 302.157074 
597.158508 335.446259 
597.175964 269.972961 
597.201904 370.978912 
597.215881 355.058716 
598.354492 286.197998 
601.181458 285.68631 
601.313721 347.294952 
601.802368 254.463028 
601.892029 260.333435 
602.520203 234.340073 
602.792236 380.190033 
603.239868 281.261078 
603.586426 308.70874 
603.5896 306.327179 
604.305542 351.442902 
604.498718 402.074249 
605.373779 383.487762 
605.393982 387.711823 
605.40387 257.425629 
607.632263 300.088226 
608.451111 316.643677 
610.064758 398.379791 
611.358032 418.349579 
611.36969 579.165344 
611.384644 286.733246 
611.39447 259.851196 
611.406372 518.316467 
611.418579 833.411377 
611.432678 566.237488 
611.441406 524.750916 
611.812439 250.127975 
613.15332 241.740723 
613.985352 344.331696 
614.014893 276.553802 
614.46875 305.533997 
614.598816 369.101837 
614.90332 272.342987 
615.215942 345.04071 
615.231384 345.411865 
615.2547 373.530914 
617.147766 267.771515 
619.272644 319.259003 
619.741272 283.789795 
620.278687 316.714874 
620.303589 315.240814 
620.50946 283.421051 
621.028564 294.657928 
622.118469 243.175247 
622.133362 270.682556 
623.246033 320.082245 
623.261597 389.737427 
623.300842 404.391815 
623.315613 572.085144 
623.833374 297.574524 
624.145752 416.024689 
624.609009 281.409973 
625.355774 304.896271 
626.605774 337.348511 
626.648987 415.533112 
626.659119 373.43512 
627.200317 251.339142 
627.211304 302.936646 
627.225891 317.52066 
627.248901 381.660126 
627.507996 277.406494 
627.675659 356.462799 
629.114014 398.694672 
629.121948 350.718231 
629.137451 387.989441 
629.152222 420.125488 
630.59436 262.710968 
630.603088 329.31955 
630.720337 281.584015 
630.933655 352.21347 
631.21405 550.551025 
631.235474 397.433167 
631.262573 815.908386 
631.276489 834.370972 
631.291321 691.096008 
631.305359 265.818237 
632.463562 289.244171 
632.582031 312.648438 
633.567871 325.611786 
634.000427 307.90744 
634.629456 269.55246 
634.666504 318.468414 
635.522095 284.898987 
635.546448 243.218033 
636.175842 350.984436 
636.884521 326.752716 
638.167175 347.362274 
638.276428 299.244629 
638.749756 248.235611 
638.774292 374.766876 
638.789001 371.599762 
638.813049 277.805847 
638.820496 382.989807 
640.251465 477.935822 
641.71991 335.13504 
642.345215 324.917969 
642.893616 251.474014 
642.907532 427.370972 
642.92395 262.154053 
642.965332 283.873688 
642.974792 256.906219 
643.048828 364.702789 
643.297913 463.482391 
643.500061 231.618332 
643.511902 330.502472 
643.7948 314.423676 
644.423645 293.446014 
644.712524 281.240814 
645.926819 232.923996 
646.440369 350.806732 
646.72345 273.228241 
647.108215 302.598846 
647.176941 241.386307 
647.439575 357.651001 
647.508606 312.027039 
647.517334 395.443085 
649.270508 407.310364 
649.76178 335.584106 
650.054016 270.900909 
651.060913 334.443665 
651.102539 315.626709 
651.21936 262.707306 
651.38501 553.987854 
651.406799 348.090088 
651.413696 357.7229 
651.442566 519.705688 
651.455139 940.844971 
651.638672 343.569977 
651.714966 755.376038 
651.727051 507.697083 
651.743652 602.690857 
651.756592 780.271729 
651.769958 819.621399 
651.783569 926.315918 
651.802734 250.365265 
652.726929 291.560669 
652.765991 331.789307 
653.749756 364.799713 
654.775146 333.226196 
654.814331 355.194092 
654.828064 320.370422 
654.841125 404.782257 
654.869934 239.164551 
654.881714 576.717957 
654.891479 562.378235 
654.908875 402.60968 
654.932251 452.901642 
656.636108 284.066132 
657.112976 298.181763 
657.618225 290.178436 
658.119995 312.577911 
658.183594 307.579529 
659.776611 418.602692 
659.820557 318.269806 
661.836304 318.227722 
663.283325 304.102081 
663.745056 252.361359 
663.955811 456.485779 
664.211182 811.810059 
664.223389 355.771301 
664.238892 687.937195 
664.253052 519.493103 
664.543213 423.322601 
664.551697 500.52655 
664.578735 310.086487 
664.604065 627.062256 
664.981201 352.389618 
668.444275 951.508728 
668.460266 1237.018433 
668.476135 741.258423 
668.489502 761.864197 
668.503174 940.095825 
668.517517 726.275024 
668.531677 726.032776 
668.543091 520.898926 
668.555176 368.667267 
668.585083 772.682129 
672.713684 294.506195 
673.077454 305.15567 
673.229187 522.745239 
673.240051 591.433228 
673.26355 530.405945 
673.274048 793.723511 
673.288452 772.145996 
673.304016 832.623047 
673.316711 949.999512 
673.330627 635.657593 
673.74646 346.217682 
673.869568 305.290283 
675.698792 292.596283 
676.206238 336.973206 
676.311462 377.902863 
676.490723 297.733521 
676.508972 294.911469 
676.641174 288.775604 
677.085571 261.778229 
677.401489 345.023865 
677.784729 297.810272 
678.390625 311.232208 
678.520569 287.92569 
679.72229 294.263458 
681.427551 293.626526 
682.556152 517.658203 
685.824219 256.600494 
686.202576 333.60965 
686.432556 356.241028 
686.933472 368.396179 
686.955444 438.752441 
686.983643 356.331787 
687.004456 310.326019 
687.359314 323.552368 
687.376587 337.261078 
688.648193 301.287567 
692.232117 261.751068 
692.387329 285.704437 
692.624817 286.282776 
696.065735 323.972687 
696.62738 294.215393 
696.680786 451.683105 
696.702393 357.87442 
697.058105 404.21991 
697.074036 761.517029 
698.443237 676.895264 
699.447632 1357.353027 
701.185608 280.844604 
702.186646 261.28067 
702.968994 252.049713 
706.179688 493.222107 
706.201782 837.521301 
706.229675 630.634155 
706.246155 1056.03418 
706.262085 799.826599 
706.277893 1223.983398 
707.371033 261.440918 
707.794189 307.29953 
708.002686 304.250458 
709.241028 375.866425 
710.355713 353.124207 
710.959106 286.043701 
711.202881 299.297607 
711.339233 373.466003 
711.363342 457.341888 
712.119995 300.806641 
713.085022 334.569183 
713.287781 254.141022 
713.871948 297.539581 
714.396057 359.647888 
715.126526 263.865753 
716.047302 279.79892 
716.454773 531.849121 
717.458252 1827.278076 
718.49054 265.501129 
718.553101 419.853027 
719.152954 305.806671 
726.899414 301.787872 
728.574158 332.260986 
729.220764 318.708282 
733.001404 271.722412 
733.694397 304.529175 
735.583984 253.052628 
736.861816 275.552399 
737.066528 294.280182 
737.418457 308.669739 
738.017883 242.18399 
740.078491 362.284271 
741.179626 302.840973 
741.910583 330.021118 
742.54718 518.5755 
742.577698 365.429016 
742.595154 389.273895 
742.629272 475.014404 
743.442627 671.463623 
743.480835 674.859558 
743.497375 711.953369 
743.516174 367.986328 
743.97345 300.766449 
748.211121 456.349365 
748.609131 674.064941 
748.620544 443.857178 
748.640808 456.363434 
748.65979 759.99408 
748.677368 723.874634 
748.693237 993.456177 
750.225159 308.255951 
750.459351 294.717804 
750.492859 302.355804 
750.663391 292.313568 
751.035461 287.245697 
751.791443 315.91391 
752.555054 308.726074 
753.539551 308.292267 
753.549744 233.224716 
753.864197 289.812744 
753.90625 413.61911 
753.925354 616.397766 
753.94342 580.527222 
753.966431 920.833191 
754.052551 305.050964 
754.172485 295.187561 
754.604065 303.304657 
754.99231 330.787689 
755.589417 293.205627 
755.660461 290.512268 
755.730286 350.984161 
756.066162 306.376404 
759.071838 266.732819 
760.10553 375.475159 
760.138062 568.075256 
760.173645 590.49707 
760.194092 804.514282 
760.214722 576.958557 
760.23999 382.558929 
763.113098 279.842529 
764.046082 307.746948 
765.421753 313.440582 
765.656006 305.994354 
765.677307 314.442688 
766.133057 404.666565 
766.171936 336.676117 
766.647583 243.608795 
766.886902 274.62912 
770.509155 277.815704 
772.011475 334.466187 
772.111816 381.263855 
772.256714 338.179504 
773.651611 309.07016 
773.76532 302.645172 
776.924377 246.637863 
777.804688 288.257996 
778.312927 391.188751 
781.062378 311.977478 
781.130615 280.671143 
782.807434 312.133057 
784.548279 344.196228 
786.211182 288.625519 
787.188721 284.748596 
788.525696 323.96756 
789.666931 378.441772 
789.978149 348.98761 
790.309448 282.999146 
790.353577 341.208466 
791.272644 279.373444 
791.522705 323.885437 
793.089478 281.100342 
795.451233 335.665375 
795.472046 256.076996 
796.004028 258.386414 
796.105347 262.070526 
796.531433 507.883057 
798.050537 333.743713 
799.440796 298.040405 
800.059753 282.001251 
801.008972 234.347748 
801.013428 234.388138 
801.920776 402.078278 
801.93927 329.799255 
801.955933 518.099915 
801.979614 645.89447 
801.999817 774.363831 
804.811829 283.385742 
807.825989 234.875977 
811.841309 290.005249 
814.714966 374.7565 
815.812195 266.045685 
818.603394 378.339935 
823.298096 304.403564 
823.672424 285.281616 
828.375732 295.352814 
829.373047 361.716797 
831.237488 275.184845 
835.284485 304.27533 
837.595337 346.477936 
837.832581 288.041748 
841.523132 307.26059 
842.463257 332.12854 
846.284851 346.053925 
849.648071 523.674011 
852.79071 272.328705 
852.797485 276.754791 
855.215149 321.051636 
856.266602 276.261078 
856.314087 265.101868 
862.52063 333.421082 
862.849365 309.496155 
862.863159 278.855103 
864.179443 314.77951 
865.240784 287.857452 
869.307495 326.536804 
870.469543 278.348694 
870.684265 350.54126 
871.609192 334.998016 
871.636108 364.435791 
871.66272 493.710266 
871.694946 456.134125 
872.226013 420.585907 
872.278015 332.390472 
872.295105 269.726288 
875.393799 311.075989 
877.44342 271.328247 
879.361084 307.547974 
879.458069 306.489899 
879.677673 276.488403 
880.004395 344.415833 
880.62085 280.650635 
882.483826 269.614258 
883.065247 342.391907 
893.622131 260.965759 
894.912354 332.739349 
895.055786 250.910507 
897.062988 283.449677 
898.594788 285.749329 
898.982727 328.993958 
899.58313 332.464417 
900.547424 406.311371 
902.2276 299.188782 
904.046814 280.174408 
904.221497 415.660217 
904.239929 258.358856 
907.150024 401.735748 
911.386414 265.964539 
912.485718 270.445221 
912.592224 296.535339 
912.887268 365.9823 
922.894409 297.52771 
928.703735 293.017517 
929.000671 345.496124 
930.726318 267.324585 
932.169678 333.138367 
934.189819 360.495392 
934.418396 332.606293 
935.477844 275.524658 
937.176514 280.98349 
937.190247 302.672791 
937.729614 307.875122 
938.368591 256.664124 
939.331726 359.61026 
939.648315 269.170288 
939.665344 238.941986 
941.852356 308.197266 
943.89624 382.807922 
946.101929 330.253235 
946.148376 383.007721 
946.179443 360.034912 
946.869202 295.939392 
948.125488 273.805115 
951.940247 284.076813 
952.597961 295.536713 
953.547607 290.600281 
955.206604 555.255615 
955.250244 1582.738525 
955.282959 1605.303711 
955.308228 2031.287964 
955.343872 3132.609619 
955.539551 359.247131 
956.719788 332.86911 
959.452454 305.186066 
960.102539 375.869781 
960.789307 293.803162 
967.983459 460.18866 
968.442261 278.596558 
972.86377 257.010468 
973.47876 433.128082 
974.171021 493.406982 
974.936401 283.760132 
975.177063 338.960083 
975.403625 288.017853 
975.588928 328.437256 
976.475281 251.073212 
978.748718 266.908447 
982.722839 331.995697 
983.205933 309.012054 
987.499146 376.59845 
989.221008 323.419373 
989.954529 298.661896 
991.487976 293.886444 
997.926575 307.421783 
999.440918 319.441986 
1001.013611 379.972992 
1002.570862 278.472321 
1005.034241 376.186707 
1008.576782 287.38739 
1009.275757 316.257996 
1012.557617 433.731903 
1012.597229 433.979645 
1013.395996 337.827118 
1018.010376 284.746857 
1018.22168 277.840546 
1018.656433 317.93811 
1020.176758 334.592682 
1023.018982 344.029449 
1023.080933 889.499939 
1027.605225 341.340424 
1029.843872 263.102905 
1032.092407 352.030304 
1032.508911 388.426086 
1032.873291 249.665558 
1033.655884 285.821075 
1034.11792 309.767426 
1038.615967 271.107208 
1040.115479 291.939636 
1044.2854 345.043976 
1047.131226 268.080292 
1048.039429 332.423096 
1048.085083 300.866516 
1049.200562 309.814545 
1050.881714 283.57962 
1056.609619 292.616394 
1056.680542 500.437927 
1056.760254 484.290833 
1056.800537 553.579285 
1057.983643 257.030212 
1060.350342 307.06134 
1062.345947 250.008621 
1062.405884 250.500107 
1065.130249 298.687531 
1066.321411 337.432587 
1068.283813 305.120361 
1070.21582 320.167328 
1073.907104 406.244354 
1077.406982 340.874176 
1082.08728 273.503082 
1082.942139 292.577698 
1087.658447 323.183075 
1087.930908 302.293488 
1088.36853 280.96524 
1092.351318 296.121582 
1093.144531 305.03598 
1093.437988 305.22287 
1095.770996 388.212738 
1101.900879 347.540466 
1103.319214 330.347992 
1103.384277 345.910095 
1103.919678 286.531616 
1107.255249 342.384216 
1107.55542 341.637726 
1111.863403 313.368073 
1112.20874 302.305328 
1113.756714 274.05307 
1115.104492 280.512054 
1117.299927 432.83728 
1117.561035 264.693604 
1118.169067 348.071472 
1119.270752 276.57074 
1119.412598 270.863525 
1119.440796 281.072784 
1119.551514 317.423126 
1120.487427 298.410095 
1120.710693 393.57312 
1121.017822 334.968079 
1129.912476 304.204102 
1130.445435 324.095886 
1131.758057 316.748993 
1133.360474 268.762665 
1135.085571 335.352448 
1135.375366 306.305328 
1135.958618 318.358765 
1137.745483 484.181732 
1137.799683 299.687927 
1139.613403 335.420105 
1143.26062 258.611816 
1143.311035 302.722229 
1145.342285 371.30481 
1146.229126 283.226868 
1146.670044 333.934601 
1146.705566 277.839508 
1155.035156 304.841492 
1157.101318 254.110565 
1157.570679 416.367218 
1158.593872 268.63974 
1160.124268 373.784149 
1162.653442 409.247253 
1163.406128 324.92627 
1166.003296 299.18988 
1172.257812 260.9711 
1174.197632 315.804504 
1175.5 388.612488 
1177.601685 267.785797 
1177.627319 271.588654 
1179.022461 370.697418 
1184.409058 324.686615 
1185.859863 286.410126 
1187.849243 341.107361 
1189.569092 275.548492 
1189.656982 300.335999 
1189.945435 304.066589 
1190.764893 308.583008 
1190.985962 275.206512 
1193.190186 1290.041504 
1193.240112 1371.675171 
1193.287476 1510.919434 
1193.324097 490.214203 
1198.042358 317.459198 
1201.207153 319.534729 
1204.310303 363.533752 
1208.365723 304.154053 
1213.408569 343.750061 
1213.790771 277.71106 
1216.915894 344.43924 
1217.228149 274.722961 
1219.942993 291.658569 
1220.066284 404.307159 
1222.123169 279.662476 
1225.048706 362.624481 
1237.145996 358.295349 
1239.242676 411.883759 
1239.301514 494.645782 
1239.352905 389.823425 
1239.392212 277.82608 
1239.74707 322.053467 
1249.557007 279.45108 
1249.591187 316.369812 
1250.046631 326.302185 
1251.427124 385.551117 
1251.678101 328.796051 
1252.34314 511.409607 
1254.577881 291.070587 
1257.905884 290.371368 
1258.585083 291.860565 
1261.728027 374.901672 
1262.990356 289.106689 
1264.189697 324.095093 
1267.314819 344.578705 
1268.101318 310.725403 
1269.188721 300.078766 
1270.200195 335.003601 
1270.797119 290.084961 
1277.470093 361.736145 
1280.329224 334.982361 
1285.446289 273.954926 
1286.386353 374.511261 
1286.440308 392.788574 
1287.619873 313.770721 
1288.1875 329.883209 
1289.668091 413.142426 
1293.317139 300.428772 
1297.819214 340.597534 
1301.940796 260.098206 
1302.714722 305.431396 
1302.931763 334.723145 
1303.998047 355.104492 
1309.387817 323.468231 
1311.365601 293.067169 
1311.897339 324.78833 
1313.90918 273.064758 
1315.499268 314.543915 
1316.285278 311.006317 
1319.290649 424.597839 
1319.34021 465.994843 
1320.338257 342.342682 
1321.687988 449.123077 
1323.184326 317.977539 
1323.238281 325.213715 
1323.587524 304.473297 
1329.184204 292.353699 
1329.751953 348.552734 
1330.403564 359.376862 
1331.688354 306.204742 
1334.398071 332.849762 
1352.942383 269.158325 
1356.542603 343.05481 
1359.285767 298.561066 
1363.47937 376.451935 
1367.753662 495.841461 
1371.030884 378.367889 
1373.098389 296.913055 
1373.228394 509.154633 
1374.623047 339.561707 
1375.050659 323.518433 
1375.734131 298.374817 
1375.806641 290.593964 
1379.216675 299.924225 
1379.258301 277.705231 
1380.405273 297.336548 
1381.007935 297.58075 
1384.574829 293.001434 
1388.947021 286.412201 
1391.579224 391.456665 
1394.946289 316.292755 
1402.448853 317.339264 
1403.448608 318.018799 
1405.116333 376.196533 
1411.713623 392.027374 
1412.367188 696.201355 
1412.435181 753.913452 
1412.495117 709.237671 
1420.925415 339.826874 
1430.049316 267.319366 
1433.550293 298.62207 
1435.484985 340.136688 
1441.858154 260.99881 
1444.066162 297.761047 
1445.287354 326.462555 
1448.860229 371.010895 
1449.403687 317.832245 
1450.328369 308.925079 
1450.557739 320.35321 
1450.745728 307.29071 
1457.084473 359.635559 
1459.384766 294.134094 
1464.626831 280.353241 
1468.598389 446.646149 
1469.651978 419.184998 
1470.665771 309.96524 
1472.390015 376.965485 
1474.025513 282.673767 
1474.144775 286.056152 
1474.524536 324.332062 
1484.750366 403.909882 
1485.562988 425.308655 
1485.697754 335.562195 
1489.561768 379.469208 
1491.191406 355.709229 
1494.739014 349.61618 
1495.504883 324.942566 
1497.328979 290.881226 
1501.787842 242.46402 
1505.436646 263.898132 
1509.345215 314.805115 
1513.299316 335.939972 
1517.508667 360.643616 
1518.48877 373.770416 
1519.097656 329.367859 
1519.914917 353.748474 
1520.841064 357.437714 
1522.86377 314.642792 
1525.450806 395.245483 
1527.298218 320.891632 
1527.622925 294.528137 
1527.849731 298.485992 
1527.913208 348.06485 
1527.996216 422.973358 
1530.991943 264.298706 
1533.552124 295.686462 
1534.448364 324.081451 
1541.297607 252.253815 
1542.681152 502.108643 
1546.188232 338.038666 
1551.085815 288.226868 
1551.389893 325.353394 
1554.120972 393.959869 
1558.568604 330.798004 
1558.701904 282.396729 
1559.796265 251.942078 
1561.420044 317.117706 
1564.69165 358.249786 
1565.406006 270.147736 
1566.448364 292.964813 
1566.742188 280.57785 
1567.535034 311.096527 
1567.905518 420.591858 
1569.896729 308.53891 
1571.199951 405.662689 
1571.73877 366.236816 
1576.234619 307.808655 
1576.774048 325.336304 
1576.903442 476.08606 
1582.460571 321.881165 
1584.025513 360.035797 
1584.831177 373.649689 
1586.52124 322.474487 
1587.986328 283.911285 
1589.184448 437.542572 
1589.789062 335.495422 
1590.372314 451.959534 
1591.43103 312.02594 
1591.665161 332.569519 
1592.440063 1640.837158 
1592.859863 283.459412 
1596.950195 305.209259 
1597.063843 405.218964 
1598.573975 259.888245 
1599.689575 360.746246 
1601.911865 351.385223 
1603.77124 341.760162 
1604.19519 1029.964844 
1604.358887 512.707092 
1604.421143 538.266296 
1604.514648 658.926636 
1607.834473 385.998901 
1610.221436 355.348419 
1610.307373 283.772034 
1611.276245 389.995789 
1612.286743 339.182861 
1614.131348 289.877136 
1615.963623 270.01767 
1629.828735 322.857605 
1635.442871 336.828918 
1638.53064 295.175934 
1639.269531 323.192474 
1641.837524 375.329926 
1644.223511 272.617096 
1644.932007 265.922638 
1647.141235 327.745331 
1648.396606 341.102112 
1648.786865 305.476624 
1650.781616 322.895599 
1660.190063 274.66626 
1660.412842 370.226959 
1661.488159 326.807739 
1664.568237 347.925751 
1669.019409 279.374176 
1669.791748 283.733093 
1669.974976 296.223663 
1670.664795 371.47876 
1672.697632 271.803711 
1673.373779 414.797516 
1680.917725 319.812897 
1683.790039 261.776276 
1684.774658 349.831177 
1684.984009 269.189667 
1686.311279 302.079071 
1688.563232 359.100098 
1688.646851 565.599182 
1688.716919 394.129089 
1688.810547 371.340576 
1689.38208 292.825562 
1689.681152 372.441132 
1694.084717 412.449585 
1695.817749 392.459991 
1698.514648 1522.271484 
1699.846313 324.109131 
1701.659058 337.585175 
1702.231689 2134.119629 
1712.164185 338.870636 
1713.169189 319.307159 
1714.973755 262.210663 
1716.520386 338.044098 
1718.327026 345.784882 
1719.846191 352.162598 
1721.853271 364.158844 
1722.289551 310.09314 
1730.181396 328.362335 
1735.341797 414.244843 
1737.468994 358.506592 
1739.048218 314.149139 
1740.759888 333.221649 
1741.431396 335.742889 
1743.48877 303.439056 
1744.728516 312.629211 
1756.278564 385.324585 
1762.553589 400.326843 
1762.801758 351.535004 
1763.864258 311.684845 
1771.637329 266.441467 
1772.920166 346.185364 
1777.155273 291.796814 
1778.584595 290.247742 
1780.234253 389.000397 
1780.41272 272.11499 
1784.56958 363.271881 
1787.293823 309.556702 
1789.527222 275.441193 
1793.188232 331.912323 
1798.923584 311.490295 
1806.036377 410.719421 
1807.257568 419.413971 
1807.692627 371.092834 
1808.981934 330.764557 
1814.88623 407.321106 
1817.741333 291.61377 
1817.980347 313.698547 
1818.371216 392.51178 
1819.437866 295.926086 
1820.029419 507.741241 
1821.047607 386.095154 
1824.206421 297.61673 
1827.040771 306.356628 
1838.497559 368.617737 
1841.328979 384.081787 
1842.643311 269.568634 
1845.876953 347.442566 
1851.106079 365.991119 
1853.151978 420.782196 
1854.587402 328.680206 
1855.133057 279.944427 
1855.830444 646.532898 
1859.063843 445.367462 
1860.895142 291.036774 
1861.969971 353.116119 
1873.588013 301.959106 
1879.252075 315.673004 
1883.631836 354.725739 
1885.585571 295.226471 
1894.050781 338.292145 
1896.634277 273.225159 
1898.489014 361.695557 
1899.846069 326.871857 
1901.993896 338.437378 
1902.202759 289.464935 
1903.480469 312.749542 
1905.664917 381.99649 
1906.07959 314.328461 
1907.719727 526.297729 
1908.756714 319.00824 
1909.251831 374.748688 
1909.678955 343.335388 
1913.651733 360.646271 
1914.643433 432.276611 
1922.145752 273.620392 
1923.718018 305.680756 
1924.309448 256.474243 
1927.003662 373.040436 
1929.512451 457.320892 
1934.555664 386.012665 
1936.411987 371.958557 
1943.427368 316.806213 
1947.893188 331.52417 
1954.209351 353.25235 
1957.446533 369.924561 
1957.87146 284.66156 
1958.751709 336.720795 
1959.47583 396.161469 
1959.739258 347.33078 
1960.147705 319.308685 
1968.234253 309.40033 
1969.21521 334.376587 
1974.535522 320.635406 
1977.761353 342.476898 
1978.933594 337.522339 
1980.897217 323.115753 
1981.980225 388.754639 
1985.221558 425.40979 
1991.540283 409.745758 
1993.355225 341.470245 
1994.193115 291.154297 
1994.376953 362.9104 
END IONS

