BEGIN IONS
TITLE=Scan Number: 1
PEPMASS=561.40002
CHARGE=1+
COMPOUNDNAME=Desferrioxamine B
LIBRARYQUALITY=3
SMILES=
INCHIKEY=UBQYURCVBFRUQT-UHFFFAOYNA-N
INCHI=InChI=1/C25H48N6O8/c1-21(32)29(37)18-9-3-6-16-27-22(33)12-14-25(36)31(39)20-10-4-7-17-28-23(34)11-13-24(35)30(38)19-8-2-5-15-26/h37-39H,2-20,26H2,1H3,(H,27,33)(H,28,34)
MSLEVEL=2
SOURCE_INSTRUMENT=LC-ESI-Hybrid FT
FILENAME=f.celio/Library/561.mzXML;
SEQ=*..*
NOTES=
IONMODE=Positive
ORGANISM=GNPS-LIBRARY
NAME=Desferrioxamine B M+H
SPECTRUMID=CCMSLIB00000531491
ACTIVATION=CID
INSTRUMENT=ion trap
SCANS=1
50.00209 4.224388 
50.002678 3.107356 
50.009388 3.121464 
50.009975 3.097144 
50.01207 3.59828 
50.015678 3.125616 
50.015846 3.182635 
50.016014 3.411837 
50.017609 3.37055 
50.017944 3.129465 
50.0187 3.372649 
50.02541 3.303188 
50.02692 3.269968 
50.028179 3.848085 
50.028851 3.189834 
50.030865 3.570559 
50.036236 3.585696 
50.037327 3.539998 
50.044632 3.625651 
50.054455 4.13739 
50.057564 3.133371 
50.066719 3.437146 
50.06739 3.268547 
50.069576 4.014737 
50.073608 3.288423 
50.073776 3.747862 
50.073944 3.670423 
50.075203 4.836795 
50.082432 3.084989 
50.084869 3.599535 
50.088989 3.043946 
50.093277 3.494867 
50.098911 3.04509 
50.099415 3.387278 
50.103786 2.978407 
50.115059 3.197642 
50.115482 3.779035 
50.116238 3.451511 
50.117165 5.71588 
50.122211 3.08162 
50.130375 3.69609 
50.131638 6.696556 
50.134079 3.51752 
50.13509 3.426297 
50.139385 3.312534 
50.140392 3.159734 
50.143257 3.44859 
50.147045 7.321289 
50.1521 2.921167 
50.156479 3.547857 
50.159428 3.321965 
50.169708 3.644832 
50.180412 3.366699 
50.187408 2.987506 
50.189095 3.325941 
50.201073 3.370903 
50.202251 3.325911 
50.214233 3.259152 
50.215752 3.074229 
50.217354 3.328891 
50.218788 3.802839 
50.220814 4.080803 
50.221661 3.446578 
50.223431 3.196202 
50.229763 3.332915 
50.232464 3.724024 
50.235504 3.645801 
50.23888 4.273543 
50.242092 3.150046 
50.24226 3.394952 
50.242428 3.100283 
50.247917 3.271859 
50.24868 2.995105 
50.25079 3.641097 
50.254761 3.390981 
50.259155 3.809632 
50.270058 3.18878 
50.282822 2.925876 
50.285782 4.160363 
50.290939 6.559543 
50.291363 3.876768 
50.29314 3.088382 
50.294746 3.117206 
50.296017 3.372512 
50.299568 3.184501 
50.305576 4.02618 
50.305744 4.30883 
50.308453 3.480816 
50.312092 3.202075 
50.316746 6.179921 
50.318356 3.093785 
50.328938 3.462545 
50.330124 3.684262 
50.332069 3.442615 
50.335373 9.789441 
50.336643 3.365092 
50.3391 3.186298 
50.34071 4.390704 
50.340878 4.102384 
50.346977 3.263129 
50.350876 3.433338 
50.359348 3.490273 
50.360958 5.555987 
50.361469 3.316183 
50.363586 3.341125 
50.36401 3.403809 
50.365196 3.370497 
50.365959 3.091059 
50.368248 3.083837 
50.370113 3.430989 
50.370876 2.951867 
50.371895 2.925653 
50.381306 6.067701 
50.383255 3.023259 
50.393265 3.494135 
50.394367 3.291733 
50.399544 4.314456 
50.400223 4.138987 
50.400394 3.235484 
50.400562 3.836883 
50.404465 3.220723 
50.407269 3.091615 
50.409134 3.280577 
50.409981 5.692659 
50.410748 3.744625 
50.411343 3.993542 
50.41185 3.873291 
50.41338 5.654998 
50.414143 4.746359 
50.416008 7.237342 
50.416348 4.930281 
50.416859 6.314494 
50.417706 11.183996 
50.418217 7.4001 
50.41864 12.757667 
50.41898 9.531941 
50.419659 9.299059 
50.420338 3.647801 
50.420509 3.394651 
50.420677 3.224186 
50.422291 10.771108 
50.424076 8.455104 
50.425011 3.106243 
50.427132 6.248631 
50.432056 3.395965 
50.435371 3.288558 
50.447094 2.995423 
50.448456 2.992026 
50.44939 3.373944 
50.450577 5.731039 
50.452106 3.970051 
50.455933 3.455635 
50.457973 4.922253 
50.458652 3.148267 
50.460609 3.483791 
50.467239 3.456692 
50.469196 3.732795 
50.477444 3.60764 
50.480759 6.796501 
50.482971 3.378134 
50.490116 3.118881 
50.494457 3.320392 
50.495819 4.210763 
50.501011 3.317375 
50.502285 3.573282 
50.507053 3.300987 
50.512329 3.592944 
50.51284 3.309702 
50.516163 3.18009 
50.518887 3.291647 
50.519482 3.02368 
50.520931 3.109853 
50.522549 3.61101 
50.524761 3.392401 
50.52536 3.390924 
50.52655 4.290105 
50.538391 3.797111 
50.540863 3.259082 
50.541546 3.204234 
50.543251 3.494461 
50.54538 3.148428 
50.560551 2.9728 
50.561405 3.9193 
50.561577 3.742838 
50.561745 3.835213 
50.563965 3.29627 
50.564476 8.351176 
50.567287 3.508057 
50.568054 3.401439 
50.568909 3.305888 
50.573601 3.118161 
50.576839 3.544304 
50.58213 3.715172 
50.586479 5.208613 
50.586739 3.974001 
50.586906 3.083262 
50.587677 3.1936 
50.591515 3.536207 
50.594673 3.592713 
50.596638 3.393255 
50.597233 3.008448 
50.598003 3.041964 
50.600475 6.569671 
50.601246 3.500115 
50.605854 3.241089 
50.606625 3.712219 
50.609356 3.298613 
50.609867 3.008319 
50.611832 3.170642 
50.613113 3.343206 
50.614223 4.029308 
50.615673 3.680108 
50.619431 5.394548 
50.621395 2.999606 
50.62336 3.458105 
50.623787 3.200137 
50.62635 3.128846 
50.631989 3.078682 
50.632931 3.840311 
50.637886 3.478611 
50.640022 3.223422 
50.646774 6.189161 
50.657204 3.262412 
50.669174 3.22316 
50.672512 3.707582 
50.676105 3.404005 
50.676445 3.460717 
50.677044 3.575331 
50.678501 2.98784 
50.681751 3.319707 
50.682693 3.470097 
50.689625 3.885683 
50.693645 3.45175 
50.696728 3.359135 
50.699982 2.988216 
50.702892 3.390227 
50.717449 3.304334 
50.72105 2.911108 
50.726959 3.40272 
50.729359 3.158844 
50.731331 3.40039 
50.731503 3.186276 
50.731846 4.462748 
50.732872 3.494617 
50.734158 3.935588 
50.737587 3.832957 
50.743416 3.456304 
50.750359 3.214362 
50.751644 3.472629 
50.754044 3.189412 
50.758591 3.176615 
50.759876 3.20561 
50.760563 3.118566 
50.76202 3.402241 
50.763821 3.518985 
50.766224 2.91469 
50.770683 3.510046 
50.774029 3.133715 
50.780895 3.413946 
50.781067 3.411435 
50.781239 3.193397 
50.783642 4.080704 
50.784069 3.394081 
50.798748 3.021185 
50.803127 3.442569 
50.804848 3.0455 
50.805706 3.183701 
50.808281 3.436804 
50.809654 4.034801 
50.810688 2.955894 
50.8167 3.545129 
50.818073 3.738364 
50.821255 3.465438 
50.825035 3.289394 
50.831993 3.347745 
50.836033 3.234006 
50.838699 3.189097 
50.841019 3.516448 
50.842308 3.505551 
50.851254 3.294847 
50.852886 3.128232 
50.856068 3.250414 
50.859165 3.424313 
50.859337 3.704928 
50.860367 5.291819 
50.865788 3.140102 
50.866219 3.652651 
50.866562 3.807069 
50.870346 3.675572 
50.879211 3.287054 
50.88274 3.205997 
50.88644 3.317309 
50.898064 3.35518 
50.898411 6.302812 
50.902027 3.643923 
50.904953 3.275421 
50.912106 3.183372 
50.913052 4.713772 
50.914948 8.33048 
50.922531 3.567661 
50.925892 3.471788 
50.928303 3.448418 
50.929855 3.183426 
50.93227 4.005141 
50.933475 3.066678 
50.933647 3.404963 
50.933823 3.732487 
50.934254 3.771408 
50.944859 3.36393 
50.947617 4.205366 
50.949169 3.251728 
50.951412 3.35358 
50.951927 3.243073 
50.95348 3.611664 
50.957535 3.351941 
50.964954 3.30937 
50.967113 3.826987 
50.970219 6.23229 
50.976002 3.068082 
50.977554 3.395798 
50.988865 3.509256 
50.989986 3.002212 
50.990158 2.794827 
50.99033 2.970948 
50.996204 3.371572 
50.999657 3.391809 
51.000523 3.530611 
51.003719 3.185619 
51.005703 3.177944 
51.00769 3.495565 
51.008297 3.503645 
51.020741 3.484564 
51.02195 3.862452 
51.026791 3.32871 
51.044601 3.555777 
51.046848 3.32233 
51.050224 3.630912 
51.057232 3.188548 
51.067009 3.162967 
51.067787 3.881038 
51.071163 3.22317 
51.075665 3.091562 
51.082417 3.024238 
51.085968 3.715972 
51.090298 3.497186 
51.095753 3.037983 
51.099651 4.102242 
51.099823 3.856424 
51.099998 3.367374 
51.10043 2.999892 
51.102077 3.651374 
51.106407 3.47518 
51.110222 3.586414 
51.111694 3.733514 
51.112648 3.220342 
51.114986 3.339815 
51.115765 3.457249 
51.116375 3.5165 
51.124954 3.304844 
51.12669 3.450426 
51.127121 3.607558 
51.136051 3.439051 
51.137093 3.129529 
51.140736 3.171493 
51.142731 3.444937 
51.144203 6.453429 
51.153141 3.078611 
51.154182 2.832921 
51.155743 3.368838 
51.158001 3.742556 
51.15852 3.578316 
51.164162 3.748688 
51.166592 3.935243 
51.167545 3.281482 
51.172928 3.112407 
51.173882 3.092119 
51.179787 3.837072 
51.183174 3.187068 
51.184128 3.141604 
51.184563 3.248052 
51.18734 3.349067 
51.190208 3.982615 
51.193768 3.29864 
51.194378 3.507518 
51.19759 3.36483 
51.20993 3.445789 
51.213493 6.551505 
51.215839 3.311024 
51.220013 3.431446 
51.224621 3.209178 
51.230881 3.358379 
51.23262 3.0995 
51.235577 3.006688 
51.239491 3.857713 
51.242275 4.01746 
51.254978 3.185484 
51.257065 3.783397 
51.274822 3.413966 
51.279003 3.395635 
51.287971 3.571318 
51.291023 3.589432 
51.291458 3.38942 
51.302872 3.198491 
51.304092 2.84257 
51.304703 3.2209 
51.307316 2.844774 
51.314899 3.258735 
51.321003 3.34285 
51.322224 3.279177 
51.329807 3.267187 
51.333908 3.147882 
51.335564 4.067226 
51.336872 3.631258 
51.338181 3.101074 
51.338966 2.863013 
51.341934 3.278102 
51.343067 3.319203 
51.343853 4.030914 
51.346733 3.707811 
51.347603 3.508984 
51.3545 3.578422 
51.358078 3.761351 
51.360085 3.334583 
51.361568 3.356554 
51.362965 2.872428 
51.369602 3.387847 
51.370037 3.594255 
51.37606 2.92124 
51.376846 3.117935 
51.377373 5.065922 
51.378422 3.181169 
51.379032 3.939007 
51.379642 3.957491 
51.381039 3.361025 
51.390911 3.47696 
51.394318 3.427117 
51.401833 4.048761 
51.40839 3.056263 
51.416958 4.463412 
51.41827 3.11492 
51.419491 3.012438 
51.423428 3.128814 
51.427711 3.776836 
51.428936 3.057717 
51.431038 3.294565 
51.434361 3.196458 
51.43576 3.732421 
51.437248 3.153901 
51.439083 3.198253 
51.442497 3.059133 
51.444595 3.019533 
51.447834 3.620738 
51.460003 3.171782 
51.462013 3.117723 
51.465778 3.372249 
51.468143 3.232909 
51.47226 3.536806 
51.475323 2.814261 
51.475937 3.147101 
51.481632 3.645212 
51.48233 3.346084 
51.493019 3.296652 
51.499069 3.062999 
51.499504 3.499152 
51.500206 3.14393 
51.504677 3.001417 
51.506783 3.641735 
51.517303 3.683882 
51.518703 3.033191 
51.524845 4.275965 
51.525635 5.910354 
51.52853 6.503054 
51.529228 3.513546 
51.529842 3.061274 
51.531158 3.018067 
51.534931 3.78465 
51.5373 3.349009 
51.541512 3.500641 
51.555119 4.14761 
51.555645 2.909076 
51.556084 3.252136 
51.55661 3.242752 
51.557575 2.932318 
51.56179 3.46679 
51.563457 3.211856 
51.56451 3.71003 
51.565479 3.049738 
51.56583 3.587862 
51.566357 3.261911 
51.573029 3.25101 
51.574085 2.93636 
51.5783 3.630787 
51.579002 3.6989 
51.580849 3.030146 
51.58234 3.210342 
51.585415 3.602414 
51.595348 2.955571 
51.595787 3.260911 
51.597984 2.973453 
51.598862 3.270885 
51.600094 3.325279 
51.600708 5.380733 
51.605278 2.777652 
51.605457 2.748886 
51.605633 3.367525 
51.612755 3.453723 
51.622074 5.941514 
51.628143 3.847792 
51.630871 3.436738 
51.63448 3.274826 
51.636414 3.547091 
51.636856 3.226504 
51.638088 3.914991 
51.640816 3.463311 
51.641342 6.10508 
51.641785 2.771695 
51.643982 3.714293 
51.644512 3.386838 
51.653931 3.143003 
51.655251 3.098259 
51.65657 3.064354 
51.660709 3.381234 
51.665466 4.536538 
51.667843 2.924544 
51.67313 3.013647 
51.673569 3.175975 
51.677887 6.106369 
51.678768 3.485096 
51.680439 3.015306 
51.682468 3.034791 
51.683525 6.38543 
51.689781 3.06386 
51.698597 3.248504 
51.699299 2.771499 
51.70459 3.919759 
51.711555 2.858185 
51.712791 3.404419 
51.71323 6.471901 
51.716228 3.188104 
51.718082 3.0433 
51.718788 3.538791 
51.720993 5.213301 
51.721874 3.004412 
51.722492 3.030472 
51.723022 3.362315 
51.72805 2.988676 
51.729286 3.179415 
51.734226 6.64955 
51.738022 2.977731 
51.741199 3.002993 
51.752235 3.338896 
51.756207 3.381785 
51.756912 3.05684 
51.758503 3.623929 
51.759209 3.134731 
51.760094 2.876979 
51.765656 3.599756 
51.766186 3.28329 
51.767159 3.120194 
51.768837 3.450111 
51.770691 3.649817 
51.776787 3.072825 
51.781734 3.206917 
51.789425 3.313676 
51.7934 4.112478 
51.796848 3.104917 
51.798176 3.158276 
51.800034 3.268421 
51.800915 3.531801 
51.803215 3.201475 
51.805779 3.47803 
51.806221 2.968332 
51.806751 2.851039 
51.811085 3.186855 
51.812237 3.816882 
51.81321 4.212098 
51.815773 3.913326 
51.817894 3.350442 
51.820194 3.508921 
51.820549 3.84282 
51.821434 3.148178 
51.823204 6.438294 
51.828159 3.499495 
51.831165 2.9919 
51.834442 3.231379 
51.842407 3.082664 
51.847542 3.459103 
51.852943 3.978015 
51.854004 4.317551 
51.854893 3.155328 
51.864368 6.486238 
51.865429 3.048168 
51.879608 3.614071 
51.883064 3.328081 
51.889977 3.426661 
51.890244 3.088424 
51.890419 3.405647 
51.89246 3.193733 
51.895027 4.131336 
51.897865 3.389934 
51.901146 3.25139 
51.902653 3.538285 
51.903362 3.410884 
51.909126 3.997452 
51.911522 3.005906 
51.912411 3.708691 
51.915871 3.57163 
51.91658 3.287131 
51.922611 3.482872 
51.923233 4.248811 
51.923676 3.187636 
51.926605 3.227265 
51.927135 3.291332 
51.936012 3.071352 
51.936546 7.025779 
51.93903 4.757493 
51.939831 3.199044 
51.950573 3.254446 
51.951817 3.360001 
51.964249 3.397463 
51.96505 3.382283 
51.971714 3.365766 
51.978466 3.43716 
51.984955 3.705112 
51.986645 4.62161 
51.987621 3.297131 
51.994823 4.337896 
51.998379 3.107381 
52.008961 3.687995 
52.013142 3.954771 
52.019012 3.525083 
52.020706 3.102477 
52.021328 3.123404 
52.025867 3.530972 
52.03334 3.240944 
52.037792 3.544588 
52.046608 6.521435 
52.050526 3.603818 
52.052395 3.908144 
52.05471 6.256443 
52.062637 3.56805 
52.072617 3.549909 
52.072975 3.33233 
52.082153 3.348971 
52.094814 3.325652 
52.095436 4.00461 
52.098736 3.206079 
52.101234 3.347357 
52.112473 3.538634 
52.116756 3.500634 
52.119164 3.29654 
52.120682 2.981182 
52.122734 3.138032 
52.127197 3.402309 
52.128716 3.148159 
52.132999 2.96238 
52.133892 3.296886 
52.134785 3.459996 
52.135319 2.915785 
52.142639 7.242239 
52.144516 3.021139 
52.145855 3.597042 
52.147194 2.967167 
52.152195 3.705391 
52.15836 3.326831 
52.161663 3.690582 
52.165237 3.352278 
52.165684 3.122296 
52.167561 3.693504 
52.170063 3.261306 
52.174709 3.725911 
52.178108 3.422464 
52.179806 3.097069 
52.182575 3.158075 
52.183826 3.122641 
52.190891 3.169839 
52.191963 3.814672 
52.193932 3.630648 
52.197151 3.344961 
52.213879 3.215205 
52.221306 3.871845 
52.224976 3.351803 
52.225513 3.123815 
52.22596 3.298562 
52.232136 2.830472 
52.233479 3.606164 
52.235001 3.102008 
52.23661 3.269881 
52.238491 3.09734 
52.246014 4.002209 
52.246643 3.302421 
52.263481 3.176574 
52.270832 3.674753 
52.278 3.011528 
52.280422 3.838322 
52.281677 4.067423 
52.284096 3.453053 
52.285442 3.239116 
52.288761 3.240618 
52.295216 3.474717 
52.296112 3.450718 
52.297817 3.523245 
52.302391 3.414045 
52.303467 3.732241 
52.309658 3.686604 
52.314774 3.651227 
52.31567 3.497483 
52.318092 3.141057 
52.31926 3.206438 
52.321053 3.375205 
52.327785 3.745338 
52.333084 3.536865 
52.333801 3.787292 
52.337032 3.142748 
52.339725 3.263813 
52.341614 3.695039 
52.345116 3.452455 
52.354458 3.8715 
52.355446 2.976835 
52.358051 3.984394 
52.359219 3.367801 
52.360928 3.046462 
52.36488 2.840342 
52.365509 3.151634 
52.366138 3.098125 
52.37009 7.455472 
52.374317 2.914777 
52.379349 2.898864 
52.379978 3.29937 
52.386185 2.978937 
52.386814 3.316384 
52.387352 3.570282 
52.391129 3.099579 
52.393467 2.954617 
52.398773 4.198673 
52.40498 3.354223 
52.406601 3.214852 
52.40741 3.299941 
52.413708 3.591913 
52.418747 3.813747 
52.42271 2.986746 
52.42334 3.445079 
52.429642 3.118327 
52.435314 3.307877 
52.439186 3.545974 
52.445938 3.243603 
52.447021 3.814399 
52.451256 3.550611 
52.453327 3.914982 
52.45549 3.472898 
52.459003 3.305847 
52.464317 3.175544 
52.467834 3.561065 
52.470448 3.314274 
52.472702 3.552848 
52.475677 5.541993 
52.47757 3.308491 
52.481354 3.169543 
52.483337 3.572864 
52.488659 3.512527 
52.491364 4.118688 
52.492626 7.589756 
52.49371 3.45376 
52.494431 4.613106 
52.500385 3.235207 
52.502098 3.213285 
52.503181 3.480701 
52.509136 3.366155 
52.515545 2.908824 
52.516537 3.615714 
52.518883 2.935139 
52.523216 3.107888 
52.525745 3.762109 
52.532154 6.513189 
52.538654 3.040965 
52.540283 3.477109 
52.541725 3.295915 
52.545067 3.42165 
52.548954 3.073615 
52.551571 2.978399 
52.556812 3.195217 
52.557808 3.043422 
52.56377 3.827768 
52.564312 3.106605 
52.567387 3.187559 
52.574257 3.465441 
52.576427 3.523233 
52.580494 3.527543 
52.583027 3.35088 
52.584743 6.531927 
52.58791 3.049878 
52.590805 4.509304 
52.596684 3.628498 
52.602383 3.750989 
52.602837 3.00335 
52.603016 3.034818 
52.603195 3.173808 
52.605549 3.067924 
52.613693 3.694779 
52.61496 3.435053 
52.623741 3.372877 
52.630711 3.430346 
52.63533 5.585684 
52.643753 3.159109 
52.645836 3.182218 
52.647015 3.297661 
52.647198 3.796587 
52.652813 3.551659 
52.654171 3.47064 
52.65662 4.269863 
52.660698 3.285813 
52.665771 3.212434 
52.669125 3.574918 
52.669579 3.412872 
52.672115 3.198745 
52.675289 3.856439 
52.675743 3.177839 
52.678734 2.851482 
52.681908 3.381832 
52.688438 3.256601 
52.691341 3.554972 
52.692791 3.343138 
52.694786 3.461619 
52.69878 3.797398 
52.700142 3.252561 
52.706764 3.636478 
52.70985 3.281697 
52.712936 3.198102 
52.718201 3.452059 
52.720379 3.559123 
52.720833 3.697086 
52.722557 3.325266 
52.723373 3.743445 
52.723919 3.138484 
52.727642 3.361767 
52.731728 3.431663 
52.736904 3.333227 
52.742989 3.250966 
52.743355 3.399247 
52.746349 3.271962 
52.748714 6.675066 
52.750439 2.854383 
52.760799 3.186029 
52.770615 3.280661 
52.77689 5.377728 
52.780254 3.749258 
52.780979 3.188781 
52.784435 2.98519 
52.787891 2.873631 
52.792259 3.937262 
52.792896 3.149521 
52.793896 3.078424 
52.795078 3.608918 
52.795986 2.94687 
52.799355 3.190706 
52.804176 3.252693 
52.809456 3.425538 
52.814007 5.946618 
52.820015 3.453364 
52.822105 3.355902 
52.824112 3.324918 
52.830395 2.98483 
52.835949 3.27139 
52.843689 3.168865 
52.844147 3.109888 
52.854988 3.217707 
52.856903 3.405256 
52.858086 3.253977 
52.863922 3.239393 
52.864922 3.641895 
52.868298 3.831873 
52.871212 3.452696 
52.871941 3.25011 
52.87468 3.382552 
52.892551 3.181839 
52.894012 3.250308 
52.900127 3.077014 
52.901222 3.077337 
52.90852 3.331607 
52.910622 3.316722 
52.91272 2.821242 
52.91354 3.376462 
52.917923 3.181195 
52.92057 11.057908 
52.923309 3.344503 
52.924862 3.088015 
52.925865 2.993934 
52.933903 2.977018 
52.936367 3.73631 
52.937557 3.350733 
52.940479 3.312923 
52.942398 3.097043 
52.944679 3.074793 
52.952904 3.210758 
52.959667 3.578775 
52.965607 3.069278 
52.968349 3.567439 
52.976215 3.347575 
52.981609 3.317844 
52.984261 3.248202 
52.985634 3.823967 
52.986183 3.207503 
52.987186 3.082492 
52.988926 3.35021 
52.989475 3.046237 
52.989658 2.837255 
52.989841 3.114417 
52.990391 3.510439 
52.99176 3.829269 
52.997433 3.198105 
53.003109 2.945109 
53.003567 3.258041 
53.004753 3.482413 
53.006584 5.985184 
53.007133 3.016461 
53.007957 3.496477 
53.008507 2.955125 
53.009422 3.382029 
53.011162 3.895676 
53.013725 3.462325 
53.02581 3.359484 
53.026817 3.264004 
53.028648 3.711972 
53.030571 8.967073 
53.034691 3.489258 
53.036892 4.605697 
53.040462 4.078451 
53.056866 3.740683 
53.057598 3.393414 
53.062454 4.312742 
53.073917 2.949889 
53.076576 3.291613 
53.077675 4.091107 
53.080704 3.281146 
53.085472 3.698885 
53.086296 3.121502 
53.088772 3.65451 
53.089783 3.543895 
53.090149 3.975133 
53.090698 3.329786 
53.091801 5.5646 
53.093727 3.311303 
53.097397 3.250599 
53.103638 3.018512 
53.104279 3.773943 
53.105656 3.407518 
53.111897 6.46578 
53.119884 6.697057 
53.120987 3.432067 
53.12429 3.282788 
53.125946 3.490726 
53.128609 3.300215 
53.129433 4.369658 
53.13026 3.905346 
53.132832 3.327137 
53.133293 3.145907 
53.134487 3.181965 
53.135956 2.98265 
53.137516 3.045258 
53.138344 3.518202 
53.139996 3.83059 
53.145325 4.216331 
53.147808 3.131168 
53.148449 3.135142 
53.151573 2.97598 
53.158009 3.269985 
53.161961 3.045172 
53.163521 3.598139 
53.168579 3.809062 
53.17667 3.195306 
53.179245 3.166161 
53.179611 3.13584 
53.183937 3.773765 
53.184395 3.122907 
53.186878 3.372801 
53.188534 3.385869 
53.190006 3.045587 
53.197735 3.190847 
53.200127 3.206685 
53.20335 3.368494 
53.204731 3.187151 
53.207489 3.257265 
53.212738 3.310405 
53.215408 3.347514 
53.222126 3.548985 
53.222866 3.419442 
53.223694 2.833722 
53.227283 3.124526 
53.227745 3.080013 
53.229954 3.403525 
53.230598 3.290079 
53.232075 3.450258 
53.234009 3.327747 
53.239258 3.457321 
53.241932 3.5536 
53.244511 6.934996 
53.252525 3.168102 
53.259624 3.585383 
53.261284 3.276483 
53.261837 2.883319 
53.265522 3.255239 
53.269581 3.395602 
53.281292 3.568343 
53.282028 3.398955 
53.284149 4.127191 
53.287655 3.126358 
53.28904 3.110257 
53.289776 3.333334 
53.295868 3.016293 
53.29771 3.190052 
53.299282 3.211712 
53.300758 3.190045 
53.302696 2.978179 
53.303249 3.104494 
53.308693 3.222506 
53.309155 3.170738 
53.314049 3.640116 
53.31525 4.221231 
53.317188 3.035211 
53.320419 3.852306 
53.321064 3.316537 
53.329746 3.485312 
53.330391 3.074198 
53.332333 3.328007 
53.334366 3.557097 
53.335934 3.042964 
53.351181 3.761903 
53.355801 3.413667 
53.365414 3.321282 
53.366432 3.084529 
53.368187 2.911529 
53.369019 3.824125 
53.37466 2.934225 
53.377895 2.99498 
53.390755 3.128178 
53.392418 3.353341 
53.393623 3.149366 
53.403893 3.585757 
53.405651 4.1889 
53.407875 3.049998 
53.411762 2.930772 
53.422131 3.048813 
53.428059 4.993164 
53.432968 3.113929 
53.434727 2.862477 
53.437969 3.419908 
53.439079 3.545328 
53.447975 3.494532 
53.449181 4.252996 
53.451683 3.81585 
53.456039 3.611393 
53.457428 3.344971 
53.457798 6.718899 
53.458355 2.978912 
53.461136 4.062856 
53.464104 3.218919 
53.465031 2.923822 
53.465771 3.305858 
53.466976 2.852741 
53.469109 3.371776 
53.471428 3.621934 
53.472076 3.110415 
53.47356 3.113057 
53.477734 3.532524 
53.479588 3.05757 
53.48135 3.503134 
53.486359 3.040593 
53.487103 3.346505 
53.493504 3.104494 
53.493874 2.992216 
53.500832 3.503224 
53.504547 3.767451 
53.505383 3.214062 
53.506588 3.151401 
53.511879 6.461542 
53.515591 3.415885 
53.518284 3.380836 
53.520977 6.498414 
53.522465 3.487114 
53.524693 5.49346 
53.527012 3.430271 
53.527943 3.080931 
53.531841 3.35664 
53.534721 4.924876 
53.539368 3.062008 
53.544106 3.562813 
53.549309 3.374445 
53.553768 3.093876 
53.556374 3.430541 
53.562134 3.079888 
53.565575 5.560085 
53.572083 3.827119 
53.572643 3.349843 
53.577572 3.298854 
53.582222 3.189948 
53.58287 3.021479 
53.58371 5.496707 
53.583988 5.113244 
53.593292 3.250207 
53.59478 3.154698 
53.597572 3.173621 
53.601479 3.426718 
53.606041 3.062242 
53.607624 4.365695 
53.611717 3.605239 
53.612183 3.34827 
53.614792 3.21207 
53.615349 3.506393 
53.616093 3.591687 
53.619724 3.496462 
53.622612 3.589514 
53.624008 3.694418 
53.634811 3.278178 
53.636024 3.806248 
53.642452 3.435714 
53.643757 4.327635 
53.646458 3.401621 
53.647205 4.037569 
53.650745 3.583345 
53.652515 3.413978 
53.655033 3.429081 
53.659412 3.134234 
53.662956 3.519138 
53.664261 6.257756 
53.665844 3.092185 
53.666313 3.547769 
53.672558 3.446121 
53.674984 3.149088 
53.67601 3.750447 
53.677967 3.105807 
53.678902 3.071363 
53.684685 3.299651 
53.685616 3.29149 
53.692333 3.812026 
53.695972 3.043229 
53.697186 3.690804 
53.697838 3.474166 
53.699799 3.536202 
53.702785 3.683119 
53.710346 3.506513 
53.712307 6.444877 
53.712772 3.194834 
53.714359 3.26877 
53.717999 3.262438 
53.725002 3.839677 
53.731449 2.948037 
53.732567 3.503952 
53.733223 3.154225 
53.733875 3.421018 
53.735184 3.20599 
53.742096 2.97613 
53.743217 3.344662 
53.745369 3.355583 
53.753403 3.048257 
53.755085 5.729476 
53.755928 3.031782 
53.756767 2.960127 
53.765743 3.257632 
53.771633 3.276849 
53.773598 3.38308 
53.774158 6.656622 
53.774719 2.937929 
53.776497 3.795404 
53.77874 3.133759 
53.781452 3.367773 
53.782387 3.829496 
53.78978 3.319919 
53.794552 3.239951 
53.800632 3.584905 
53.805218 3.443926 
53.808121 3.156632 
53.812706 3.275394 
53.820854 5.100017 
53.824036 2.916443 
53.826004 2.893342 
53.831997 3.220227 
53.837524 3.735262 
53.838741 3.49733 
53.84071 3.551243 
53.845394 3.390472 
53.846798 3.021358 
53.850735 3.492207 
53.852421 3.76185 
53.856544 2.948153 
53.860294 3.203471 
53.862171 3.339147 
53.86414 3.329504 
53.871078 5.293762 
53.876045 3.545701 
53.877548 3.433532 
53.87886 6.001307 
53.882141 3.293177 
53.895088 3.979651 
53.899406 3.172741 
53.909168 3.478845 
53.910198 3.644828 
53.911701 3.307675 
53.912544 2.929363 
53.917336 3.271125 
53.92466 3.409028 
53.926159 3.580932 
53.930576 3.486277 
53.931324 6.236832 
53.932076 3.294487 
53.936115 2.990723 
53.936962 3.054114 
53.944386 3.50172 
53.946922 4.859204 
53.956978 6.367606 
53.95961 3.169122 
53.9613 3.441286 
53.962898 6.241213 
53.968071 3.684506 
53.971924 3.607097 
53.972958 3.258255 
53.977379 3.971317 
53.981892 3.333619 
53.984619 3.560057 
53.98782 3.521504 
53.994312 3.755988 
53.997135 2.874621 
53.997887 3.33357 
54.001369 3.744797 
54.005886 3.326025 
54.006451 3.019208 
54.009369 4.664313 
54.014076 3.213304 
54.014545 3.469447 
54.017841 3.090973 
54.018593 3.148831 
54.033001 7.058113 
54.034698 2.973732 
54.037617 3.38133 
54.038654 3.250663 
54.048828 2.920099 
54.053825 6.373748 
54.055145 2.960345 
54.05571 3.305275 
54.056274 3.005163 
54.062496 3.417387 
54.062965 6.327816 
54.063534 3.400193 
54.069 5.992001 
54.07362 4.19241 
54.074657 2.94566 
54.086636 3.724661 
54.087296 3.363414 
54.088428 3.09446 
54.089088 3.051739 
54.094654 3.312643 
54.096069 3.786358 
54.110699 3.283575 
54.111263 3.128473 
54.113438 5.098221 
54.119289 3.233102 
54.120422 6.010333 
54.122501 3.259535 
54.125614 3.315073 
54.128639 3.148425 
54.129395 3.358184 
54.132889 3.064837 
54.138462 3.159856 
54.1395 4.586318 
54.144318 3.290925 
54.14753 3.246185 
54.148098 6.092405 
54.150082 4.886248 
54.150368 5.434402 
54.152916 3.399705 
54.156227 3.454725 
54.156982 4.007033 
54.165676 3.045573 
54.166908 3.809372 
54.186295 3.491866 
54.187241 4.438151 
54.19017 3.037157 
54.191116 3.120026 
54.192062 3.146896 
54.196415 3.412207 
54.198025 3.141587 
54.199917 3.385627 
54.201336 3.724082 
54.205311 3.117466 
54.207489 2.840713 
54.207867 3.652042 
54.211651 3.227979 
54.213165 3.500304 
54.216576 4.981521 
54.220741 3.129789 
54.221405 3.496753 
54.224339 3.08262 
54.230305 6.307117 
54.237503 3.070856 
54.24044 2.889953 
54.244041 2.989962 
54.24622 3.559443 
54.248302 3.475415 
54.24963 3.416176 
54.252472 3.280081 
54.257782 3.056241 
54.261665 5.900006 
54.263752 3.5496 
54.267258 6.829805 
54.268494 3.144667 
54.272472 3.077935 
54.274086 3.221859 
54.276173 3.483212 
54.276836 3.50717 
54.279491 3.364774 
54.281105 2.951277 
54.282619 5.381219 
54.284138 3.514726 
54.28651 3.389414 
54.29002 3.130178 
54.29998 2.988743 
54.302734 3.293351 
54.30928 3.383077 
54.315357 9.936441 
54.316212 4.014539 
54.317162 3.210842 
54.322098 2.901643 
54.324184 3.152706 
54.334538 3.183801 
54.339764 3.480604 
54.342991 2.918572 
54.345081 6.369013 
54.349834 5.957138 
54.353443 3.21577 
54.35677 3.632957 
54.362663 3.566185 
54.366276 3.50069 
54.366749 2.973074 
54.367416 3.065517 
54.374069 3.480849 
54.376068 4.010191 
54.377399 3.019 
54.383484 3.334237 
54.386337 3.471087 
54.39043 2.79869 
54.39547 2.90282 
54.404129 3.226948 
54.404606 3.275316 
54.411934 3.144148 
54.415741 3.597044 
54.41679 2.929665 
54.423168 3.219195 
54.425835 10.840714 
54.428596 3.101628 
54.432594 3.325934 
54.433643 3.095896 
54.43631 3.524865 
54.438213 3.604575 
54.444786 3.390556 
54.447929 2.950917 
54.449074 3.309058 
54.453171 3.07499 
54.456032 3.492953 
54.459366 3.77349 
54.463272 4.621995 
54.464321 3.635288 
54.466801 3.052051 
54.469376 3.186955 
54.482914 3.292426 
54.488064 3.58828 
54.495125 3.843759 
54.497509 3.433348 
54.502472 3.680857 
54.502853 3.163465 
54.505428 3.350106 
54.506287 3.391129 
54.511631 3.725861 
54.516308 3.307965 
54.517075 5.028314 
54.517838 2.958181 
54.51841 3.081113 
54.520607 3.359718 
54.525951 4.035724 
54.533497 3.244473 
54.533974 3.713884 
54.540085 3.190814 
54.544479 3.080615 
54.548874 6.171012 
54.551453 4.025385 
54.560436 3.225958 
54.561584 3.064533 
54.562538 2.860283 
54.563686 3.790926 
54.565983 2.924307 
54.578697 3.248536 
54.585102 4.040202 
54.585869 3.184555 
54.587017 5.769096 
54.588642 2.985468 
54.5896 3.315862 
54.591034 3.339369 
54.591991 8.487543 
54.592564 3.094689 
54.593712 3.398364 
54.597633 3.658998 
54.60347 2.928752 
54.605766 3.472616 
54.606915 3.038099 
54.607777 4.898504 
54.609882 3.196379 
54.613903 2.965187 
54.614666 3.027883 
54.617825 3.369473 
54.622135 3.133776 
54.634583 3.120295 
54.637169 4.3018 
54.649239 3.738217 
54.651825 3.149009 
54.653069 3.174143 
54.659779 3.981605 
54.663418 3.794137 
54.668213 2.874095 
54.670895 2.924227 
54.676937 3.051832 
54.684128 3.164149 
54.692089 3.212675 
54.694008 3.512275 
54.695446 5.595172 
54.698898 3.357501 
54.701874 3.655304 
54.707821 3.158939 
54.708492 2.868845 
54.714443 3.110883 
54.717995 2.904534 
54.719242 3.458909 
54.721451 6.755945 
54.721931 5.781885 
54.742386 3.409316 
54.756989 3.338699 
54.762367 3.117493 
54.764194 3.245277 
54.766502 3.191782 
54.769672 3.720876 
54.77121 3.113847 
54.778419 2.967287 
54.780922 3.033884 
54.782364 3.199828 
54.787651 3.568053 
54.790344 3.153939 
54.793327 3.305114 
54.802753 2.838776 
54.805737 3.219018 
54.806698 4.139688 
54.808914 3.327606 
54.81353 3.109397 
54.81411 3.620312 
54.815266 3.198623 
54.821907 3.433029 
54.82518 4.28815 
54.827007 3.252267 
54.832302 3.070533 
54.832783 3.025634 
54.833553 3.091261 
54.835289 2.977057 
54.836926 3.518455 
54.838272 3.243573 
54.841164 3.226454 
54.841354 3.229872 
54.842125 4.660025 
54.842991 2.937637 
54.843666 3.321582 
54.847424 4.277166 
54.850506 3.490648 
54.855129 3.683794 
54.859756 3.181943 
54.865925 3.653276 
54.869778 3.900708 
54.871319 3.059816 
54.875271 2.892711 
54.875755 6.123497 
54.878452 3.123529 
54.879322 3.347281 
54.879707 3.728109 
54.887421 6.312815 
54.889256 3.713536 
54.891376 3.115309 
54.893208 3.09482 
54.903336 3.045386 
54.90546 3.614568 
54.910572 3.271919 
54.913177 3.146982 
54.913563 3.502356 
54.914818 3.063981 
54.918293 3.857035 
54.924568 3.382704 
54.928524 3.346045 
54.930264 3.126751 
54.930843 2.770947 
54.937698 3.537647 
54.940884 3.267072 
54.941948 4.498834 
54.944553 3.148021 
54.946487 3.064662 
54.948513 3.911456 
54.952667 3.255018 
54.96088 3.832395 
54.968418 4.475531 
54.972477 5.833625 
54.974121 3.953551 
54.976925 4.273998 
54.979534 3.106895 
54.980598 3.788971 
54.988525 3.175016 
54.992683 3.096813 
55.000229 3.256118 
55.00642 3.541708 
55.008163 3.377541 
55.008644 4.235911 
55.015034 3.11425 
55.016289 2.953495 
55.017353 3.361614 
55.023937 3.183693 
55.030712 3.491621 
55.033325 3.114906 
55.042137 3.159592 
55.04427 4.249768 
55.055214 3.303673 
55.056957 3.014088 
55.061413 3.07896 
55.06374 2.967189 
55.064419 4.927705 
55.081184 3.962237 
55.089233 5.996048 
55.093693 3.059702 
55.099026 3.063372 
55.102421 3.249333 
55.102909 3.894441 
55.109699 3.26163 
55.112804 3.174375 
55.114841 3.187204 
55.116005 3.504147 
55.126778 3.538507 
55.127941 3.53306 
55.128719 3.245975 
55.130371 5.537763 
55.138233 3.220297 
55.142117 6.77116 
55.145905 2.939318 
55.150082 3.32973 
55.152702 3.106821 
55.154064 3.717988 
55.161156 3.439319 
55.164848 4.484689 
55.165043 4.171386 
55.168926 3.429671 
55.175049 3.303574 
55.17923 3.535333 
55.188271 3.386236 
55.189922 3.288363 
55.194981 4.08702 
55.201012 3.035038 
55.203735 3.775556 
55.209084 6.214474 
55.211224 3.318255 
55.216866 3.490423 
55.226307 3.32474 
55.22913 3.485064 
55.244511 3.706359 
55.2449 3.624054 
55.251816 3.046044 
55.261265 3.828353 
55.264286 3.034934 
55.269642 3.596554 
55.272079 3.023208 
55.276562 6.394532 
55.300545 3.067203 
55.303375 4.953893 
55.305325 3.138638 
55.30864 3.756831 
55.313713 2.96176 
55.317322 3.038573 
55.3223 3.574249 
55.323765 3.060018 
55.325813 3.067903 
55.3344 3.181879 
55.347191 3.031146 
55.350121 3.229511 
55.36409 4.225744 
55.366043 3.348269 
55.368679 3.302698 
55.370148 3.163701 
55.377571 4.787046 
55.386856 3.228679 
55.388325 3.228673 
55.388813 3.056782 
55.398296 3.742978 
55.398785 3.556609 
55.410816 4.823333 
55.424805 3.165374 
55.433907 3.334452 
55.435181 3.276472 
55.435768 3.063473 
55.437233 3.162035 
55.438213 3.106612 
55.439682 3.393191 
55.440662 3.699701 
55.442913 3.093184 
55.443401 5.937878 
55.446045 4.280595 
55.450943 3.255346 
55.451725 3.626159 
55.453388 2.878244 
55.458187 3.056982 
55.463184 3.722548 
55.464554 4.221335 
55.471413 4.053094 
55.47308 2.848433 
55.477783 5.640466 
55.47876 3.273939 
55.480034 3.05155 
55.480427 3.485319 
55.483662 2.994758 
55.487583 3.966561 
55.491993 2.991253 
55.49258 3.81243 
55.494446 3.302934 
55.498756 3.739536 
55.501209 2.851272 
55.508076 6.995693 
55.509544 3.160116 
55.511311 2.984809 
55.516018 2.930569 
55.518177 3.694635 
55.525337 3.161093 
55.527695 3.522506 
55.529263 3.06463 
55.531326 3.331599 
55.5326 3.486471 
55.533581 3.118074 
55.535446 3.343004 
55.539864 3.098751 
55.54055 4.125793 
55.541828 3.03525 
55.543987 5.010801 
55.547226 2.963809 
55.56451 3.508327 
55.567162 3.437497 
55.569126 2.982356 
55.572369 5.886414 
55.576591 3.663573 
55.581898 3.491599 
55.583275 3.190334 
55.590157 4.181709 
55.59045 4.811796 
55.593498 3.200276 
55.594086 3.45866 
55.595264 3.490601 
55.595856 3.345628 
55.60038 3.490982 
55.605591 3.157384 
55.615128 2.811078 
55.616802 4.535549 
55.618572 3.512106 
55.624081 3.158194 
55.627132 3.234658 
55.62851 3.402158 
55.633331 3.275748 
55.635101 3.510528 
55.643566 3.255729 
55.647011 3.733589 
55.664043 4.060694 
55.668774 3.376891 
55.672222 3.19957 
55.674683 3.652243 
55.675373 3.738719 
55.679512 3.282517 
55.680298 3.208585 
55.683846 3.143913 
55.686211 5.966204 
55.689758 3.078566 
55.690941 3.351732 
55.693504 3.561968 
55.694294 3.202103 
55.695969 3.436195 
55.697643 3.26671 
55.700108 5.945331 
55.707798 3.041278 
55.710068 4.192598 
55.712929 3.70699 
55.716183 2.96421 
55.717857 6.312709 
55.724369 3.37201 
55.724762 3.724569 
55.72654 2.870787 
55.734035 3.502407 
55.743114 3.483941 
55.744003 3.245944 
55.745583 3.692517 
55.759998 3.647971 
55.769081 3.726134 
55.778564 3.718305 
55.784294 6.794039 
55.78904 3.158571 
55.791805 3.393985 
55.79665 3.359125 
55.797737 3.576234 
55.79813 3.052129 
55.798428 3.305963 
55.800304 3.599492 
55.802975 3.654678 
55.806038 3.552255 
55.814148 4.369195 
55.816223 3.627918 
55.817806 4.23363 
55.82206 4.060819 
55.827698 3.970361 
55.829182 3.504269 
55.836502 3.420737 
55.837589 3.356092 
55.839073 3.310785 
55.842438 3.342907 
55.845509 3.473358 
55.853424 3.452903 
55.85778 6.523546 
55.859959 3.218669 
55.865704 3.465614 
55.887096 2.950901 
55.888485 3.632622 
55.8978 3.529246 
55.898891 3.204481 
55.90097 3.174531 
55.90345 3.943864 
55.904739 3.382211 
55.909695 3.416094 
55.910686 4.09865 
55.912075 3.251472 
55.913067 3.782609 
55.918716 6.795207 
55.92189 3.314492 
55.926353 3.211255 
55.928436 3.102855 
55.929825 4.078598 
55.930321 3.114328 
55.935577 3.30338 
55.936275 3.880588 
55.936672 3.32799 
55.938358 2.939505 
55.939152 3.45258 
55.952747 3.08756 
55.953838 3.388026 
55.954235 3.448055 
55.965057 6.264667 
55.976772 2.843536 
55.977669 3.492347 
55.979454 3.427575 
55.979954 3.36378 
55.982037 3.509749 
55.984024 3.313241 
55.986904 3.348212 
55.996841 3.414371 
56.014633 3.85441 
56.017517 3.286412 
56.027061 4.127079 
56.030148 8.681818 
56.032532 3.601102 
56.033726 3.699837 
56.03661 3.340801 
56.041386 3.711462 
56.044868 3.190435 
56.048054 3.3615 
56.054623 3.529693 
56.055916 3.116143 
56.058105 3.02526 
56.060196 4.310749 
56.065174 3.198676 
56.070747 3.863549 
56.074928 3.214642 
56.079014 3.068805 
56.082798 3.013721 
56.086285 6.362533 
56.100231 3.047229 
56.101227 2.915804 
56.10611 2.970277 
56.108803 3.981553 
56.114285 3.195912 
56.11927 3.448629 
56.126549 3.365387 
56.130638 2.92166 
56.131035 3.105098 
56.132233 3.352842 
56.13662 3.085165 
56.138916 6.525433 
56.145798 3.419081 
56.147396 3.057566 
56.152382 3.600531 
56.157673 3.779798 
56.160069 3.388224 
56.161167 3.556437 
56.162163 3.793714 
56.165058 4.653482 
56.165257 5.323676 
56.171947 3.206788 
56.174244 3.197528 
56.181732 3.585464 
56.188824 3.837827 
56.195717 3.757022 
56.20171 3.283408 
56.204906 3.557103 
56.207405 2.964487 
56.211704 3.043403 
56.213104 4.098472 
56.221798 3.478895 
56.224697 3.694155 
56.229198 3.247262 
56.234898 3.294338 
56.237 3.537047 
56.246502 3.397898 
56.2472 3.975765 
56.258007 3.100883 
56.259407 2.926164 
56.260609 3.310961 
56.263809 3.667629 
56.266514 2.991856 
56.267914 3.420951 
56.269016 3.104986 
56.269718 3.642797 
56.270916 4.11297 
56.27322 3.734373 
56.280327 3.870074 
56.285133 3.102545 
56.287239 3.470156 
56.299458 3.476338 
56.300461 3.282316 
56.301159 3.458152 
56.301861 3.170706 
56.303764 4.21082 
56.309376 3.269951 
56.316692 4.11877 
56.316895 3.433903 
56.317894 3.448076 
56.321804 3.616427 
56.323811 3.387068 
56.326115 3.094722 
56.330524 3.487095 
56.330925 3.446572 
56.33263 3.213685 
56.334034 3.13523 
56.341255 3.737987 
56.347275 3.73131 
56.356102 3.209029 
56.36132 3.326519 
56.364029 2.947287 
56.365334 3.33469 
56.366135 3.637463 
56.368946 3.250294 
56.37035 3.446333 
56.375671 3.056399 
56.378181 3.755083 
56.380287 2.891027 
56.391533 3.697308 
56.392738 5.90738 
56.398766 3.416338 
56.403587 5.697948 
56.405899 4.027686 
56.408108 3.641949 
56.410217 3.266651 
56.41494 3.712866 
56.416248 3.27256 
56.419262 3.296738 
56.425091 4.061197 
56.427303 4.466481 
56.427605 4.109113 
56.428207 3.69838 
56.429817 3.290703 
56.432831 3.803254 
56.433636 3.589465 
56.438259 3.2102 
56.444695 3.445553 
56.446907 3.506938 
56.44862 3.768849 
56.45023 3.12922 
56.451233 6.619592 
56.454956 3.312094 
56.457169 3.653311 
56.459179 3.953022 
56.459984 2.971127 
56.469845 3.890626 
56.471256 3.599895 
56.480011 5.189284 
56.48122 3.597001 
56.481823 3.548359 
56.487762 3.292541 
56.500755 2.846262 
56.50589 3.070925 
56.513042 3.231496 
56.521809 3.326177 
56.523624 2.918203 
56.528862 2.941978 
56.531082 3.223654 
56.532494 3.141588 
56.533703 3.555108 
56.540054 3.782005 
56.541264 3.123971 
56.545197 3.592075 
56.548321 3.482543 
56.551247 3.193571 
56.556694 3.086653 
56.557297 3.064357 
56.563049 3.64811 
56.564663 3.146247 
56.56678 6.05826 
56.575054 3.353706 
56.575459 3.441329 
56.57798 2.975314 
56.585449 3.275048 
56.591709 3.164571 
56.604534 2.995378 
56.609383 2.980561 
56.610493 5.816653 
56.615746 3.303756 
56.626152 3.431371 
56.634438 3.109989 
56.635651 3.044532 
56.640099 3.790505 
56.64101 3.251864 
56.649807 3.107243 
56.653751 3.452128 
56.654255 4.105046 
56.657997 3.229594 
56.658909 3.254621 
56.660221 3.854042 
56.662247 2.913157 
56.672058 3.761107 
56.674892 3.172749 
56.67823 3.320341 
56.682278 3.313386 
56.691589 3.65372 
56.691792 3.486231 
56.696651 3.431124 
56.709206 3.428587 
56.71265 3.488648 
56.713459 5.087979 
56.714371 3.226919 
56.719032 3.805298 
56.72197 3.578911 
56.723694 3.436739 
56.725414 3.852216 
56.726124 3.098859 
56.726933 3.755718 
56.730076 3.837496 
56.730885 5.615849 
56.733826 3.154068 
56.734837 3.662971 
56.738182 3.258227 
56.744263 3.531459 
56.746597 4.396908 
56.746899 5.138407 
56.747711 3.114564 
56.748623 5.00611 
56.752579 3.449667 
56.75288 3.770495 
56.755516 3.284097 
56.75724 3.445709 
56.759674 3.462237 
56.760284 3.60944 
56.76059 3.284367 
56.76495 3.568555 
56.765457 3.065893 
56.770325 3.345135 
56.774181 3.094047 
56.779758 3.22768 
56.78392 3.048838 
56.788589 3.544979 
56.791431 3.557193 
56.793461 3.716568 
56.799145 3.136373 
56.799755 3.261423 
56.801884 2.982709 
56.803814 3.046865 
56.810822 3.27281 
56.811531 3.023152 
56.812954 3.166463 
56.814373 3.172924 
56.815392 3.608066 
56.816505 3.331279 
56.817726 5.173548 
56.829407 3.605449 
56.830017 3.139504 
56.830933 3.136847 
56.833168 4.469183 
56.840687 3.645944 
56.842819 3.267419 
56.843838 3.065969 
56.85014 3.462081 
56.860813 3.313342 
56.861118 3.074919 
56.86488 3.344569 
56.865593 2.933522 
56.875256 3.403423 
56.875561 3.000968 
56.882378 3.060498 
56.891739 2.987949 
56.896317 5.780006 
56.901611 3.369214 
56.905884 3.155918 
56.906292 3.614384 
56.906803 3.43482 
56.916679 3.544042 
56.927166 3.19514 
56.928898 3.616676 
56.935928 3.06312 
56.938885 3.981829 
56.939392 3.249571 
56.943062 4.202153 
56.943264 3.852169 
56.94775 3.675983 
56.948563 3.290147 
56.951214 3.073309 
56.957127 2.956847 
56.958858 3.847521 
56.960388 3.147032 
56.96212 3.098998 
56.965893 3.200946 
56.967117 3.621162 
56.973644 3.180846 
56.977825 3.387224 
56.984352 3.035611 
56.98772 3.723925 
56.989864 4.51864 
56.992516 3.011045 
56.9967 3.533703 
56.998333 3.94535 
57.008026 3.9315 
57.009354 5.399016 
57.013439 3.421257 
57.014256 3.878259 
57.016602 3.536127 
57.022118 3.464761 
57.038254 3.348718 
57.041626 3.205902 
57.043056 3.617719 
57.044998 3.528443 
57.048779 3.248877 
57.052662 3.464592 
57.056034 3.866905 
57.056953 3.362483 
57.058689 3.531193 
57.06237 3.460193 
57.068913 3.149826 
57.085072 3.249024 
57.087322 3.226714 
57.094074 2.951685 
57.114437 2.778172 
57.120785 3.714277 
57.133892 3.091304 
57.135529 3.23677 
57.139114 2.976946 
57.143005 4.258462 
57.145054 3.209784 
57.148949 4.568458 
57.151409 2.90438 
57.157249 2.765474 
57.16391 3.384518 
57.164421 3.027536 
57.170677 6.938982 
57.173855 3.085085 
57.176006 3.016701 
57.178364 3.475597 
57.178978 2.954659 
57.186569 3.124699 
57.189236 2.963015 
57.197338 2.922352 
57.198673 3.898568 
57.201851 3.667219 
57.206879 3.610977 
57.209034 3.117468 
57.21006 3.256036 
57.215294 3.285609 
57.220222 3.95624 
57.221043 4.1322 
57.224739 3.966075 
57.230179 2.993263 
57.234901 2.973963 
57.238907 3.328606 
57.243633 2.895968 
57.243835 2.927601 
57.244041 2.989267 
57.244659 3.436886 
57.246407 2.934215 
57.246815 3.170149 
57.250923 3.354928 
57.253799 3.243484 
57.254314 3.074467 
57.254726 3.271305 
57.255959 4.768417 
57.257088 2.977955 
57.258423 3.321738 
57.260582 3.948975 
57.262123 3.340361 
57.264179 3.177835 
57.265926 3.272613 
57.266544 3.979546 
57.273842 3.154181 
57.274765 3.143697 
57.274971 3.356769 
57.275177 3.357373 
57.276718 3.100621 
57.277748 3.741179 
57.287205 6.305783 
57.293068 3.35435 
57.296459 5.988545 
57.298004 2.943024 
57.302425 2.845036 
57.307777 3.258934 
57.30901 3.419509 
57.312096 3.437405 
57.320332 5.738707 
57.325066 3.032748 
57.326092 7.327227 
57.327019 3.858301 
57.330727 3.34973 
57.332066 6.729855 
57.334225 4.688302 
57.338139 7.036612 
57.341537 3.396374 
57.343288 3.248419 
57.344215 4.168795 
57.344833 3.626242 
57.345039 3.890266 
57.346684 3.198645 
57.348022 4.849457 
57.350803 3.81996 
57.351524 3.317811 
57.352348 3.408942 
57.354614 3.180402 
57.357914 4.924587 
57.359665 3.090512 
57.36224 5.531705 
57.362549 4.891344 
57.363476 9.160674 
57.364403 12.48547 
57.365124 5.82496 
57.365536 3.402382 
57.36636 4.660445 
57.367287 3.711428 
57.368526 4.51133 
57.369556 3.29898 
57.371204 3.778971 
57.371925 3.94055 
57.376152 3.584325 
57.376873 5.31163 
57.379963 4.039926 
57.380997 3.096436 
57.390068 3.618056 
57.392437 3.19275 
57.393059 3.559031 
57.397594 2.949586 
57.3978 2.947218 
57.398109 3.576477 
57.399555 3.684599 
57.402752 3.205529 
57.405125 3.161354 
57.409248 3.339189 
57.411003 3.247435 
57.412346 3.71724 
57.423386 3.276522 
57.432156 3.440983 
57.435253 2.98607 
57.441963 5.314096 
57.443718 3.724468 
57.450844 3.070955 
57.456627 3.694331 
57.461895 3.343637 
57.465923 4.541399 
57.46706 3.418521 
57.470055 3.784916 
57.473053 3.323673 
57.475945 3.770317 
57.476772 3.053213 
57.481216 3.61063 
57.485142 4.165324 
57.486797 3.113674 
57.492275 3.246802 
57.494446 4.191742 
57.49641 2.90977 
57.497341 3.299752 
57.499306 4.516665 
57.499825 3.671055 
57.500546 3.085061 
57.50127 3.178116 
57.507164 3.578855 
57.509132 3.31365 
57.509544 3.494729 
57.510475 7.145409 
57.518955 3.980308 
57.523819 3.465346 
57.541 7.372223 
57.543896 3.188954 
57.545345 3.360642 
57.547108 3.946564 
57.549797 3.485548 
57.554665 3.503886 
57.564812 3.266608 
57.565643 3.578174 
57.565849 3.416668 
57.566883 3.75832 
57.571545 3.242698 
57.572273 4.019432 
57.573723 3.179102 
57.576313 3.495256 
57.577969 3.478018 
57.580872 3.518237 
57.585636 3.038393 
57.586468 3.186543 
57.592167 4.158606 
57.593204 3.965091 
57.595276 3.240749 
57.599113 3.426143 
57.600769 3.158745 
57.602428 3.337455 
57.605228 3.39609 
57.607304 3.310126 
57.623276 6.442084 
57.62701 3.137894 
57.62981 3.198787 
57.637177 3.677576 
57.639355 3.692719 
57.639874 3.204513 
57.640392 6.284344 
57.641018 3.120397 
57.642262 3.51219 
57.649632 3.532596 
57.650669 3.375931 
57.675385 3.568796 
57.676109 3.807307 
57.687641 3.336548 
57.691486 3.514095 
57.695435 4.048975 
57.697723 5.594811 
57.698658 3.181154 
57.704269 3.529753 
57.711651 3.518259 
57.71373 3.770385 
57.731827 3.593282 
57.736404 3.694468 
57.741192 3.518019 
57.742855 4.056261 
57.74577 3.8398 
57.747643 3.484273 
57.75774 3.767383 
57.760445 3.153555 
57.766277 3.532979 
57.768253 3.443601 
57.769089 3.317556 
57.771168 3.267946 
57.772209 3.485697 
57.773983 3.456396 
57.775333 3.543984 
57.775856 3.535485 
57.778667 3.533329 
57.785751 3.618334 
57.787003 3.630121 
57.792107 3.47732 
57.797626 3.281411 
57.802734 3.209118 
57.80555 3.297058 
57.816391 3.295168 
57.818161 3.568782 
57.821499 3.16679 
57.823586 3.479099 
57.824001 3.409273 
57.829109 3.211983 
57.830257 6.348376 
57.832134 6.130638 
57.83297 3.655453 
57.837246 3.414281 
57.837456 3.391328 
57.837662 3.300535 
57.852062 3.400899 
57.861244 3.360191 
57.863438 3.469516 
57.868343 3.279588 
57.869179 3.364803 
57.870014 3.501157 
57.877323 2.996771 
57.878262 6.63865 
57.878887 3.460687 
57.887558 3.351986 
57.891525 3.422799 
57.89257 3.6648 
57.897064 3.516999 
57.89957 3.465614 
57.900303 3.214181 
57.901451 3.501909 
57.905109 3.489511 
57.908348 3.056276 
57.912632 3.406531 
57.913467 3.136921 
57.917648 3.750668 
57.918484 3.126315 
57.925385 3.818628 
57.93668 3.690318 
57.938248 3.346607 
57.940235 6.482994 
57.943268 3.318693 
57.944313 5.447076 
57.947243 3.581643 
57.949333 3.954288 
57.950695 7.701115 
57.952473 4.151291 
57.953415 4.742019 
57.962204 3.382501 
57.963146 3.256798 
57.966599 3.222386 
57.968693 3.70172 
57.971832 3.30225 
57.972462 3.252734 
57.980419 4.041739 
57.981464 3.63803 
57.982197 3.477132 
57.995182 3.261602 
57.995811 3.215635 
57.998638 3.141853 
57.999268 3.625462 
58.00639 3.583167 
58.007126 3.073794 
58.011524 4.834854 
58.014248 3.240786 
58.016766 3.564318 
58.019386 3.32525 
58.023262 4.160172 
58.027454 3.273963 
58.029446 3.260672 
58.032173 4.042447 
58.051785 5.640686 
58.053463 3.497578 
58.059338 3.379911 
58.062695 3.644226 
58.063953 3.404479 
58.066051 3.688083 
58.07539 3.29461 
58.078331 3.070077 
58.080956 3.323697 
58.083263 3.139323 
58.088406 4.005626 
58.089561 3.655379 
58.099644 3.46094 
58.102375 3.070703 
58.10458 3.37806 
58.105736 3.656789 
58.10836 4.533291 
58.110989 5.787473 
58.118237 3.856103 
58.122231 3.669422 
58.126118 3.898371 
58.140308 3.394338 
58.144829 5.701955 
58.146301 3.112774 
58.160393 3.303225 
58.16618 3.392871 
58.168598 3.225835 
58.171967 5.482233 
58.172703 3.655959 
58.174595 3.258722 
58.177753 3.358233 
58.181015 3.565691 
58.181541 6.297738 
58.182068 3.31269 
58.197647 3.847895 
58.200806 5.784181 
58.209545 4.382281 
58.212917 3.601723 
58.21534 3.579323 
58.216393 3.050759 
58.218712 3.588989 
58.224819 3.820493 
58.225769 3.101608 
58.232197 3.609632 
58.241261 3.177431 
58.247478 3.478811 
58.250114 3.451564 
58.253593 2.9081 
58.258339 3.857793 
58.262981 3.486494 
58.263927 3.241936 
58.269627 3.204492 
58.273315 3.635703 
58.277641 3.69943 
58.278698 3.425015 
58.2826 3.284616 
58.298431 3.665335 
58.305401 3.367264 
58.309097 3.329119 
58.309624 3.402706 
58.314903 3.166335 
58.323563 3.545267 
58.327579 3.156621 
58.327789 3.32344 
58.327999 3.519653 
58.329269 3.417404 
58.335926 3.793977 
58.336136 2.983412 
58.344273 3.280734 
58.351353 3.240641 
58.353363 3.116325 
58.357697 3.614284 
58.361397 3.151683 
58.365734 3.665154 
58.366581 3.131063 
58.367531 3.293474 
58.378109 3.965837 
58.379906 4.140694 
58.382656 3.423996 
58.38382 3.231196 
58.38731 3.862298 
58.393238 3.621149 
58.407417 4.295275 
58.411972 3.226943 
58.414936 6.399529 
58.415676 3.241945 
58.419277 3.34833 
58.424358 4.232983 
58.433468 3.576946 
58.434105 4.278815 
58.443214 3.83781 
58.444592 3.216157 
58.447346 3.240481 
58.449783 3.181083 
58.449997 3.658973 
58.450207 3.8747 
58.452435 3.158468 
58.459641 3.765874 
58.461868 3.358484 
58.470665 3.664599 
58.473846 3.527433 
58.477135 3.27888 
58.479893 3.252699 
58.497715 3.269616 
58.506519 3.297608 
58.508854 3.206322 
58.509811 5.991251 
58.510658 3.162636 
58.51395 3.626945 
58.515331 3.013077 
58.516392 3.809856 
58.519791 3.1629 
58.522442 3.658719 
58.527752 3.888737 
58.529026 3.183484 
58.54092 3.626595 
58.546021 2.987335 
58.550377 3.529553 
58.551758 3.085564 
58.552715 3.027695 
58.55484 3.104601 
58.558769 3.736002 
58.563553 3.600354 
58.566422 3.090238 
58.574715 3.380566 
58.580772 3.599231 
58.581623 3.32067 
58.582794 3.288345 
58.587898 3.065154 
58.593643 3.953339 
58.593853 3.557867 
58.594067 3.588927 
58.595558 3.521723 
58.598217 3.277493 
58.598961 3.186307 
58.602154 3.729145 
58.607578 4.059632 
58.613323 5.876446 
58.614815 3.233611 
58.627907 4.223143 
58.629608 3.765911 
58.63142 7.018958 
58.633442 3.52525 
58.637489 3.462656 
58.641537 3.24743 
58.643986 3.132052 
58.645794 3.359125 
58.646755 3.38149 
58.647392 3.060227 
58.65794 3.042129 
58.663158 3.285363 
58.66497 3.696242 
58.675415 3.237226 
58.678505 3.680039 
58.685329 3.145939 
58.686394 3.42454 
58.687889 3.378907 
58.688419 3.794872 
58.691299 3.400923 
58.698017 3.168487 
58.698872 3.559809 
58.70911 3.102802 
58.714447 3.071604 
58.719887 3.32903 
58.722874 4.288414 
58.723835 3.205632 
58.729172 3.597187 
58.734188 3.39224 
58.740913 3.392196 
58.742516 3.410807 
58.74604 4.350814 
58.748177 3.172412 
58.751698 3.402586 
58.7533 3.189939 
58.755436 5.744327 
58.756077 3.311973 
58.757786 3.114604 
58.759815 3.203502 
58.76302 3.524168 
58.767723 3.134869 
58.77018 3.146513 
58.770714 3.273376 
58.794121 4.160452 
58.801926 3.383897 
58.803848 3.894023 
58.812191 3.283297 
58.821499 3.239845 
58.827919 3.170504 
58.834873 3.764494 
58.835514 3.701636 
58.847183 3.556709 
58.851036 3.296767 
58.851894 3.847268 
58.857784 3.116419 
58.858959 3.580316 
58.861317 3.028769 
58.862282 3.036339 
58.868706 3.322861 
58.870312 3.446041 
58.87085 3.096011 
58.879417 2.771129 
58.883492 2.998176 
58.884132 3.93636 
58.888206 5.864588 
58.889278 5.010309 
58.890457 3.695227 
58.910931 3.689319 
58.918652 3.302845 
58.922836 3.255077 
58.92305 3.301585 
58.923264 3.523684 
58.92466 3.110821 
58.927235 3.236858 
58.9282 3.737667 
58.931953 3.514285 
58.950089 3.710275 
58.951271 3.419463 
58.961899 3.330014 
58.963615 3.08467 
58.965336 4.379282 
58.967804 3.764215 
58.975323 3.028241 
58.977146 3.620894 
58.977577 3.236049 
58.978436 3.333092 
58.980049 3.232465 
58.980587 3.06918 
58.981659 3.074793 
58.984451 3.852031 
58.989071 3.523033 
58.997238 3.20174 
58.997776 3.07891 
58.998528 6.580301 
59.002934 3.67202 
59.00605 3.285896 
59.010029 3.726706 
59.021748 3.54477 
59.024544 3.335125 
59.039387 3.259382 
59.040031 3.975952 
59.044228 3.250676 
59.04509 3.2318 
59.045952 3.554311 
59.047134 3.566724 
59.047997 6.661532 
59.049393 3.338277 
59.052513 3.292685 
59.062523 3.409201 
59.070381 7.521757 
59.071568 3.427956 
59.075981 3.016744 
59.078888 7.017952 
59.085888 3.406526 
59.091061 4.948246 
59.092674 4.135833 
59.102802 3.614333 
59.108192 3.128405 
59.112286 3.690605 
59.114334 3.234025 
59.115845 3.862429 
59.116596 3.223813 
59.119724 3.818769 
59.126083 3.552114 
59.128998 3.651633 
59.131046 3.408143 
59.13126 3.4909 
59.131477 3.388744 
59.134171 3.652529 
59.136436 3.078069 
59.139889 3.579742 
59.143017 6.467318 
59.145283 3.577352 
59.155422 6.370198 
59.158119 3.548565 
59.161572 3.074193 
59.170853 3.281636 
59.171932 3.543113 
59.172688 3.154372 
59.185535 4.67805 
59.19223 3.596683 
59.201412 3.201268 
59.202709 3.211897 
59.202927 3.259573 
59.20314 3.27398 
59.204655 3.430462 
59.211353 3.849281 
59.21254 6.534936 
59.228535 3.974814 
59.229618 3.083247 
59.23243 3.659256 
59.241619 3.715997 
59.251785 3.450121 
59.254597 5.824035 
59.255352 3.633857 
59.256329 3.677822 
59.260437 3.322778 
59.261627 3.512074 
59.268661 3.466991 
59.273205 3.325108 
59.276993 3.507064 
59.280674 3.795013 
59.283272 3.502373 
59.286411 3.769643 
59.287708 3.423429 
59.289227 3.167702 
59.290092 4.096594 
59.291714 3.257196 
59.293987 3.185968 
59.294746 3.235319 
59.295723 3.556739 
59.302113 6.196094 
59.303951 3.332612 
59.316734 3.270636 
59.319008 3.682916 
59.325401 3.343009 
59.326378 3.377999 
59.333313 3.548004 
59.335697 3.770916 
59.341877 4.082691 
59.353912 2.999781 
59.35532 3.388697 
59.361721 3.481572 
59.377884 3.749813 
59.381031 3.331435 
59.381573 3.243498 
59.384396 4.113315 
59.389931 3.246505 
59.39677 3.881303 
59.398613 3.617847 
59.400894 3.425893 
59.405346 3.579744 
59.411644 3.545019 
59.413273 3.554347 
59.419353 3.355682 
59.428265 3.435433 
59.433479 3.496107 
59.436413 3.783078 
59.449562 2.974505 
59.461956 3.662673 
59.464676 3.824317 
59.466198 3.664107 
59.471527 4.187682 
59.474247 4.413442 
59.480446 3.738298 
59.482189 4.020941 
59.486755 3.665169 
59.501667 3.172269 
59.508305 3.3489 
59.510918 3.538136 
59.513206 3.629609 
59.517887 2.881937 
59.520611 3.429513 
59.522678 3.296475 
59.531502 5.648794 
59.534443 3.608206 
59.540215 3.496234 
59.541416 3.405494 
59.544357 3.161412 
59.54501 3.473758 
59.546101 3.124984 
59.556126 4.060728 
59.575314 3.638611 
59.57597 3.509815 
59.578587 3.899714 
59.579895 3.603229 
59.580769 6.547049 
59.586548 3.368664 
59.590694 3.48047 
59.594185 7.288962 
59.604332 5.496866 
59.605423 3.406532 
59.610226 3.457334 
59.613609 3.729558 
59.615902 3.4398 
59.61721 3.341293 
59.626926 5.665913 
59.632278 5.954813 
59.63905 3.466456 
59.64735 3.501372 
59.650303 3.365868 
59.655983 3.279569 
59.666691 3.22081 
59.667896 6.553393 
59.669971 3.842539 
59.68298 3.403836 
59.690853 3.734266 
59.692059 3.427342 
59.698402 3.118324 
59.699932 4.419374 
59.700699 3.451753 
59.701466 3.228138 
59.702778 3.57367 
59.703979 3.390221 
59.70628 3.252426 
59.71328 3.464927 
59.716892 3.260684 
59.717548 3.915028 
59.721817 3.2035 
59.737251 5.66297 
59.749737 3.340874 
59.750614 3.461722 
59.753571 3.389296 
59.756527 3.766666 
59.759815 5.594079 
59.763538 4.123927 
59.776691 4.029024 
59.777676 5.268277 
59.790722 3.409972 
59.791927 3.505388 
59.792477 3.716022 
59.811119 3.62892 
59.81485 3.556954 
59.816166 3.242849 
59.817265 3.599534 
59.82637 3.592432 
59.828018 3.612895 
59.831638 3.658736 
59.832626 3.702327 
59.839542 4.2661 
59.841846 4.019736 
59.847885 3.801262 
59.85041 3.327635 
59.851837 4.082121 
59.852276 3.280424 
59.855461 3.830971 
59.857109 3.54987 
59.86216 3.323298 
59.863369 3.382267 
59.864246 3.737474 
59.865345 3.247353 
59.867214 4.541942 
59.875122 3.255844 
59.876003 3.149686 
59.87941 3.394768 
59.88007 3.203282 
59.881058 3.362828 
59.890728 3.32227 
59.893257 3.722734 
59.899303 3.598728 
59.915356 3.704119 
59.920635 6.424871 
59.921295 3.101086 
59.93626 5.903609 
59.950459 3.109202 
59.953758 3.771587 
59.958603 3.778349 
59.959263 3.0659 
59.961685 3.896544 
59.96246 3.48968 
59.96323 4.710029 
59.96389 2.967563 
59.964439 3.093429 
59.984375 3.321794 
59.990326 3.088975 
59.997711 3.521755 
60.000244 4.12432 
60.007519 3.253256 
60.008183 3.418911 
60.01149 3.367622 
60.015125 3.486601 
60.01722 3.919853 
60.027809 3.392773 
60.028801 3.041954 
60.04557 3.253099 
60.055279 3.712564 
60.057819 5.157228 
60.060467 3.470275 
60.062233 5.969217 
60.067421 3.487197 
60.068306 3.057574 
60.073826 4.028359 
60.075592 3.96249 
60.078354 3.767123 
60.086746 3.568368 
60.087631 3.356668 
60.089729 5.909327 
60.09227 3.249788 
60.095032 3.243219 
60.098568 3.311745 
60.099564 3.100924 
60.101219 3.871624 
60.103432 3.595521 
60.107849 3.420182 
60.109619 3.807597 
60.121998 3.50721 
60.123215 3.675851 
60.124653 3.680044 
60.1283 3.226385 
60.13184 3.561239 
60.138252 3.413447 
60.140244 3.389396 
60.141239 3.684715 
60.148983 4.733967 
60.156063 3.064507 
60.162479 3.558103 
60.163258 4.039166 
60.177757 3.62862 
60.18639 3.150199 
60.186836 3.451551 
60.191044 3.661314 
60.192261 3.105547 
60.197247 3.412721 
60.198132 3.225714 
60.201786 3.539386 
60.205219 3.474116 
60.210205 9.489936 
60.214417 3.852796 
60.21907 6.074632 
60.221951 3.254769 
60.225277 3.89585 
60.233479 4.136797 
60.236031 6.364901 
60.251553 3.277916 
60.261425 3.694606 
60.261982 3.5277 
60.26664 3.815603 
60.27219 6.444587 
60.276627 3.364588 
60.279404 3.272998 
60.28273 3.528663 
60.290836 5.589917 
60.293388 3.438267 
60.296055 6.099013 
60.302162 3.645351 
60.303825 3.437489 
60.304382 3.100602 
60.308601 3.34249 
60.314602 3.463837 
60.315155 4.387374 
60.316044 3.380762 
60.321823 4.62731 
60.325043 3.358391 
60.332932 3.620691 
60.334713 3.212814 
60.336266 3.451056 
60.342716 3.303594 
60.343605 3.348954 
60.344936 6.973422 
60.352718 3.447298 
60.362282 6.815498 
60.367512 3.630247 
60.368622 3.648448 
60.370293 3.393328 
60.371403 3.334312 
60.37207 6.258529 
60.376186 3.553762 
60.38509 3.285595 
60.390987 3.793457 
60.392769 4.019351 
60.394104 3.12907 
60.396217 4.96956 
60.399223 3.251756 
60.401562 3.46133 
60.405903 3.934594 
60.407127 3.34019 
60.413254 3.284276 
60.414589 3.595341 
60.41626 3.645826 
60.418488 3.369607 
60.425838 3.300572 
60.42907 3.304182 
60.431072 3.502883 
60.432743 3.216874 
60.437534 3.183396 
60.439209 3.723554 
60.439877 3.457189 
60.445671 6.653635 
60.448681 6.743709 
60.453918 3.591746 
60.464397 5.796204 
60.466961 3.306331 
60.469639 3.517606 
60.470196 3.116056 
60.473095 3.713054 
60.473652 3.793827 
60.478451 3.783874 
60.480793 3.656248 
60.482018 6.009512 
60.482689 3.196778 
60.488823 3.126401 
60.495853 3.36693 
60.500874 3.57873 
60.502548 3.455017 
60.506454 3.706253 
60.509914 3.762031 
60.512482 3.345703 
60.525658 3.592613 
60.528782 3.814495 
60.539951 3.594015 
60.543751 3.303441 
60.544422 3.181147 
60.546322 3.004775 
60.548222 3.444654 
60.552353 3.461358 
60.553917 3.729776 
60.554367 3.3676 
60.558167 3.539177 
60.562302 3.188128 
60.567329 3.499782 
60.573143 3.43154 
60.576946 3.936063 
60.57795 5.758979 
60.579517 3.439369 
60.587234 3.232489 
60.58947 4.26791 
60.591484 3.403491 
60.592491 3.347583 
60.593945 4.235671 
60.602894 3.568666 
60.60569 3.328187 
60.615875 3.777266 
60.624382 3.496515 
60.631992 3.657305 
60.638489 3.345849 
60.649239 8.789083 
60.64991 6.995871 
60.651814 3.218605 
60.653942 4.113311 
60.661785 3.464879 
60.674786 3.765257 
60.679939 3.77787 
60.684425 3.284952 
60.685322 4.125178 
60.685993 3.642489 
60.687115 3.225575 
60.689133 3.600683 
60.694405 3.410838 
60.703377 3.499586 
60.704163 3.366346 
60.705845 3.527317 
60.723457 3.176891 
60.727833 3.972976 
60.73008 3.625154 
60.730305 3.363796 
60.730526 3.480436 
60.743774 3.487647 
60.746132 3.456881 
60.751183 3.419724 
60.751968 3.587478 
60.75399 3.351832 
60.756462 3.885158 
60.759495 3.335014 
60.762302 3.526314 
60.764324 3.522714 
60.768482 3.535077 
60.769718 3.527541 
60.778706 6.232142 
60.783649 3.440946 
60.789383 3.517247 
60.790504 3.575115 
60.794102 3.993645 
60.798374 7.761518 
60.803883 3.339035 
60.805344 3.368384 
60.811306 3.873574 
60.826714 3.65646 
60.828739 3.530607 
60.836502 3.610778 
60.849335 3.262315 
60.850346 6.199837 
60.8517 3.867511 
60.854511 3.907036 
60.862057 3.654955 
60.865658 3.937135 
60.866673 6.74622 
60.874218 3.491951 
60.876698 6.120452 
60.878723 3.43805 
60.883907 3.533605 
60.888752 3.065017 
60.896412 3.90499 
60.900585 3.485798 
60.904415 3.471028 
60.90836 3.940367 
60.910278 3.676732 
60.914112 3.261823 
60.918171 3.901256 
60.919861 3.034406 
60.937004 3.313672 
60.94445 3.797795 
60.948399 3.403935 
60.951221 4.160765 
60.969395 3.518617 
60.971989 6.884099 
60.976055 3.632533 
60.97673 3.799246 
60.993446 3.44003 
60.995369 3.337942 
60.998871 3.528457 
61.003841 3.975165 
61.012318 3.708791 
61.017517 3.772641 
61.029839 3.773218 
61.031647 6.163306 
61.034248 3.527514 
61.034813 3.395474 
61.036961 5.654572 
61.047482 3.060679 
61.051552 3.651032 
61.054722 3.667341 
61.06332 3.923183 
61.071014 4.275899 
61.072826 3.275443 
61.077126 3.503539 
61.079617 3.154413 
61.081089 3.483009 
61.089127 3.586459 
61.103622 3.449386 
61.108154 3.781551 
61.115631 7.009613 
61.116314 3.674166 
61.134445 3.335661 
61.139774 3.733706 
61.143742 3.571425 
61.151566 5.644748 
61.156101 3.22019 
61.165859 6.398848 
61.16824 3.819254 
61.17017 3.612122 
61.171078 3.753317 
61.171986 3.68495 
61.17448 3.631776 
61.18095 3.558574 
61.196728 3.182032 
61.199337 3.430632 
61.205128 3.662178 
61.205921 3.56948 
61.207397 2.898301 
61.215805 3.737196 
61.21796 3.621262 
61.221371 3.486583 
61.231026 3.549633 
61.232616 3.701998 
61.234207 4.112302 
61.254555 3.676035 
61.255692 3.34998 
61.260353 3.580743 
61.267063 3.539302 
61.269676 3.492693 
61.271385 3.126094 
61.274681 3.276344 
61.289471 3.844918 
61.292088 7.395413 
61.293228 3.606395 
61.295048 4.448819 
61.301762 3.530861 
61.30233 3.57096 
61.30529 3.585374 
61.307568 3.746284 
61.316902 3.280756 
61.329205 3.902995 
61.344013 3.474279 
61.345379 4.192345 
61.348911 3.364079 
61.349483 3.411259 
61.363503 3.881488 
61.364185 3.486237 
61.369545 3.414637 
61.372395 3.351114 
61.374332 3.497328 
61.37513 3.361664 
61.376385 3.652022 
61.38448 3.227447 
61.386192 3.839243 
61.389156 3.709804 
61.39452 3.26836 
61.409122 3.761005 
61.416088 4.322382 
61.426929 3.46527 
61.427158 2.963549 
61.427502 6.429039 
61.43401 3.749224 
61.435837 3.362722 
61.440636 3.753033 
61.442234 3.864409 
61.443718 4.9309 
61.453312 3.63527 
61.453884 3.39331 
61.461311 4.05315 
61.462566 3.97802 
61.478226 3.875612 
61.481426 3.905028 
61.489086 3.569391 
61.494576 4.443742 
61.504871 3.691945 
61.506241 3.387285 
61.508415 3.380855 
61.510933 4.063804 
61.512192 3.349288 
61.52993 3.623861 
61.532219 3.261337 
61.534622 4.041658 
61.536339 3.905188 
61.536911 3.238212 
61.537483 3.356322 
61.54023 4.405424 
61.54401 4.156176 
61.548016 3.440172 
61.552483 3.522517 
61.559357 3.70692 
61.568062 3.644277 
61.569893 3.785673 
61.576538 3.78903 
61.587887 3.349262 
61.595337 3.122991 
61.596024 3.8502 
61.617008 4.351735 
61.624237 5.921532 
61.62986 3.420776 
61.644661 3.353412 
61.649025 4.46226 
61.64994 3.830332 
61.655338 4.752713 
61.656487 3.418428 
61.659241 3.13924 
61.660275 3.555338 
61.660965 3.557949 
61.662685 4.094553 
61.665211 3.665314 
61.669922 3.275452 
61.676926 3.291682 
61.681065 3.301877 
61.681866 3.34805 
61.684166 3.310796 
61.694508 3.615726 
61.706001 6.681359 
61.715656 3.495085 
61.718533 3.481593 
61.71991 4.133401 
61.722439 3.324123 
61.726234 4.315038 
61.731525 3.478674 
61.731758 3.120951 
61.731987 3.6288 
61.734516 3.984241 
61.735435 3.290658 
61.738544 3.443937 
61.740498 3.477464 
61.741302 3.496697 
61.742683 3.626207 
61.750278 4.163422 
61.752121 6.356895 
61.752811 3.333915 
61.753845 3.245579 
61.758911 3.776723 
61.766739 3.861046 
61.769386 6.527256 
61.773762 3.235935 
61.778599 3.481731 
61.780441 3.273223 
61.795528 3.869197 
61.796795 3.957178 
61.799213 3.709912 
61.800827 4.036183 
61.810162 3.466962 
61.823647 3.930708 
61.825607 3.511543 
61.827564 3.212354 
61.834484 3.736688 
61.84613 3.343012 
61.850056 3.369161 
61.852478 3.58046 
61.856976 5.740827 
61.872437 2.992987 
61.878326 3.348488 
61.878555 3.310065 
61.878788 3.613636 
61.88525 3.671678 
61.889175 3.209466 
61.892296 3.439827 
61.89518 3.322253 
61.89957 4.350855 
61.902225 4.715474 
61.907078 3.856475 
61.908463 3.508632 
61.909504 4.009757 
61.92025 3.508069 
61.92672 3.917131 
61.931919 3.955973 
61.93874 3.905763 
61.941166 3.197552 
61.945099 3.672405 
61.947063 3.358196 
61.954582 3.262977 
61.960361 3.888943 
61.982574 4.111084 
61.986511 4.213907 
61.991257 3.520706 
61.992878 3.311913 
61.994034 3.549557 
61.998085 3.630088 
61.999592 4.992428 
62.001675 4.874752 
62.009548 4.504748 
62.013485 6.470787 
62.027153 3.840366 
62.029701 3.637893 
62.042679 3.798579 
62.049984 3.635535 
62.056244 3.808308 
62.066212 3.074659 
62.080013 3.619919 
62.086861 3.552992 
62.092545 3.822105 
62.093937 3.81165 
62.095676 3.223607 
62.096489 3.598055 
62.097881 3.864173 
62.101246 6.834877 
62.103222 3.818053 
62.110882 3.592134 
62.116222 4.340396 
62.12191 3.32151 
62.124931 3.332109 
62.128529 3.090045 
62.134567 3.568071 
62.139912 3.338376 
62.1549 3.597513 
62.160595 3.698609 
62.163269 3.619593 
62.166172 3.196714 
62.170361 4.442142 
62.173264 4.228195 
62.176636 5.617317 
62.178032 3.766129 
62.178612 3.719324 
62.192451 3.49495 
62.194664 3.626778 
62.199081 4.055406 
62.205715 3.298315 
62.208622 3.58264 
62.210136 3.437142 
62.211765 3.267773 
62.212578 3.470169 
62.213394 4.289711 
62.220028 3.672218 
62.224567 3.501063 
62.226082 3.842738 
62.228291 6.676488 
62.232132 3.76981 
62.252163 3.386804 
62.258339 3.708963 
62.259151 3.63869 
62.261715 3.231351 
62.267658 3.473114 
62.282574 3.624181 
62.29295 7.243437 
62.299015 6.168203 
62.313011 3.803658 
62.315693 3.656748 
62.319775 3.334451 
62.325611 3.250201 
62.327011 3.829201 
62.341484 3.613119 
62.343349 3.742882 
62.351639 3.421029 
62.353039 3.7098 
62.355724 3.468311 
62.365417 3.564595 
62.370209 3.902699 
62.372429 3.376562 
62.384228 3.807639 
62.384811 3.642512 
62.394043 3.231032 
62.399887 3.776166 
62.406086 4.000938 
62.407486 3.699866 
62.410061 3.451493 
62.410877 4.498456 
62.414154 5.986383 
62.419064 3.423868 
62.425613 3.64379 
62.425846 3.249295 
62.426083 3.690792 
62.429825 3.352465 
62.436375 3.781757 
62.444332 3.732873 
62.451004 3.771651 
62.452408 3.401995 
62.453342 3.490707 
62.45393 3.891653 
62.461071 3.623886 
62.477112 3.77226 
62.482029 3.737457 
62.4832 3.940388 
62.484489 3.504246 
62.495617 3.767852 
62.504993 3.632973 
62.506866 4.017588 
62.510265 3.880997 
62.512375 4.990437 
62.513195 3.640319 
62.516243 3.777179 
62.51976 3.368692 
62.520935 3.210446 
62.521519 3.454846 
62.525391 3.63612 
62.526562 3.378708 
62.530079 3.847923 
62.530899 3.96352 
62.532425 3.427244 
62.537582 4.049879 
62.544388 3.712348 
62.549431 4.024747 
62.560345 4.131135 
62.561985 3.697387 
62.567738 4.210861 
62.570671 3.365714 
62.571491 3.111743 
62.573723 3.960047 
62.576305 4.428371 
62.593212 3.754819 
62.594975 3.792971 
62.608601 3.281442 
62.61377 4.027448 
62.614708 3.465017 
62.620113 4.269257 
62.630928 6.551836 
62.635983 7.809476 
62.647976 3.857024 
62.648209 4.06618 
62.648445 3.779404 
62.650913 4.310012 
62.65221 3.388661 
62.652916 4.182797 
62.657032 3.765661 
62.658089 3.856195 
62.658913 3.718156 
62.66291 4.129833 
62.666206 3.549843 
62.67197 4.195361 
62.686447 3.840187 
62.693039 4.00951 
62.69492 3.525242 
62.701515 3.142423 
62.70269 3.316282 
62.712349 3.589727 
62.715527 3.66413 
62.718002 3.883024 
62.72554 7.271347 
62.730843 3.448722 
62.740387 4.378929 
62.751938 3.787266 
62.753117 3.808554 
62.761253 3.678801 
62.76255 3.553498 
62.763847 5.919883 
62.765968 5.895557 
62.769627 3.447083 
62.77906 3.137639 
62.781303 3.619827 
62.78791 6.233171 
62.790977 7.754568 
62.795223 3.661149 
62.80077 3.359125 
62.808208 4.947501 
62.81057 3.393729 
62.816944 3.199868 
62.828869 6.26648 
62.832531 3.776383 
62.8382 7.717127 
62.839382 3.547085 
62.840919 8.477859 
62.843044 4.086593 
62.849781 3.397557 
62.852261 3.73073 
62.859352 3.169881 
62.869991 3.624488 
62.872589 3.558101 
62.879803 3.23766 
62.88134 3.29508 
62.886425 3.379982 
62.887844 3.637897 
62.894939 3.392626 
62.897545 3.826833 
62.898964 4.020208 
62.904522 3.575892 
62.906181 3.225845 
62.908546 3.917411 
62.92334 4.075418 
62.932457 3.622911 
62.940269 3.470402 
62.942638 3.47405 
62.947258 3.395956 
62.950809 3.790039 
62.957798 3.340553 
62.964077 3.322223 
62.965145 3.982659 
62.972374 3.258088 
62.973438 3.324019 
62.979721 3.476612 
62.983753 4.042942 
62.985291 4.533644 
62.988495 3.54758 
62.990154 3.777903 
62.990746 4.073737 
62.994183 4.044659 
63.001537 3.98205 
63.007229 3.289251 
63.008179 3.889479 
63.013161 3.520935 
63.014107 3.819507 
63.024666 3.68858 
63.025974 5.821083 
63.027515 3.566259 
63.031193 3.503033 
63.032379 3.551349 
63.034279 3.873274 
63.042706 3.936836 
63.052799 3.391109 
63.053509 3.626027 
63.055172 3.99779 
63.067879 4.035779 
63.073818 6.227758 
63.079285 4.013917 
63.084629 3.810888 
63.085461 4.200188 
63.088078 3.585696 
63.090809 3.669332 
63.092949 4.094646 
63.098061 3.668767 
63.103527 5.57652 
63.106857 3.897263 
63.113037 3.735917 
63.120888 3.581409 
63.122078 3.721515 
63.124813 4.831978 
63.125645 7.560262 
63.126476 3.401583 
63.130402 4.105825 
63.13195 7.417354 
63.13504 3.800682 
63.137661 3.740291 
63.145157 3.702677 
63.151226 3.699879 
63.16301 4.148824 
63.169796 3.695097 
63.17527 3.37705 
63.176819 3.705029 
63.183369 3.563801 
63.190636 3.605541 
63.193851 4.328178 
63.198498 3.502068 
63.203621 3.770973 
63.208031 3.818322 
63.211605 3.734974 
63.21244 4.241649 
63.212799 3.673225 
63.213036 3.807013 
63.218998 3.667568 
63.222813 4.882843 
63.227463 4.04297 
63.237598 4.12208 
63.238194 7.401291 
63.238907 3.335836 
63.245827 3.541944 
63.247375 3.396679 
63.24881 4.122182 
63.254414 3.164083 
63.254654 3.057057 
63.254894 3.296594 
63.257755 3.971554 
63.263721 3.792833 
63.272076 3.225926 
63.275658 4.974616 
63.279476 3.572759 
63.283417 7.176093 
63.285805 3.652957 
63.291653 3.67888 
63.298462 6.708381 
63.299896 3.346199 
63.302402 6.789077 
63.305271 4.056182 
63.30706 3.865951 
63.308018 3.281612 
63.310165 3.524928 
63.315422 4.97732 
63.323189 3.575892 
63.335022 6.810883 
63.336216 3.445812 
63.339207 3.292521 
63.345066 3.522429 
63.354389 3.469074 
63.360252 3.295093 
63.377956 7.211545 
63.380947 3.317663 
63.384895 3.582281 
63.391361 5.058385 
63.393394 3.479791 
63.394234 3.280977 
63.39447 3.397062 
63.394711 3.30259 
63.403809 4.163289 
63.406803 3.766917 
63.410034 3.469515 
63.411472 3.681554 
63.417461 3.726629 
63.419735 4.060545 
63.421173 3.255967 
63.426682 3.433748 
63.42812 3.990246 
63.442379 3.356436 
63.443699 3.722771 
63.447174 3.473409 
63.452087 3.586588 
63.452805 3.382017 
63.455685 3.582398 
63.458321 3.894152 
63.462875 3.884257 
63.469471 4.077538 
63.473667 3.3867 
63.474148 3.621249 
63.478344 3.540843 
63.488182 3.234222 
63.495258 3.796956 
63.507622 7.692594 
63.512783 3.292994 
63.516743 3.471692 
63.520103 4.058067 
63.524788 3.73401 
63.526348 3.536445 
63.52911 3.416394 
63.537876 5.233542 
63.545082 3.785321 
63.547005 3.48256 
63.55217 3.538208 
63.561062 4.532383 
63.562145 3.917955 
63.56575 3.541579 
63.569237 3.431236 
63.573685 3.432959 
63.577652 3.14689 
63.578373 3.456208 
63.579094 4.124594 
63.59256 3.505383 
63.595928 4.060346 
63.607113 3.388628 
63.607353 2.909248 
63.607838 5.02318 
63.622757 3.860018 
63.623959 3.718995 
63.634914 4.445277 
63.64539 3.470206 
63.666584 3.237616 
63.672127 4.25578 
63.673454 3.001462 
63.674538 3.300885 
63.676224 3.367924 
63.680202 3.719062 
63.685623 7.276278 
63.692375 3.578615 
63.692978 3.730906 
63.696232 3.789514 
63.697559 3.252632 
63.700691 3.941779 
63.701778 6.67138 
63.707928 3.821793 
63.712029 3.700532 
63.71468 3.852872 
63.720711 3.340425 
63.721195 7.358816 
63.733742 3.988983 
63.735432 3.32376 
63.736877 3.693147 
63.741222 3.754241 
63.744724 4.009373 
63.746414 6.744204 
63.752689 3.487444 
63.754139 6.492427 
63.754864 3.572202 
63.787952 3.290276 
63.808376 3.587609 
63.813332 3.195129 
63.819981 3.562125 
63.82095 3.69875 
63.823368 3.354398 
63.824333 3.551077 
63.827118 3.506443 
63.836548 3.719472 
63.846954 4.242901 
63.850704 3.485297 
63.852882 4.112614 
63.853607 7.002306 
63.856995 4.175282 
63.867043 3.760172 
63.867767 4.187539 
63.868736 3.280385 
63.869705 3.33816 
63.87249 3.695797 
63.877331 10.283711 
63.8783 3.667723 
63.881447 3.46346 
63.885445 7.358129 
63.891621 7.163231 
63.898643 3.334223 
63.914032 3.587328 
63.917908 5.809474 
63.92712 5.196399 
63.927361 6.012058 
63.931725 7.065642 
63.933182 4.386143 
63.934395 3.054489 
63.942276 3.16975 
63.94482 3.64634 
63.947124 3.498249 
63.948944 6.517979 
63.95052 3.858624 
63.951977 3.959755 
63.957191 3.695664 
63.967503 3.624631 
63.968353 7.391591 
63.971264 3.840079 
63.994446 4.365532 
63.999424 3.815946 
64.003189 3.528898 
64.010231 3.449068 
64.013145 3.44918 
64.043159 4.088279 
64.049232 3.597947 
64.050087 5.253291 
64.054703 4.392985 
64.055435 4.235461 
64.061874 3.482121 
64.073799 3.435024 
64.07769 3.666552 
64.09156 3.362126 
64.092163 3.610238 
64.095451 3.551368 
64.096062 3.312615 
64.09874 3.835523 
64.117729 3.454488 
64.129906 3.834042 
64.134293 3.59897 
64.136726 3.402225 
64.162804 3.373691 
64.169868 4.207927 
64.17231 3.467354 
64.190109 3.699211 
64.19426 3.450075 
64.19487 3.718194 
64.199623 4.302473 
64.2006 3.624718 
64.209381 3.620868 
64.219269 3.653589 
64.223297 4.180486 
64.226959 9.73536 
64.228546 4.141075 
64.231232 3.545581 
64.234039 4.100606 
64.236115 4.386302 
64.237701 3.305061 
64.240387 3.255313 
64.250038 3.633259 
64.251137 3.601922 
64.255165 3.3066 
64.256752 3.153377 
64.26152 3.400183 
64.266525 3.561713 
64.269951 3.343023 
64.278015 3.73073 
64.281555 3.686913 
64.285591 3.900566 
64.293289 6.975679 
64.303688 3.335676 
64.304665 3.590065 
64.314812 3.423501 
64.318115 3.329443 
64.319092 3.962006 
64.331818 3.662535 
64.337448 3.547507 
64.347237 3.184897 
64.349197 3.735613 
64.351402 3.518193 
64.352379 3.468644 
64.352997 3.48293 
64.353485 7.088307 
64.354462 3.686206 
64.357765 3.271672 
64.365112 4.011978 
64.39035 3.843207 
64.401749 5.067498 
64.422462 3.292825 
64.427742 6.349349 
64.437675 4.36199 
64.441719 3.429765 
64.442581 4.291398 
64.445526 3.527946 
64.454849 3.230412 
64.459023 12.333056 
64.465897 3.636794 
64.471298 3.674732 
64.499908 3.547814 
64.501999 3.201164 
64.504944 3.690359 
64.508263 4.237011 
64.510841 3.431776 
64.530266 3.457679 
64.535179 3.563868 
64.53727 3.970902 
64.546738 3.970196 
64.556084 3.775964 
64.558182 7.267558 
64.577492 3.613921 
64.587341 3.354765 
64.611725 3.657825 
64.613571 3.866378 
64.619972 4.397974 
64.626877 3.473646 
64.63414 4.112064 
64.635254 3.560649 
64.6371 3.364738 
64.643509 3.875911 
64.646469 3.742996 
64.652756 4.073978 
64.65522 3.662415 
64.657936 3.38332 
64.659904 3.380563 
64.660522 3.321765 
64.664963 3.506334 
64.669403 3.481515 
64.67939 6.839597 
64.682602 3.903563 
64.68322 3.525863 
64.692467 3.755316 
64.699753 3.875159 
64.705673 4.073109 
64.710487 3.367257 
64.711479 4.069363 
64.713081 4.127348 
64.717773 3.687683 
64.719254 3.676725 
64.731606 3.87499 
64.732224 3.432688 
64.749519 3.431932 
64.752602 3.549059 
64.754333 4.070115 
64.764221 4.202965 
64.770653 3.60212 
64.773003 5.318851 
64.776711 3.777091 
64.779427 3.772013 
64.783386 3.377147 
64.792908 4.204489 
64.794022 3.393085 
64.794762 3.565634 
64.796867 4.068894 
64.801567 3.356105 
64.806145 3.516035 
64.807503 3.77193 
64.809486 3.467201 
64.815544 5.08309 
64.826683 4.668734 
64.832382 3.263801 
64.839561 3.640313 
64.844635 7.893401 
64.845749 3.24197 
64.847984 3.370647 
64.848602 4.262998 
64.849838 3.649528 
64.851944 3.76466 
64.858757 3.464729 
64.859993 3.538453 
64.873749 3.536334 
64.87722 3.611717 
64.877838 6.260048 
64.88205 3.80944 
64.884903 3.961582 
64.885643 6.554863 
64.887253 3.86333 
64.891594 3.358392 
64.894943 6.734981 
64.912178 4.369058 
64.919373 3.520324 
64.919991 3.801109 
64.920738 4.067364 
64.922348 3.528092 
64.937363 3.264718 
64.948158 3.635564 
64.951141 4.070945 
64.95536 4.233946 
64.96405 3.72902 
64.970383 3.60719 
64.983925 3.579468 
64.987404 3.561363 
65.000702 3.673634 
65.018349 3.650542 
65.025688 3.851893 
65.025932 3.701816 
65.026184 3.321836 
65.028046 3.329185 
65.035263 3.679063 
65.035759 3.950314 
65.051559 6.545147 
65.055168 3.282043 
65.062508 3.709494 
65.064377 3.656921 
65.072716 3.794132 
65.078194 4.080393 
65.079063 3.603575 
65.079689 3.27716 
65.081184 3.343087 
65.088402 3.691561 
65.099739 3.826517 
65.105591 3.644942 
65.110703 3.667997 
65.11718 3.308885 
65.120667 3.876347 
65.121918 3.805373 
65.12603 3.631976 
65.126274 3.722677 
65.126526 3.555424 
65.128273 3.479056 
65.137993 3.266481 
65.147224 3.66973 
65.148468 3.831202 
65.149963 3.823623 
65.154701 3.893244 
65.159691 3.596015 
65.165802 4.05391 
65.177406 3.251041 
65.180527 3.279373 
65.186272 3.540936 
65.189262 3.412575 
65.190765 3.541666 
65.191261 3.622047 
65.192009 3.538602 
65.202248 3.954795 
65.209862 3.796633 
65.214989 4.085325 
65.21698 3.34344 
65.231346 3.555405 
65.236351 4.62964 
65.239594 3.671346 
65.245094 5.708825 
65.250595 3.606584 
65.25322 3.600141 
65.256348 3.996891 
65.257217 3.478489 
65.261597 4.954115 
65.265099 4.430136 
65.268219 3.139769 
65.268974 3.515132 
65.271225 4.163574 
65.272598 6.728193 
65.274475 3.384884 
65.275978 6.549226 
65.279976 3.163664 
65.296616 4.541019 
65.300117 3.557077 
65.316391 3.283051 
65.317146 3.663585 
65.321022 3.722338 
65.323029 3.830307 
65.329285 3.518096 
65.337303 3.40077 
65.34169 3.614325 
65.343193 3.774695 
65.347702 3.26975 
65.350082 3.502239 
65.353966 3.750571 
65.356468 3.661393 
65.361481 3.437979 
65.363365 3.428381 
65.363609 3.354759 
65.363861 3.316169 
65.364113 3.315358 
65.364365 3.353215 
65.370003 3.638642 
65.371506 3.920565 
65.374641 3.941494 
65.381287 3.951 
65.387177 3.967897 
65.394073 3.357983 
65.397713 3.639163 
65.414017 3.778131 
65.41703 6.445628 
65.418785 3.547222 
65.433846 3.734192 
65.435608 3.341604 
65.43824 3.272446 
65.441635 5.808033 
65.449036 3.666691 
65.473534 3.74961 
65.478806 3.677402 
65.483208 7.073908 
65.486855 3.347754 
65.490623 4.040674 
65.492256 3.880059 
65.497787 4.478106 
65.503189 3.898849 
65.513 3.794794 
65.514381 3.373838 
65.521172 3.430582 
65.524948 3.899359 
65.53614 3.192585 
65.55011 3.309684 
65.558418 3.8051 
65.561188 3.654942 
65.571259 3.507573 
65.573151 3.681206 
65.573906 3.476785 
65.583977 3.953303 
65.587761 3.529039 
65.599098 3.471246 
65.600487 3.617995 
65.612709 3.388445 
65.614601 4.381423 
65.615982 3.880839 
65.618759 3.680282 
65.630737 3.433604 
65.633003 3.249261 
65.638931 3.970566 
65.649902 3.256595 
65.656464 6.221622 
65.664284 3.918376 
65.665298 3.910993 
65.674889 3.432194 
65.675644 3.982518 
65.683975 3.364911 
65.685616 3.206089 
65.692436 3.814341 
65.700142 6.215275 
65.71138 4.018259 
65.713272 3.241852 
65.728188 3.554188 
65.735008 3.802295 
65.7407 3.664342 
65.748787 3.634234 
65.764465 3.512556 
65.765732 4.194042 
65.782555 3.708966 
65.799385 3.492075 
65.810402 4.03767 
65.813568 4.25812 
65.818634 3.745975 
65.820656 5.566243 
65.821548 3.26323 
65.82357 3.311997 
65.824585 3.353153 
65.82547 4.079699 
65.826866 3.908882 
65.828636 13.03968 
65.829399 3.615314 
65.830032 3.127523 
65.831802 7.938218 
65.833069 3.654249 
65.83535 4.255909 
65.841049 3.319993 
65.843964 5.302432 
65.844223 5.622984 
65.84549 3.597091 
65.846245 6.742241 
65.846626 5.626488 
65.848404 3.031799 
65.849922 5.592185 
65.850304 5.169479 
65.85157 15.985146 
65.852203 6.748203 
65.853088 13.854714 
65.854355 9.295044 
65.855247 3.938218 
65.855881 3.261357 
65.860443 7.381464 
65.865891 3.540457 
65.869949 3.578179 
65.871849 3.679002 
65.873116 4.475013 
65.874893 10.420886 
65.877174 3.37172 
65.879204 6.334835 
65.882378 3.323675 
65.88694 3.217298 
65.895439 3.476344 
65.898735 3.63733 
65.901909 3.727664 
65.904442 3.447974 
65.907875 3.641217 
65.920311 3.368153 
65.920563 4.215609 
65.920815 4.330766 
65.923103 3.391648 
65.925514 4.729167 
65.93808 3.090404 
65.950401 3.579034 
65.952179 3.313982 
65.956627 3.28208 
65.95726 3.986778 
65.960434 3.638448 
65.961578 8.802317 
65.968819 3.342639 
65.978607 3.872718 
65.981277 3.438342 
65.991066 3.610725 
65.992966 5.755586 
65.99437 3.305961 
65.995255 3.614233 
65.996399 3.456021 
65.998436 3.82062 
66.011787 3.549392 
66.014587 3.826043 
66.026291 8.49652 
66.028709 3.632465 
66.032784 3.95464 
66.03418 3.413014 
66.036728 3.379498 
66.043983 3.57604 
66.046143 4.053671 
66.047417 3.40825 
66.052505 3.846279 
66.066391 3.266918 
66.070206 3.512046 
66.073395 3.332921 
66.088676 3.615149 
66.093651 4.888228 
66.096581 6.515963 
66.098236 3.593726 
66.106522 3.811855 
66.107796 5.948634 
66.120796 3.632799 
66.126923 3.411247 
66.129471 3.342976 
66.13266 3.779195 
66.133293 3.423034 
66.140053 3.196427 
66.151154 3.983019 
66.155495 3.203396 
66.16098 3.894855 
66.161621 3.430801 
66.185104 7.12572 
66.193794 3.67082 
66.196091 3.690241 
66.196854 3.695043 
66.200432 3.868128 
66.205544 7.122024 
66.224579 3.80671 
66.227264 3.670663 
66.229057 3.44256 
66.233017 3.116108 
66.239662 3.581011 
66.242859 3.370861 
66.245033 4.516891 
66.247337 3.767812 
66.253349 3.934562 
66.261536 3.258629 
66.271255 4.605867 
66.272537 3.52183 
66.276627 3.297158 
66.278038 4.303496 
66.27932 3.485287 
66.282257 3.974448 
66.285973 3.623359 
66.292885 4.122186 
66.297745 3.630042 
66.305939 3.338854 
66.306709 3.433882 
66.314651 5.219692 
66.320412 7.226639 
66.322975 3.231231 
66.325539 3.221902 
66.335655 3.411332 
66.349625 3.285104 
66.357056 3.49099 
66.361931 3.415119 
66.376549 3.351422 
66.387321 3.464876 
66.396301 4.378531 
66.401176 3.890894 
66.405029 3.359179 
66.406822 7.685813 
66.420044 3.633604 
66.431854 3.380514 
66.433014 3.592103 
66.438408 3.763309 
66.440842 4.636935 
66.447266 3.943297 
66.448677 3.49189 
66.455101 3.501944 
66.465767 3.627174 
66.481834 3.296812 
66.482475 3.324084 
66.486336 3.548897 
66.489548 3.732012 
66.491348 3.60302 
66.492378 3.798281 
66.494049 7.120968 
66.502922 3.258081 
66.505623 4.084531 
66.510635 3.303252 
66.514236 4.001797 
66.516556 3.751637 
66.517326 3.704706 
66.522728 3.498561 
66.522987 3.394513 
66.523247 3.161456 
66.533028 3.599755 
66.536118 3.761219 
66.541389 3.920358 
66.544739 3.855396 
66.545639 5.037621 
66.54628 3.557873 
66.548729 3.856518 
66.550529 3.713506 
66.555428 3.606045 
66.564697 3.668547 
66.566238 4.482483 
66.566628 4.218431 
66.569847 3.466753 
66.571266 4.00472 
66.577705 3.561745 
66.578354 3.563242 
66.581055 3.88068 
66.582733 3.862906 
66.585052 3.49936 
66.590202 3.543506 
66.594589 3.596748 
66.599358 4.175882 
66.604767 3.467759 
66.610443 3.056546 
66.615601 4.197811 
66.618309 3.428185 
66.621918 3.924788 
66.628365 3.384461 
66.636749 3.812809 
66.643074 3.247296 
66.647072 4.462815 
66.649132 3.514256 
66.653908 3.570662 
66.655327 3.907055 
66.66333 3.445566 
66.664749 3.336363 
66.667847 3.35815 
66.669785 3.714265 
66.671333 3.395335 
66.673012 3.53942 
66.676239 3.387475 
66.677147 6.827795 
66.694969 3.80091 
66.701035 3.694079 
66.708405 3.357134 
66.717705 3.205343 
66.719513 3.801173 
66.727913 3.379455 
66.734512 3.843104 
66.736061 3.001908 
66.742783 3.641729 
66.749771 3.269425 
66.752609 3.889303 
66.770462 3.447465 
66.775253 3.636827 
66.776291 3.592751 
66.788452 3.648307 
66.795311 3.481848 
66.797386 4.261948 
66.799454 4.63888 
66.803474 3.503597 
66.805412 3.382113 
66.811111 3.653707 
66.81163 3.602248 
66.814217 3.694222 
66.816811 3.795114 
66.819267 5.487664 
66.820175 4.561934 
66.82782 3.132788 
66.830803 3.470279 
66.834816 7.613727 
66.837669 3.797027 
66.840004 3.750849 
66.841423 3.419744 
66.842331 4.849513 
66.859703 4.234075 
66.862816 3.7799 
66.864372 3.929596 
66.866447 3.051674 
66.876297 3.716833 
66.883698 4.114048 
66.884995 4.025357 
66.887978 3.655447 
66.890312 3.325829 
66.892906 3.732413 
66.897835 3.641285 
66.909256 5.201644 
66.91198 3.544445 
66.918991 4.044249 
66.924187 3.640129 
66.927948 5.77182 
66.928337 4.420782 
66.93795 3.777103 
66.939117 3.665356 
66.949379 3.379386 
66.956657 3.333071 
66.974327 3.59764 
66.978096 3.674847 
66.985382 3.398679 
66.986549 3.360688 
66.99604 3.208059 
67.006317 3.058082 
67.009697 4.142653 
67.014381 4.092806 
67.017761 3.167142 
67.026222 5.724113 
67.041191 4.000794 
67.043144 3.32896 
67.044571 3.081505 
67.04705 3.30239 
67.049263 3.788663 
67.055901 2.993238 
67.057983 3.536201 
67.05864 3.780555 
67.061501 3.606469 
67.062286 3.282312 
67.068665 3.462875 
67.071663 3.537042 
67.075958 3.469455 
67.078827 3.485325 
67.082993 5.61556 
67.083908 7.702585 
67.087166 4.547092 
67.087814 3.643791 
67.089119 3.759812 
67.090294 7.160686 
67.096024 3.653684 
67.105545 3.581914 
67.109451 4.080815 
67.11219 3.538776 
67.118973 3.362898 
67.120926 4.122133 
67.122627 3.811555 
67.122887 3.314356 
67.125099 3.302887 
67.136322 6.424771 
67.140236 4.006868 
67.144669 4.290653 
67.150803 3.182314 
67.155106 3.622267 
67.160065 3.613399 
67.17025 3.929653 
67.179909 3.799489 
67.181351 3.293083 
67.185265 7.310812 
67.187096 3.45934 
67.187614 3.656827 
67.188141 3.491846 
67.191795 3.255843 
67.236099 3.56843 
67.242241 3.292216 
67.244202 3.457238 
67.25074 3.340246 
67.261597 3.3549 
67.262909 3.214396 
67.273376 4.116611 
67.27874 3.761692 
67.289207 3.959255 
67.29261 3.684216 
67.307144 3.588362 
67.30793 3.416981 
67.323914 3.636134 
67.325218 3.663527 
67.331116 3.255344 
67.332169 3.329099 
67.333084 3.523544 
67.335571 3.319742 
67.357201 3.302574 
67.360214 3.63187 
67.362045 3.695098 
67.366898 5.857821 
67.368866 3.470412 
67.373329 4.018324 
67.37516 4.11648 
67.379097 3.414617 
67.386444 5.200948 
67.405991 3.202263 
67.410454 3.358083 
67.413078 6.099968 
67.416756 3.422035 
67.43251 3.216192 
67.433693 3.181218 
67.44722 3.475782 
67.451027 3.442615 
67.452347 3.442912 
67.457603 3.343201 
67.471138 4.56474 
67.474556 3.348291 
67.475739 3.65479 
67.477448 3.371675 
67.506897 5.075687 
67.507164 3.803212 
67.510979 3.502432 
67.512032 3.589337 
67.514923 3.845032 
67.518211 3.168073 
67.519394 3.613783 
67.520714 3.766118 
67.52742 3.94721 
67.528473 3.366663 
67.537689 3.275862 
67.540321 4.168897 
67.561913 6.42803 
67.564018 3.239745 
67.57074 4.56993 
67.573372 3.576483 
67.581276 3.745173 
67.588654 3.983428 
67.611061 3.271865 
67.621086 3.487532 
67.624908 3.332625 
67.63401 7.633308 
67.636513 3.853619 
67.637039 3.719747 
67.638756 6.493678 
67.641663 3.543004 
67.651558 3.30547 
67.65274 3.474022 
67.653664 3.24823 
67.657494 3.262157 
67.670959 3.462025 
67.708336 3.235025 
67.708862 3.145654 
67.717056 4.043372 
67.721016 3.374493 
67.722473 4.041746 
67.730934 9.330481 
67.732384 3.455034 
67.739258 3.249078 
67.742432 3.461997 
67.74971 4.237549 
67.759094 4.27827 
67.762138 3.394735 
67.763329 3.37724 
67.766106 3.777251 
67.774178 3.652158 
67.781586 3.562795 
67.782913 3.40553 
67.785957 4.276301 
67.788734 3.916895 
67.791382 3.236115 
67.793633 10.454534 
67.794823 3.841147 
67.795616 3.707493 
67.809387 3.471373 
67.810181 3.736223 
67.822365 3.842347 
67.831245 3.437456 
67.833496 3.371147 
67.866898 3.33825 
67.872726 3.616235 
67.883873 3.937818 
67.889572 3.875333 
67.892891 3.246703 
67.899521 3.888106 
67.906288 3.683209 
67.912926 3.317354 
67.91346 3.385174 
67.920891 3.858693 
67.933372 3.480712 
67.934563 4.153883 
67.942001 7.058394 
67.944656 3.471037 
67.946388 4.194517 
67.947052 4.261086 
67.948242 3.352039 
67.949974 3.319361 
67.951965 3.444103 
67.973755 3.290492 
67.997421 3.37783 
68.000473 3.401613 
68.009521 3.247344 
68.010185 3.534561 
68.013245 6.576157 
68.024017 4.274313 
68.031342 3.431105 
68.037727 4.353821 
68.042915 3.364337 
68.046776 3.659206 
68.055298 3.759415 
68.056229 3.394295 
68.065681 3.467864 
68.070877 3.374622 
68.084595 3.57078 
68.085663 4.898371 
68.091927 3.789358 
68.096725 3.329592 
68.097923 3.859407 
68.099388 3.346656 
68.100456 3.604668 
68.104187 7.606458 
68.130714 3.75434 
68.13765 4.293581 
68.146591 3.864433 
68.171013 3.709101 
68.179688 3.92684 
68.193573 3.518488 
68.198517 7.974953 
68.215614 3.879584 
68.224304 6.652041 
68.225502 3.952183 
68.238602 3.280371 
68.244217 3.587209 
68.257988 3.408743 
68.259193 3.935057 
68.278854 3.945845 
68.283676 3.755722 
68.290764 3.355546 
68.293312 3.983987 
68.297997 4.120888 
68.310715 3.4493 
68.314598 3.571844 
68.316071 3.687498 
68.332275 3.287678 
68.334282 7.891165 
68.355049 3.308253 
68.361084 3.901251 
68.369934 3.570029 
68.380653 3.537372 
68.382263 3.203055 
68.383072 3.63138 
68.391518 3.419191 
68.424797 3.30201 
68.431374 4.704366 
68.461723 3.223438 
68.466423 3.299354 
68.468979 3.218946 
68.475563 4.209475 
68.487793 3.632486 
68.508629 3.162445 
68.512802 3.323296 
68.517776 3.606036 
68.528534 3.777316 
68.53405 3.347345 
68.559357 3.880557 
68.561775 3.509587 
68.568108 3.792868 
68.568916 3.323204 
68.573631 3.191887 
68.584671 3.947321 
68.589119 3.454095 
68.590866 3.950933 
68.59922 3.274516 
68.600296 3.302601 
68.601379 4.020862 
68.603127 3.060974 
68.608521 3.420413 
68.61795 3.651513 
68.618759 3.751691 
68.619438 3.898037 
68.625771 4.700337 
68.637505 3.48888 
68.647621 3.236018 
68.650993 3.232579 
68.656929 3.635449 
68.658813 3.448241 
68.665024 3.666226 
68.671631 3.675233 
68.688103 3.771425 
68.689178 4.208722 
68.69458 5.128321 
68.706329 3.509273 
68.707413 4.179953 
68.717407 3.636807 
68.722267 3.594908 
68.72403 8.248439 
68.72551 3.482132 
68.726593 3.777261 
68.740105 3.752579 
68.74173 7.104865 
68.754166 6.388274 
68.756325 3.601682 
68.759842 3.474233 
68.764038 3.521619 
68.768501 3.831189 
68.773369 3.911709 
68.781891 3.366827 
68.787437 3.153982 
68.809494 7.02654 
68.840363 3.428481 
68.851746 3.888088 
68.863266 3.54153 
68.864075 3.417738 
68.870308 3.136379 
68.872208 4.304299 
68.883324 3.231698 
68.884682 3.56263 
68.88739 3.331815 
68.892006 3.204655 
68.893631 4.010745 
68.89566 3.579844 
68.900276 3.602508 
68.904884 3.746927 
68.906517 3.224955 
68.907867 3.642817 
68.918182 3.180564 
68.921707 3.329 
68.928764 3.524221 
68.933655 3.344735 
68.937042 4.667114 
68.948448 3.510413 
68.950081 3.775098 
68.954285 3.255774 
68.957138 3.51829 
68.959175 3.300563 
68.960533 3.518167 
68.967186 3.457786 
68.994637 3.315831 
68.999115 3.192019 
69.00061 3.520597 
69.019104 3.762673 
69.020462 3.580534 
69.022774 3.19575 
69.048622 4.494873 
69.05719 3.897969 
69.085236 3.513753 
69.088776 3.8826 
69.114113 3.509013 
69.115341 3.062089 
69.118477 4.126806 
69.129921 3.463934 
69.134964 3.548217 
69.13633 3.891523 
69.137558 3.414715 
69.150375 3.347284 
69.160736 3.695628 
69.165924 3.519826 
69.16729 3.729702 
69.167969 3.558175 
69.18557 3.607888 
69.189255 3.791971 
69.201401 7.095267 
69.216148 4.200206 
69.230629 3.473151 
69.246201 3.505183 
69.257545 3.727583 
69.266975 3.865216 
69.284615 4.280359 
69.297615 3.450428 
69.303909 4.092874 
69.306366 3.661411 
69.318687 3.276804 
69.323616 3.374919 
69.326759 3.164883 
69.338669 3.506202 
69.344009 4.21237 
69.353874 3.452263 
69.3573 3.398521 
69.359077 5.944444 
69.364006 3.130542 
69.365791 3.45922 
69.366753 4.974028 
69.372093 3.57631 
69.393608 3.886807 
69.394569 3.364799 
69.396492 3.705642 
69.404579 3.87077 
69.410065 3.563939 
69.412537 3.395509 
69.420349 3.927965 
69.428993 3.602095 
69.442711 3.84883 
69.445457 3.574035 
69.450264 3.998274 
69.451225 3.747674 
69.45356 3.807034 
69.484177 3.321609 
69.521553 3.411802 
69.545891 3.842979 
69.546303 3.291742 
69.550568 3.594475 
69.552078 7.970548 
69.553047 3.559871 
69.559372 3.743848 
69.56942 3.595545 
69.578499 3.699148 
69.597908 3.335693 
69.603142 3.62808 
69.607002 3.539924 
69.618843 3.83841 
69.629593 5.311915 
69.634415 4.680357 
69.636482 3.429075 
69.640617 4.834538 
69.641853 6.103325 
69.648605 3.434259 
69.657707 3.325754 
69.66584 3.396063 
69.667908 3.480129 
69.671219 3.397936 
69.671913 3.859942 
69.67701 3.488256 
69.682533 3.298086 
69.683357 3.59296 
69.686668 3.200467 
69.688187 6.872736 
69.688873 3.281141 
69.697433 3.21714 
69.709717 3.901614 
69.712616 3.691223 
69.716614 3.959734 
69.717583 3.628301 
69.726555 4.114953 
69.732216 3.610742 
69.736221 4.176196 
69.745338 3.873894 
69.758049 3.89518 
69.771179 3.832747 
69.774628 3.589767 
69.775322 3.331474 
69.779747 3.387011 
69.795227 3.486483 
69.799377 3.655731 
69.804909 3.785917 
69.812798 3.486602 
69.816116 3.107206 
69.820679 3.601137 
69.827736 3.501431 
69.829399 3.94549 
69.838394 3.490705 
69.851685 3.431278 
69.861099 3.956944 
69.862762 3.972759 
69.869682 3.400392 
69.870789 3.254443 
69.888382 3.507588 
69.893791 3.415018 
69.904457 2.985935 
69.906265 3.383933 
69.915962 6.72683 
69.936905 3.6123 
69.939537 4.243552 
69.973816 4.19259 
69.975616 3.702004 
69.983948 3.958198 
69.988808 4.49711 
69.992699 5.106046 
69.997276 3.814186 
70.010056 4.188426 
70.032982 3.777886 
70.039101 7.113426 
70.042297 3.289629 
70.045494 3.317245 
70.048279 3.553907 
70.049805 4.292407 
70.067047 3.496755 
70.068718 3.505669 
70.095848 6.14197 
70.097939 4.239245 
70.102806 3.56978 
70.106842 3.883968 
70.112274 3.40371 
70.113106 3.337594 
70.13887 3.798106 
70.14222 4.155083 
70.145699 3.89377 
70.152946 3.859418 
70.154755 3.455775 
70.155731 3.45813 
70.160049 4.793592 
70.166046 3.422174 
70.177055 3.304518 
70.181519 3.885726 
70.194069 3.718879 
70.196579 3.856991 
70.202858 3.469079 
70.206062 4.186728 
70.207321 3.247384 
70.208992 3.218244 
70.216667 3.206242 
70.223785 3.188934 
70.240677 3.450376 
70.244164 3.882954 
70.255196 3.065659 
70.26693 3.111799 
70.269302 3.748649 
70.277267 3.775479 
70.281738 9.042539 
70.284813 3.794107 
70.288162 3.362543 
70.292915 4.151053 
70.299904 3.566998 
70.303535 6.407005 
70.305496 4.057515 
70.309547 6.212762 
70.314163 4.136024 
70.318916 3.729738 
70.323532 3.629918 
70.325493 3.914721 
70.330109 3.175944 
70.332207 3.408805 
70.335838 3.222475 
70.344093 3.228952 
70.35025 3.907307 
70.351372 3.957577 
70.36425 3.388287 
70.37027 3.491979 
70.374466 3.363134 
70.378525 3.436767 
70.382172 3.461219 
70.384407 3.180321 
70.399536 3.665431 
70.405975 3.465101 
70.406822 3.990982 
70.417191 3.403258 
70.418167 3.368937 
70.419991 3.560195 
70.4263 3.399316 
70.427696 3.285799 
70.429237 3.433504 
70.437233 3.852223 
70.44088 3.118806 
70.449287 3.292289 
70.452377 4.264807 
70.454201 3.786758 
70.456863 4.459307 
70.469627 3.462435 
70.471733 3.546147 
70.47538 3.440272 
70.476501 3.596696 
70.47776 3.613081 
70.480568 3.580945 
70.485764 3.210053 
70.486465 3.770352 
70.50457 3.531335 
70.522125 3.654283 
70.527039 3.673094 
70.533783 3.857408 
70.540665 3.467553 
70.547691 3.653171 
70.548958 4.108042 
70.556122 3.790247 
70.560341 3.789301 
70.570038 3.569117 
70.572708 3.513488 
70.574539 3.175421 
70.584244 3.27267 
70.586494 6.437117 
70.592819 3.589867 
70.60154 3.751554 
70.603233 3.683111 
70.60759 3.503704 
70.609138 3.526806 
70.615471 3.210182 
70.618851 3.565326 
70.623634 3.295717 
70.624336 3.280292 
70.626732 3.568399 
70.633492 3.331394 
70.635178 6.174802 
70.648979 3.269005 
70.651512 3.957122 
70.65686 3.04306 
70.659401 3.603574 
70.666298 3.14347 
70.674332 3.512566 
70.677292 5.38581 
70.678276 3.589909 
70.679405 3.748262 
70.682083 3.608058 
70.68927 4.076128 
70.703506 3.791866 
70.710976 3.896381 
70.717468 3.310558 
70.725502 3.48508 
70.726913 3.651756 
70.738205 3.560415 
70.745819 3.164315 
70.746384 4.251113 
70.757538 3.495227 
70.7677 3.894518 
70.782387 3.451258 
70.786766 3.262923 
70.790718 3.377367 
70.802444 4.062253 
70.806541 3.252053 
70.812477 3.865427 
70.814453 3.606659 
70.819115 3.872836 
70.827736 2.966217 
70.831276 5.670002 
70.834381 4.119478 
70.844139 6.0666 
70.85022 3.555819 
70.852058 3.471079 
70.862953 3.642824 
70.885025 3.053284 
70.892525 3.701 
70.908669 3.086992 
70.92453 3.500572 
70.936424 3.748786 
70.943939 3.466448 
70.950172 3.337296 
70.97229 3.127044 
70.993134 3.572405 
70.995689 3.727274 
71.012718 3.383298 
71.019669 4.337839 
71.047638 4.332156 
71.054886 3.123706 
71.06781 3.218484 
71.074203 3.408957 
71.085999 3.799087 
71.08799 3.415831 
71.091255 3.650661 
71.095238 3.88196 
71.097229 3.547766 
71.113441 3.742028 
71.1315 3.38311 
71.132645 3.115533 
71.135345 3.492164 
71.139328 4.02696 
71.140465 3.591679 
71.148293 4.212189 
71.154984 4.13681 
71.156693 3.45411 
71.161102 3.420598 
71.162956 3.783235 
71.173492 3.22729 
71.205681 3.983119 
71.211952 3.869613 
71.215805 3.578799 
71.233902 3.467804 
71.240891 3.526726 
71.252304 4.01238 
71.261002 3.598953 
71.265137 3.604047 
71.28569 6.452701 
71.312103 4.155896 
71.335098 3.557565 
71.344528 3.100455 
71.354965 3.493191 
71.35997 4.057695 
71.376839 3.791943 
71.382988 6.620823 
71.383987 3.218861 
71.384995 3.861316 
71.391571 4.103231 
71.395576 3.474994 
71.402161 3.805923 
71.420334 3.965236 
71.433929 3.964951 
71.439087 3.894998 
71.441238 4.281458 
71.449402 4.322911 
71.454414 3.868018 
71.457848 3.364282 
71.471748 3.256545 
71.477623 3.473387 
71.480492 3.941132 
71.492386 3.61539 
71.501564 3.954476 
71.51619 3.506648 
71.517334 3.958138 
71.560669 3.403079 
71.56469 3.659815 
71.569138 3.738113 
71.573448 7.799561 
71.574745 3.523646 
71.579048 3.108244 
71.598152 3.322721 
71.598869 3.607552 
71.605629 3.261357 
71.60778 4.967986 
71.60936 3.687089 
71.629776 4.52009 
71.632217 3.081013 
71.641708 3.20415 
71.642136 4.042789 
71.644585 3.975155 
71.646019 4.180753 
71.652924 4.574774 
71.654221 3.268479 
71.656517 5.861665 
71.660118 3.346933 
71.713806 3.371798 
71.719711 3.947684 
71.720863 3.801532 
71.729362 3.285695 
71.746651 3.6156 
71.763664 4.016173 
71.766975 3.718507 
71.778511 3.497379 
71.788612 3.488752 
71.800438 3.626011 
71.801598 3.358912 
71.818047 3.427303 
71.818909 4.706399 
71.826561 7.0899 
71.827141 3.581963 
71.839272 3.376757 
71.860207 3.194667 
71.870033 3.359345 
71.876106 3.205223 
71.883621 4.078777 
71.889259 3.859051 
71.893448 3.219021 
71.896774 3.812451 
71.930183 3.676365 
71.942337 3.209138 
71.94783 3.878515 
71.950005 3.409409 
71.952179 7.856795 
71.954781 4.186994 
71.9571 3.552387 
71.967522 3.896917 
71.972443 4.154436 
71.976784 3.542729 
71.987648 6.750022 
72.009964 8.003575 
72.015465 3.634363 
72.020393 4.044687 
72.036339 3.971316 
72.037796 3.939532 
72.038811 4.098794 
72.04171 3.234271 
72.051422 4.020849 
72.060417 3.958012 
72.061867 3.714496 
72.074638 3.517726 
72.077103 5.377947 
72.083344 3.799379 
72.084358 3.294383 
72.085663 4.102983 
72.089005 3.923831 
72.091179 3.659729 
72.0951 3.933155 
72.098442 5.01444 
72.101051 3.241739 
72.104828 5.8543 
72.108604 3.297453 
72.138817 4.091537 
72.143028 3.77971 
72.14463 3.935837 
72.145935 3.895751 
72.159744 4.328306 
72.164688 3.489179 
72.189262 3.591058 
72.193771 3.705611 
72.222878 3.449591 
72.229279 3.411997 
72.238159 4.029918 
72.244858 3.365242 
72.250389 3.255202 
72.257095 4.139986 
72.258255 3.187303 
72.260155 3.535526 
72.261169 3.709753 
72.274719 3.65711 
72.286377 3.881239 
72.290024 3.78423 
72.297752 4.449215 
72.31189 3.835978 
72.314812 9.350311 
72.315681 4.145207 
72.318748 3.390102 
72.323853 3.634685 
72.3256 3.954712 
72.341797 3.977942 
72.343254 3.922502 
72.348358 4.98506 
72.357262 3.799828 
72.366173 3.75658 
72.369675 3.199289 
72.378723 4.873324 
72.379745 3.246835 
72.386757 3.966233 
72.391289 4.748211 
72.393036 3.322333 
72.398735 3.451139 
72.404869 3.705243 
72.409546 4.377697 
72.41671 4.854409 
72.417587 3.683803 
72.425621 3.54602 
72.461449 3.531478 
72.475197 3.801445 
72.485588 4.269012 
72.494667 3.61449 
72.501839 3.652759 
72.531273 4.038431 
72.543289 3.843487 
72.549881 4.04288 
72.552078 3.25677 
72.55677 3.563526 
72.564835 3.605299 
72.574944 3.261569 
72.577003 3.678309 
72.58448 6.105491 
72.593719 3.345534 
72.599586 4.169407 
72.601784 4.053588 
72.604134 3.474526 
72.61837 4.782768 
72.627319 3.780897 
72.636276 3.522096 
72.642586 4.289246 
72.643471 3.983298 
72.645378 3.559506 
72.648018 4.71957 
72.650223 3.57462 
72.657715 4.670346 
72.670197 3.386781 
72.674461 3.763755 
72.676224 3.472158 
72.679306 4.36304 
72.680038 3.608589 
72.70282 3.447534 
72.70694 3.480834 
72.716942 8.003154 
72.754158 3.246784 
72.76004 4.124607 
72.761368 3.673724 
72.763725 3.54151 
72.77668 3.832077 
72.788605 3.869204 
72.804512 3.870947 
72.815567 3.207779 
72.841064 3.549199 
72.846962 6.261837 
72.859055 5.033637 
72.879707 4.178804 
72.884575 3.825509 
72.893425 3.361005 
72.900368 3.729021 
72.908485 4.0753 
72.912178 6.489452 
72.920593 3.668843 
72.939201 3.326574 
72.945557 3.666357 
72.953239 3.364874 
72.96122 3.86412 
72.96373 3.657298 
72.967865 3.473891 
72.984131 4.042113 
72.986198 3.346644 
72.989601 3.605973 
72.993004 3.80367 
72.996704 3.723453 
72.998772 3.395139 
73.009865 4.136797 
73.01194 3.907547 
73.01593 4.158916 
73.017708 4.083568 
73.026146 3.519095 
73.026733 3.726567 
73.033394 3.765812 
73.046425 3.473402 
73.05101 3.48285 
73.05397 3.548994 
73.059746 3.319346 
73.093674 3.501 
73.10672 3.922816 
73.11042 3.463369 
73.133705 3.642811 
73.142601 3.507628 
73.152397 3.39788 
73.154915 3.996873 
73.156845 3.376464 
73.163673 3.513196 
73.167831 3.620901 
73.186829 3.829278 
73.187721 4.152611 
73.196182 3.666642 
73.19693 3.382238 
73.207771 3.475277 
73.209846 3.639137 
73.217422 3.057141 
73.21817 3.624411 
73.234367 3.813933 
73.23645 7.108893 
73.242989 3.955155 
73.257263 6.62219 
73.27005 3.380811 
73.272728 3.743996 
73.291618 4.972317 
73.314537 4.110136 
73.32943 3.997363 
73.345367 3.410331 
73.347603 3.805803 
73.349388 3.223607 
73.352371 3.544212 
73.360413 3.978452 
73.367867 3.402593 
73.372482 6.55343 
73.377998 3.403787 
73.399467 3.326123 
73.414978 3.821915 
73.419312 3.834836 
73.420502 8.211306 
73.439003 3.909137 
73.447067 4.324384 
73.450943 3.386312 
73.456322 3.830066 
73.464981 3.387194 
73.480965 3.573529 
73.498444 3.693923 
73.501129 3.753167 
73.503967 4.118155 
73.504868 4.006721 
73.512337 3.763258 
73.512642 3.291595 
73.532669 3.710206 
73.536407 3.368812 
73.537605 3.993494 
73.543892 3.374026 
73.545082 3.318015 
73.549271 3.707752 
73.556602 3.45237 
73.586983 3.348133 
73.610039 3.504306 
73.613335 3.944744 
73.61573 3.361536 
73.616035 3.461779 
73.616333 3.39014 
73.621872 3.422697 
73.626068 3.380481 
73.627571 3.860852 
73.630714 3.176676 
73.637756 3.517514 
73.641655 3.585871 
73.648247 3.319205 
73.673584 3.615357 
73.675835 3.544847 
73.680481 3.58805 
73.684387 3.53623 
73.689484 3.638068 
73.691284 3.238886 
73.715294 3.748076 
73.743973 3.475373 
73.748772 4.690968 
73.75058 4.275129 
73.758392 3.538319 
73.767853 3.42542 
73.76815 3.722834 
73.768608 4.518982 
73.772362 4.93787 
73.778221 3.471045 
73.80558 3.356826 
73.820618 4.046071 
73.822273 3.868732 
73.826485 3.17713 
73.82814 4.060211 
73.836266 3.38113 
73.844994 3.314004 
73.854027 3.83085 
73.85508 4.299812 
73.860947 3.784641 
73.872086 6.17011 
73.874947 3.667098 
73.882332 4.221922 
73.883987 7.395995 
73.888199 3.930279 
73.889107 6.644391 
73.891815 3.582798 
73.911255 3.971515 
73.913208 3.638157 
73.926926 3.494263 
73.940643 6.318787 
73.950294 3.89708 
73.951805 3.394203 
73.957237 3.599509 
73.970055 3.442291 
73.976547 3.488533 
73.990425 3.734942 
73.995712 3.540165 
74.007187 3.413094 
74.008392 4.104169 
74.020775 3.904799 
74.029083 6.192828 
74.030594 7.072475 
74.037239 4.8051 
74.037544 4.781156 
74.044037 3.370543 
74.045547 6.400165 
74.05265 3.297616 
74.074722 3.354562 
74.075928 3.340221 
74.076988 7.078603 
74.079712 4.17942 
74.080467 3.449748 
74.100426 4.116267 
74.108444 3.283159 
74.111473 8.074303 
74.123123 3.749778 
74.124489 3.454078 
74.13372 3.82379 
74.139626 3.395902 
74.141739 3.92485 
74.14492 3.397307 
74.154915 3.622794 
74.158249 3.252752 
74.159157 4.137781 
74.163551 3.901993 
74.170364 7.56187 
74.175819 3.172926 
74.181725 3.407579 
74.184456 3.853607 
74.201881 3.443884 
74.202789 3.310635 
74.208702 6.986479 
74.210678 3.662303 
74.211739 3.942976 
74.215073 4.00404 
74.216591 3.555545 
74.220833 3.600221 
74.249657 3.537378 
74.261642 3.417717 
74.271965 3.404648 
74.277885 4.154724 
74.283653 3.757794 
74.294434 4.762716 
74.296104 3.392541 
74.313118 3.738762 
74.330437 3.497471 
74.340622 3.326069 
74.343208 3.294827 
74.350349 3.306112 
74.357193 3.78399 
74.36084 4.120677 
74.36525 3.357078 
74.380463 4.356131 
74.392784 3.412916 
74.394157 3.632124 
74.402374 3.818125 
74.419724 3.374023 
74.432823 3.679843 
74.439217 3.488511 
74.443939 3.710232 
74.452774 3.591193 
74.456734 3.415019 
74.459023 3.2672 
74.466187 3.544296 
74.4674 3.64298 
74.470146 3.793766 
74.485542 3.515901 
74.493164 5.875282 
74.501701 3.570402 
74.50811 3.387506 
74.514366 4.126046 
74.530685 4.334636 
74.555717 3.584761 
74.557091 3.548158 
74.560448 3.710583 
74.561516 3.982864 
74.565948 4.361613 
74.572205 3.501146 
74.573586 3.543332 
74.5774 3.746746 
74.590538 3.612797 
74.593132 3.454063 
74.597717 3.464248 
74.604286 3.388075 
74.607803 3.480582 
74.622017 3.506486 
74.62278 3.446194 
74.624619 3.856894 
74.629662 3.501815 
74.640823 3.397454 
74.643578 3.830504 
74.647247 3.914948 
74.649849 3.94586 
74.658569 6.715562 
74.67601 3.767724 
74.684891 3.220737 
74.686111 3.478046 
74.703415 3.421944 
74.721786 3.409002 
74.7342 3.805382 
74.740784 3.781478 
74.748451 3.40574 
74.750595 4.313958 
74.76899 3.98561 
74.778648 5.331172 
74.782486 3.455801 
74.78862 4.013462 
74.78923 4.413634 
74.801506 3.571332 
74.807182 3.598787 
74.821609 3.380554 
74.829124 6.75586 
74.839104 3.626057 
74.858452 4.638649 
74.860603 3.695369 
74.864136 3.45913 
74.870438 3.919338 
74.874123 3.615719 
74.887955 3.714225 
74.8918 4.240164 
74.903481 3.646728 
74.912704 4.475502 
74.916702 3.63142 
74.918549 4.678469 
74.921471 3.584775 
74.922394 3.778733 
74.927315 3.677206 
74.933929 3.529134 
74.935623 3.459714 
74.940849 3.206331 
74.946854 4.842502 
74.949928 5.063077 
74.950233 3.440668 
74.957161 4.439692 
74.959625 4.353226 
74.96209 3.489759 
74.970245 3.641354 
74.973785 3.917045 
74.977325 3.896533 
74.982559 3.588995 
74.994728 7.176842 
75.017067 3.625943 
75.027542 4.077055 
75.036636 3.938975 
75.03756 3.786912 
75.043419 3.632695 
75.044342 4.006432 
75.046501 3.439803 
75.049896 3.769411 
75.065628 4.059583 
75.066704 3.896837 
75.071487 3.985005 
75.073494 3.671692 
75.07534 4.096853 
75.082596 3.657509 
75.087067 3.580442 
75.097717 3.31917 
75.10173 4.612131 
75.103889 3.325366 
75.106819 7.261878 
75.107597 8.816575 
75.108055 5.548896 
75.108521 6.417847 
75.111145 4.30068 
75.111763 3.729125 
75.113152 3.662562 
75.116241 4.344865 
75.11763 6.872862 
75.119171 3.679237 
75.12442 7.669619 
75.129517 3.262089 
75.138786 3.633738 
75.145584 4.171725 
75.14666 4.282296 
75.147438 5.070499 
75.153305 3.95461 
75.154388 3.704029 
75.15593 3.864481 
75.161339 3.963763 
75.165359 4.420135 
75.168915 5.015481 
75.175095 3.393698 
75.176643 3.298684 
75.185303 5.282677 
75.185921 3.401218 
75.193031 3.982336 
75.196892 4.586138 
75.197823 7.571488 
75.199059 3.710397 
75.210045 3.582288 
75.222885 3.728045 
75.230927 3.713597 
75.232323 3.634586 
75.233559 4.339078 
75.24099 4.129323 
75.249962 3.710721 
75.261887 3.305888 
75.271332 3.533362 
75.280312 3.449598 
75.289917 3.793174 
75.292244 4.205413 
75.301079 4.017924 
75.303246 6.598337 
75.328201 6.207381 
75.340759 3.504958 
75.358757 6.15847 
75.361389 3.702257 
75.366043 3.91593 
75.367439 3.337411 
75.395226 4.858299 
75.40625 3.440609 
75.411682 3.828858 
75.423019 3.74272 
75.42411 3.940018 
75.425041 3.62464 
75.428459 3.453919 
75.432808 3.753962 
75.4384 4.689513 
75.439339 4.714963 
75.454254 3.484601 
75.463112 3.631128 
75.466072 3.46734 
75.475243 3.93842 
75.477577 3.849837 
75.478973 3.509645 
75.480064 3.796052 
75.485504 3.344211 
75.487686 3.652238 
75.49437 4.34759 
75.497795 3.136804 
75.509933 3.450999 
75.521133 3.388813 
75.526428 4.071341 
75.533585 3.680324 
75.543709 3.434368 
75.544952 3.519171 
75.545265 3.951323 
75.545731 3.693781 
75.551964 3.47689 
75.566139 3.811884 
75.568161 3.534194 
75.574707 5.936192 
75.586082 3.615334 
75.59465 3.490576 
75.599953 3.74577 
75.601044 3.419314 
75.603851 4.322512 
75.620216 4.257429 
75.623337 3.692965 
75.624428 3.948782 
75.62973 3.546045 
75.632851 4.161211 
75.648453 5.012113 
75.651108 3.733263 
75.655167 4.851875 
75.65657 4.396772 
75.661873 3.729396 
75.66468 3.242621 
75.665619 3.49969 
75.67218 3.34304 
75.678108 3.996764 
75.684822 3.518832 
75.686852 3.712579 
75.69294 3.943251 
75.697319 4.009155 
75.699661 3.633843 
75.703568 4.329884 
75.709343 3.398395 
75.71106 3.481317 
75.718559 4.230117 
75.731529 3.669367 
75.732628 3.607711 
75.737 3.576822 
75.762016 3.948729 
75.769997 5.62407 
75.777344 3.403173 
75.782196 3.657374 
75.803787 3.169621 
75.824455 3.770685 
75.825241 3.438214 
75.830246 3.080341 
75.835732 4.21115 
75.83886 3.522395 
75.842308 4.073396 
75.847473 3.921995 
75.854683 3.548053 
75.864395 3.425142 
75.865341 3.28457 
75.868156 3.277717 
75.874428 4.017473 
75.875214 3.485823 
75.885712 3.609613 
75.88681 3.362234 
75.90406 3.889207 
75.915192 3.510845 
75.91629 3.790934 
75.921471 3.672 
75.930573 3.936908 
75.941872 3.381836 
75.947678 4.207895 
75.955681 3.735844 
75.959763 3.763247 
75.965569 3.705094 
75.980644 3.626427 
75.982849 3.654743 
75.991798 3.561353 
75.994469 3.90521 
76.015373 3.464766 
76.021812 3.518085 
76.023071 3.578841 
76.025116 3.68582 
76.039894 3.768827 
76.041153 4.695284 
76.054207 4.136856 
76.055153 3.64803 
76.078751 4.069185 
76.099365 3.583564 
76.11496 4.329268 
76.126137 3.598423 
76.126457 3.910137 
76.12677 3.811702 
76.138428 5.386818 
76.145203 6.729712 
76.145836 4.149558 
76.149139 3.476083 
76.15229 6.167441 
76.156548 3.536786 
76.162064 3.644628 
76.180984 3.816583 
76.183823 3.628661 
76.185402 4.173589 
76.189026 4.297362 
76.191551 3.324448 
76.199432 3.663192 
76.222153 3.68789 
76.228943 4.128842 
76.229729 4.087427 
76.24662 3.632201 
76.264465 3.484892 
76.266045 4.450016 
76.266838 3.531848 
76.267784 3.721 
76.276947 4.00899 
76.279793 3.485151 
76.280579 3.674065 
76.281372 3.509174 
76.289902 3.496953 
76.306496 3.8897 
76.309502 4.161823 
76.318352 3.752227 
76.321518 7.484404 
76.321831 6.899884 
76.330376 4.008966 
76.335114 3.890996 
76.337013 7.469481 
76.339073 4.166947 
76.343346 4.798453 
76.345238 11.998474 
76.347137 4.602585 
76.350304 3.343766 
76.357262 4.893243 
76.357742 5.259628 
76.360115 4.159399 
76.362961 3.592792 
76.363754 4.441997 
76.365021 4.033635 
76.365654 4.620765 
76.367073 11.397985 
76.369133 3.749368 
76.370239 14.073759 
76.371033 10.391266 
76.371979 7.180753 
76.373405 12.117908 
76.374992 9.056824 
76.375305 9.89478 
76.375778 9.997959 
76.376732 3.502352 
76.381004 4.548261 
76.381958 4.609043 
76.383224 4.159814 
76.384964 4.380564 
76.397789 4.162735 
76.410614 3.985309 
76.412994 3.282072 
76.429153 4.166915 
76.431053 3.359567 
76.432953 4.750982 
76.43438 5.634901 
76.440247 3.852514 
76.4431 3.547291 
76.456886 3.588708 
76.466087 3.546692 
76.467987 3.660291 
76.468781 3.720127 
76.476234 3.23791 
76.485596 3.337468 
76.503525 3.872767 
76.506378 3.819179 
76.545273 3.888962 
76.54686 3.621527 
76.561157 3.97277 
76.563225 3.475816 
76.573395 3.695037 
76.578163 3.707808 
76.578476 3.445324 
76.578796 3.366698 
76.57991 3.866016 
76.581024 8.077726 
76.608047 3.733212 
76.632858 4.351175 
76.635559 4.005827 
76.670258 4.172763 
76.679176 4.071839 
76.681877 4.85556 
76.69223 3.589438 
76.730949 3.778782 
76.738922 3.943148 
76.739716 3.630506 
76.743866 3.797178 
76.751678 3.465023 
76.754066 3.738358 
76.776237 4.176828 
76.782303 3.649159 
76.802727 3.553444 
76.809433 3.477328 
76.815498 3.932023 
76.817253 7.671967 
76.821251 4.00013 
76.822044 3.460373 
76.830826 3.567496 
76.842651 3.732393 
76.848877 3.589076 
76.856392 3.754419 
76.872208 3.679934 
76.893471 3.362959 
76.894592 3.834708 
76.901627 3.996251 
76.902908 5.036228 
76.905945 3.778159 
76.911385 3.493829 
76.922104 3.84096 
76.926262 3.411878 
76.935707 7.160579 
76.952187 4.208261 
76.953148 7.629244 
76.953949 3.55802 
76.956352 3.530812 
76.964676 3.565147 
76.983093 3.586351 
76.993507 3.889836 
76.99527 4.002993 
77.001198 3.554786 
77.018509 3.688805 
77.01947 3.436892 
77.032776 3.84729 
77.041916 4.108708 
77.049133 3.690081 
77.05555 4.262465 
77.058434 3.777422 
77.063568 3.895348 
77.078171 3.382623 
77.079453 3.554765 
77.098396 4.137269 
77.114937 4.022099 
77.115578 3.467616 
77.133728 3.605116 
77.143044 7.476104 
77.144974 4.362766 
77.154938 4.258173 
77.163292 3.63699 
77.174866 3.761672 
77.178085 3.427946 
77.198189 3.365776 
77.21283 3.959307 
77.217171 4.279149 
77.233749 3.891689 
77.255325 3.482512 
77.259346 3.401375 
77.267723 3.924182 
77.271263 3.926033 
77.274971 3.468721 
77.278999 5.18811 
77.297691 3.958189 
77.314613 3.302315 
77.329773 5.217899 
77.331711 3.747316 
77.338966 3.920841 
77.354126 3.452219 
77.369301 3.769401 
77.380272 3.520244 
77.383499 3.356478 
77.396744 4.012843 
77.397545 3.732212 
77.399323 3.638839 
77.403358 3.992282 
77.419838 6.838655 
77.440193 4.254297 
77.448441 3.421294 
77.451508 3.794252 
77.455711 4.076206 
77.458626 3.654893 
77.470428 3.606783 
77.474953 4.107406 
77.480293 4.048293 
77.505692 4.361423 
77.510544 3.592397 
77.514755 3.575088 
77.524948 3.760012 
77.534012 3.99818 
77.536606 3.84802 
77.543404 3.576123 
77.545029 7.123951 
77.547943 3.729265 
77.553932 4.039967 
77.554253 4.102592 
77.554581 4.162796 
77.563652 3.426776 
77.591362 3.56766 
77.597519 7.751175 
77.606598 3.392768 
77.620056 3.876466 
77.623299 4.095122 
77.634171 3.501473 
77.647636 3.504908 
77.657692 3.847365 
77.659805 5.373374 
77.661263 3.907967 
77.664513 4.145185 
77.673111 4.272773 
77.683502 3.678742 
77.705109 3.724771 
77.71534 3.817101 
77.723137 3.73841 
77.730614 5.976103 
77.739067 3.38375 
77.741829 3.493417 
77.743782 3.701396 
77.750931 3.76424 
77.761177 3.885544 
77.767197 3.445787 
77.790947 4.219779 
77.797295 4.331945 
77.808029 3.523148 
77.822685 4.023864 
77.82724 3.474895 
77.832291 3.737483 
77.834892 4.074621 
77.868454 3.811293 
77.873344 3.449284 
77.885895 3.847473 
77.901215 3.3613 
77.902359 3.318623 
77.906601 3.884526 
77.911163 3.680609 
77.915077 3.958185 
77.917526 5.238683 
77.936607 3.956653 
77.963211 3.878077 
77.976929 3.639421 
77.985909 3.406916 
77.999306 3.99245 
78.001755 3.855768 
78.002739 4.084774 
78.017281 3.956378 
78.018425 4.383364 
78.024956 3.58729 
78.026428 3.99752 
78.031006 5.047271 
78.039833 4.170645 
78.057823 4.913656 
78.059944 3.865932 
78.063057 3.690503 
78.066818 3.738271 
78.078102 3.715162 
78.087921 3.715099 
78.09169 3.75291 
78.100037 3.790488 
78.111328 3.587875 
78.112312 3.96398 
78.138512 4.247262 
78.141624 3.68997 
78.144577 3.677431 
78.150635 3.814382 
78.154076 4.095088 
78.177185 3.729509 
78.180298 3.362213 
78.186859 4.014815 
78.224251 4.243469 
78.225403 4.094533 
78.238365 3.797772 
78.251328 3.431092 
78.262985 4.073486 
78.269882 3.579887 
78.275139 3.978191 
78.276619 3.352944 
78.280556 3.515803 
78.306847 4.433641 
78.329689 3.914752 
78.337585 3.840044 
78.345146 3.743311 
78.354027 4.341515 
78.357483 3.925509 
78.364227 3.698377 
78.368172 3.793797 
78.371956 3.848025 
78.381012 3.72023 
78.38282 3.71704 
78.395821 5.7046 
78.396317 8.033427 
78.402573 3.606416 
78.404877 4.310409 
78.411461 3.832296 
78.420685 4.154747 
78.427109 7.54649 
78.428429 3.851 
78.431717 3.905201 
78.435509 3.725061 
78.435837 3.821766 
78.436165 3.660951 
78.447044 4.241663 
78.449516 3.370342 
78.453964 3.684978 
78.455116 3.996654 
78.457756 3.383546 
78.463684 3.484349 
78.471931 3.479804 
78.473083 3.551837 
78.481659 4.104242 
78.483139 3.966959 
78.490067 4.059502 
78.49897 3.617312 
78.50705 3.81099 
78.521904 3.35313 
78.528831 3.855654 
78.537582 4.07745 
78.539726 5.727993 
78.54451 4.122928 
78.547157 4.792088 
78.553101 7.34139 
78.566803 3.88373 
78.571754 3.596779 
78.572586 3.46666 
78.576546 3.666234 
78.581833 4.165035 
78.587448 4.255152 
78.597031 4.047506 
78.600174 3.734922 
78.604141 3.620106 
78.607277 3.387609 
78.621498 4.273876 
78.625298 3.446874 
78.626625 4.810627 
78.658211 3.824471 
78.671448 3.487201 
78.703392 4.358722 
78.707703 3.84762 
78.718964 3.544813 
78.73304 3.919841 
78.7342 4.145771 
78.735527 3.418464 
78.739006 3.923908 
78.756905 3.979426 
78.768509 4.140607 
78.7705 4.124888 
78.772324 3.504746 
78.780777 4.209574 
78.784264 3.956479 
78.787247 3.374742 
78.793381 3.503401 
78.79985 4.016754 
78.80101 3.616956 
78.802505 3.856372 
78.820259 3.645044 
78.826233 4.021759 
78.843498 3.939095 
78.847313 3.579376 
78.86525 3.577799 
78.867241 3.651601 
78.876213 3.459116 
78.877373 4.310281 
78.888008 3.729171 
78.929237 4.024828 
78.949524 3.756581 
78.956017 4.011805 
78.959007 3.910576 
78.961342 4.111538 
78.963005 3.740983 
78.994965 3.865267 
79.006287 3.625901 
79.007782 3.670174 
79.011612 3.591679 
79.02494 4.460557 
79.04277 3.866142 
79.049767 3.526069 
79.059105 3.452233 
79.063438 3.41556 
79.079781 3.73923 
79.082283 4.927214 
79.085617 3.641673 
79.088615 3.672265 
79.09079 3.930231 
79.092117 5.472146 
79.093956 4.352194 
79.096123 3.733361 
79.10096 3.280816 
79.106804 4.609258 
79.109802 4.340997 
79.119484 4.933219 
79.13501 4.284857 
79.137512 3.645245 
79.166237 3.841375 
79.17659 4.424333 
79.178932 3.921364 
79.180771 4.127999 
79.182106 3.71943 
79.19046 3.906535 
79.191467 3.914713 
79.194641 4.285789 
79.196983 3.61298 
79.231255 4.087004 
79.247482 4.260362 
79.25769 4.033204 
79.265053 3.629545 
79.266052 3.809023 
79.270073 4.048212 
79.2771 3.858105 
79.280952 3.716473 
79.287651 3.898856 
79.305565 3.885563 
79.306404 4.257933 
79.321815 3.963908 
79.32299 3.792976 
79.324326 3.673112 
79.328346 4.146408 
79.332367 6.334835 
79.340248 3.884495 
79.351646 3.590733 
79.353653 3.501534 
79.354492 3.953651 
79.361031 4.053031 
79.36824 3.813941 
79.388367 3.568825 
79.413033 3.991414 
79.428474 4.001899 
79.430656 3.620027 
79.432671 3.548305 
79.434853 3.452277 
79.443085 4.495132 
79.454666 3.892059 
79.455513 3.551741 
79.457191 3.808172 
79.465424 4.226318 
79.47197 3.858708 
79.476173 3.893318 
79.483734 4.185679 
79.495331 3.827499 
79.505081 4.551772 
79.506088 3.567585 
79.507095 3.53183 
79.508446 3.687074 
79.511635 3.62772 
79.521729 3.769671 
79.524414 3.713691 
79.541069 6.982233 
79.549484 3.871185 
79.556381 3.670434 
79.57708 4.005673 
79.580788 4.064029 
79.586678 3.786088 
79.590385 4.110037 
79.591728 4.081921 
79.607391 4.114096 
79.613121 3.797237 
79.624069 4.264884 
79.630646 3.848118 
79.633339 4.296997 
79.635872 3.874124 
79.650368 3.708805 
79.66082 3.730842 
79.669754 6.34793 
79.671272 6.877927 
79.672455 3.801195 
79.673462 3.546429 
79.675148 4.059832 
79.681557 3.987672 
79.68763 7.531154 
79.688477 5.959614 
79.689995 7.755869 
79.696747 3.970921 
79.713791 3.375553 
79.715141 3.631594 
79.727966 4.302732 
79.7435 6.602686 
79.746033 4.092442 
79.751099 4.064931 
79.755997 7.551975 
79.762924 4.29541 
79.772896 3.64048 
79.791481 4.097115 
79.810249 3.37536 
79.813797 3.549334 
79.819038 6.231285 
79.81955 3.322394 
79.819885 3.729092 
79.823441 3.765411 
79.829529 4.054121 
79.839508 4.043282 
79.852196 3.737607 
79.855919 5.16481 
79.861504 4.024177 
79.864555 3.790656 
79.86557 3.273966 
79.867935 3.626077 
79.87014 3.342788 
79.882156 3.944576 
79.885376 4.149904 
79.894691 3.905841 
79.919586 4.123769 
79.932976 4.240343 
79.939247 3.716234 
79.942131 3.797685 
79.945183 4.342534 
79.9562 3.618673 
79.959251 4.030764 
79.961967 3.643701 
79.972984 3.810029 
79.980957 3.774114 
79.997078 3.52711 
80.00251 4.684365 
80.02372 3.282203 
80.026779 4.155849 
80.029663 4.65608 
80.03289 3.904883 
80.037476 3.512639 
80.041382 3.997853 
80.047325 3.738648 
80.049026 4.066625 
80.057007 3.615149 
80.064651 3.799403 
80.065674 4.350827 
80.073318 3.841763 
80.074677 4.333378 
80.077393 3.487457 
80.081306 4.571743 
80.091331 3.459865 
80.09864 5.154659 
80.104424 3.791648 
80.135544 3.747212 
80.140305 4.844813 
80.149155 3.959628 
80.150856 4.147269 
80.155624 3.205001 
80.163284 4.219591 
80.176216 3.976881 
80.203804 3.793098 
80.213173 3.38243 
80.217262 3.697805 
80.219307 3.718482 
80.222549 3.479764 
80.227997 3.589466 
80.247604 3.619127 
80.253571 9.499711 
80.255959 4.8957 
80.272324 3.953864 
80.279152 4.298675 
80.289558 3.875544 
80.300308 3.982541 
80.302696 4.262736 
80.307472 4.567792 
80.312592 4.6906 
80.320953 4.539701 
80.3283 3.852852 
80.335983 4.014165 
80.343323 3.624393 
80.349129 4.056417 
80.351524 6.678022 
80.359383 4.043741 
80.362282 3.559558 
80.372025 7.695559 
80.387749 7.781285 
80.390991 3.680526 
80.39698 3.643457 
80.399025 3.791701 
80.402618 4.641182 
80.404503 3.396182 
80.411682 4.105077 
80.422287 3.726016 
80.423485 6.858742 
80.433235 4.285849 
80.439049 3.892978 
80.466255 4.141792 
80.472595 3.842286 
80.47773 4.685503 
80.48732 4.016283 
80.48954 4.28456 
80.491425 4.0693 
80.499992 3.635753 
80.505814 4.061154 
80.508385 4.51999 
80.542488 4.845734 
80.552597 3.739078 
80.564262 4.648538 
80.570091 3.622261 
80.572662 4.170691 
80.578323 4.386797 
80.607491 3.850535 
80.608696 3.718869 
80.622078 3.8544 
80.648529 4.057166 
80.650757 3.79172 
80.6511 4.039434 
80.651443 3.830563 
80.671204 4.268039 
80.671547 3.670204 
80.67189 3.952609 
80.676186 4.463116 
80.686157 3.744036 
80.689766 4.18495 
80.693375 7.309641 
80.695267 3.577189 
80.69561 3.253795 
80.695953 3.808298 
80.698189 3.649434 
80.703003 5.198095 
80.706612 4.34037 
80.719505 3.592731 
80.725868 3.969389 
80.727249 3.79669 
80.733612 4.553135 
80.740669 6.98702 
80.742218 3.714947 
80.752365 6.046919 
80.761833 3.811207 
80.763206 3.782724 
80.765961 4.246132 
80.772675 3.624899 
80.786621 3.874249 
80.8004 4.005217 
80.814529 3.66976 
80.817284 4.026186 
80.8209 3.737449 
80.823486 3.656112 
80.825554 3.49878 
80.862785 3.812619 
80.868309 3.752639 
80.86969 3.820313 
80.875031 4.242151 
80.876587 3.627399 
80.881935 3.677964 
80.918518 4.506886 
80.936302 3.91692 
80.959442 4.471576 
80.96376 6.657252 
80.96566 4.281273 
80.973091 3.58835 
81.016655 8.131095 
81.02755 3.896534 
81.027893 3.773689 
81.028244 3.754225 
81.029449 3.988801 
81.032043 3.785651 
81.038795 3.780075 
81.043121 3.863052 
81.05056 3.616682 
81.061981 3.841618 
81.086044 3.959234 
81.096611 3.751295 
81.111328 3.621677 
81.114792 6.745407 
81.139748 3.794128 
81.144775 6.724169 
81.14946 3.664962 
81.163155 4.070978 
81.175293 4.087847 
81.19455 4.130528 
81.214333 6.115364 
81.21537 3.651644 
81.219368 3.96302 
81.234123 3.582227 
81.236549 3.581991 
81.238113 3.605335 
81.256348 3.99128 
81.263824 3.809455 
81.274422 4.893712 
81.275459 3.320663 
81.276329 4.34331 
81.281021 3.731634 
81.283279 3.521206 
81.284843 3.38605 
81.289711 4.18036 
81.3097 3.526694 
81.317703 3.82133 
81.330917 3.662426 
81.336311 4.032731 
81.338051 4.209268 
81.34153 4.009796 
81.351273 3.536577 
81.356667 3.920349 
81.361366 7.439829 
81.371117 4.06402 
81.386955 4.754125 
81.395668 4.119968 
81.398796 3.900113 
81.41082 4.175525 
81.429985 4.254354 
81.444794 3.757587 
81.449158 3.627802 
81.450897 4.369254 
81.455429 3.963516 
81.459961 3.694238 
81.470253 7.198864 
81.484032 3.845767 
81.495544 4.156205 
81.516312 4.178261 
81.521019 3.645398 
81.525383 4.04531 
81.552452 3.966309 
81.565201 3.824509 
81.573761 4.476678 
81.576385 4.119825 
81.577255 4.098392 
81.620605 4.9087 
81.622528 3.761075 
81.638275 3.95356 
81.654366 4.342885 
81.658218 3.713316 
81.661018 3.867 
81.662766 4.08559 
81.666969 3.943789 
81.668892 3.613663 
81.670822 7.293152 
81.678169 4.441818 
81.693756 3.50465 
81.694107 3.233952 
81.69445 4.358078 
81.695679 6.522416 
81.704613 4.505684 
81.707588 3.393166 
81.708817 4.143408 
81.710213 3.764056 
81.711441 3.823704 
81.718796 3.947355 
81.719673 3.82604 
81.721252 3.545303 
81.722832 4.231392 
81.727386 3.898154 
81.740524 3.735227 
81.749641 3.585576 
81.752098 3.779652 
81.766296 3.782775 
81.76963 4.051553 
81.781029 4.337881 
81.788918 3.768341 
81.789795 3.598275 
81.790672 3.9086 
81.800499 3.852531 
81.806992 3.773043 
81.811378 3.567688 
81.821556 4.571087 
81.821907 4.031325 
81.822258 3.985418 
81.824364 3.868245 
81.831207 3.680066 
81.831558 3.723393 
81.83226 5.767873 
81.838585 3.890245 
81.847542 3.975321 
81.854912 3.836746 
81.855789 4.656736 
81.861938 3.68089 
81.86879 4.59073 
81.872482 4.189683 
81.897255 5.591726 
81.906746 3.792301 
81.908508 3.567273 
81.915009 3.891218 
81.920639 4.450337 
81.923805 3.794746 
81.931892 4.165212 
81.937874 3.543802 
81.951942 4.119953 
81.962677 4.130324 
81.986794 4.159647 
81.987144 4.492106 
81.987495 3.973593 
82.002113 3.927146 
82.003868 3.865184 
82.025185 3.926846 
82.037872 3.479284 
82.040337 3.773365 
82.043861 3.550581 
82.056908 3.899884 
82.062019 3.769153 
82.065369 4.005866 
82.079292 3.521121 
82.089172 3.966125 
82.10611 4.488554 
82.113693 3.848097 
82.122345 4.109684 
82.130814 5.310463 
82.134521 3.541568 
82.137871 3.727959 
82.15023 4.141887 
82.159416 4.190962 
82.159767 3.874881 
82.160126 3.705873 
82.183617 3.808345 
82.191216 3.479544 
82.198105 3.72603 
82.198463 3.307252 
82.198814 3.475239 
82.210655 3.748531 
82.2202 3.720479 
82.225151 4.063517 
82.244606 4.240524 
82.248497 4.070405 
82.250618 3.765899 
82.267426 3.557332 
82.268669 3.940292 
82.275925 4.207244 
82.279289 3.686156 
82.281761 3.896351 
82.28495 4.85321 
82.291145 3.521213 
82.300529 3.842735 
82.307785 3.971923 
82.311157 4.162056 
82.313103 3.653502 
82.320717 4.363758 
82.324966 3.83869 
82.330994 3.380983 
82.338791 4.303341 
82.345345 4.291987 
82.354385 4.252661 
82.372108 4.471884 
82.377785 4.75774 
82.383278 3.752831 
82.39711 3.521234 
82.408463 3.706568 
82.413078 3.771958 
82.423195 3.619193 
82.42408 4.232231 
82.426033 3.604045 
82.433838 3.77729 
82.440941 3.581038 
82.479118 4.305957 
82.487465 4.261083 
82.497597 3.717009 
82.501686 3.931303 
82.502571 3.600836 
82.50808 4.37253 
82.512169 4.131494 
82.517143 4.324833 
82.537056 3.762868 
82.539726 4.807881 
82.548973 3.742038 
82.551819 3.879953 
82.581711 3.880983 
82.582603 4.088054 
82.585091 4.03488 
82.585449 4.545241 
82.585808 3.983412 
82.595238 3.583458 
82.620697 4.078733 
82.622482 3.891131 
82.632812 3.649947 
82.640831 4.135445 
82.647064 4.000605 
82.671837 3.501121 
82.686455 4.242823 
82.688065 4.30803 
82.694656 4.138102 
82.703758 3.632281 
82.705185 3.96324 
82.705536 4.371765 
82.705894 4.885949 
82.706963 4.452384 
82.714104 3.665706 
82.718384 3.774852 
82.729805 4.175673 
82.73391 4.28094 
82.734978 4.054743 
82.740692 4.146333 
82.74604 4.834484 
82.750328 3.814593 
82.7705 4.784575 
82.776039 3.371109 
82.796585 3.494309 
82.801048 3.901514 
82.811768 4.299132 
82.815704 3.387016 
82.817131 3.569152 
82.819458 4.196603 
82.821068 3.622783 
82.823387 3.918274 
82.824997 3.998507 
82.832863 3.643569 
82.834114 3.602257 
82.859154 3.694495 
82.871674 4.011442 
82.874176 3.715296 
82.889389 4.20043 
82.89225 3.827563 
82.894402 3.860223 
82.896904 3.701013 
82.901382 3.996444 
82.902634 3.963288 
82.916779 4.01617 
82.921074 3.509405 
82.921967 3.780721 
82.923401 3.53273 
82.930923 3.591084 
82.953133 3.966871 
82.968185 4.215322 
82.975357 4.376699 
82.976791 3.844172 
82.989159 5.03769 
82.99131 3.846022 
83.022873 3.790617 
83.023956 4.104786 
83.029877 3.998212 
83.041359 3.540823 
83.047279 3.785191 
83.050148 4.193159 
83.052307 3.598195 
83.059128 3.701431 
83.069 3.956874 
83.075104 3.538563 
83.085342 4.108473 
83.094681 3.404987 
83.097733 3.879379 
83.10672 3.713371 
83.121811 3.566787 
83.129364 4.136504 
83.133316 3.650493 
83.137268 4.059045 
83.152191 3.872269 
83.161362 3.527104 
83.162987 3.724344 
83.17881 3.638577 
83.18763 6.94192 
83.200768 4.493854 
83.204727 3.875048 
83.214806 3.843714 
83.225067 3.962994 
83.22831 3.649222 
83.232811 4.623752 
83.242538 3.912362 
83.265053 3.468514 
83.266853 4.07466 
83.294968 6.863539 
83.305611 5.04198 
83.307228 6.690375 
83.315529 3.68378 
83.317329 4.519746 
83.320038 3.527213 
83.324547 5.633237 
83.33284 4.02097 
83.334465 6.616592 
83.335007 3.267117 
83.335365 3.71205 
83.336449 3.79979 
83.338799 3.528177 
83.373993 4.398993 
83.376701 3.749257 
83.383743 3.866656 
83.401077 3.53801 
83.409569 4.839618 
83.425644 3.71451 
83.433235 3.5933 
83.434685 3.545288 
83.437576 3.736488 
83.443001 3.709604 
83.443901 3.762628 
83.454567 3.831079 
83.480431 3.546304 
83.484222 3.477962 
83.489113 3.59035 
83.501595 3.625788 
83.515892 4.100728 
83.526756 3.814455 
83.531097 3.66355 
83.538879 3.974805 
83.54232 3.620316 
83.549385 3.591993 
83.560432 4.144804 
83.563873 3.922986 
83.565872 3.841551 
83.573662 3.812737 
83.575836 3.883286 
83.598671 4.686382 
83.609726 3.911861 
83.622421 3.889739 
83.629852 8.015955 
83.632942 3.690626 
83.634933 3.987698 
83.636024 3.493498 
83.656158 5.990736 
83.669228 3.438679 
83.673218 3.814919 
83.674126 3.423697 
83.681931 3.738766 
83.682838 4.47569 
83.690102 3.869971 
83.690468 3.616651 
83.690826 3.802619 
83.692284 3.673144 
83.697731 3.394668 
83.698814 4.29673 
83.723518 3.705878 
83.726974 3.550315 
83.732239 3.760914 
83.735878 3.658262 
83.737144 8.05636 
83.738235 3.442358 
83.748596 3.627156 
83.751869 3.570395 
83.764595 3.475199 
83.791504 3.875214 
83.815338 4.337061 
83.818069 3.959812 
83.820618 4.092607 
83.82444 3.723541 
83.825531 3.832225 
83.829353 3.85551 
83.831535 3.776492 
83.838089 3.788387 
83.84082 4.047079 
83.848106 3.961101 
83.862671 4.403735 
83.866318 3.673068 
83.867409 6.35768 
83.878159 3.571187 
83.884529 7.288003 
83.887085 3.845715 
83.904579 3.844733 
83.909134 4.098202 
83.912964 3.94683 
83.91333 3.850028 
83.913689 4.156878 
83.926819 4.09107 
83.928459 3.929118 
83.929733 3.889095 
83.936668 4.006777 
83.940674 3.562078 
83.947975 3.267121 
83.951073 3.684187 
83.961472 3.43192 
83.96804 7.765467 
83.977715 4.06371 
83.982094 3.789015 
83.983368 4.255754 
83.985374 3.881859 
83.993408 3.863043 
84.007835 3.578581 
84.022629 3.963496 
84.027191 4.823164 
84.066841 4.718828 
84.068123 3.821654 
84.069221 3.488214 
84.071411 3.720465 
84.081284 157.016342 
84.089699 4.092638 
84.094635 4.326033 
84.106522 3.838035 
84.109451 3.803304 
84.11055 3.913747 
84.114021 3.634732 
84.124451 3.908904 
84.135979 3.873421 
84.138359 4.050312 
84.141289 4.339753 
84.145683 3.872694 
84.160873 3.957013 
84.171318 3.367251 
84.177544 6.533733 
84.188164 3.741647 
84.195679 4.325738 
84.19751 3.645535 
84.201904 4.222502 
84.207222 3.655104 
84.208504 3.681168 
84.215836 4.071276 
84.216202 3.607322 
84.216568 4.105886 
84.222252 4.28358 
84.231415 3.917549 
84.235634 6.666115 
84.243698 3.534769 
84.245529 3.968225 
84.24865 3.636055 
84.249748 3.832705 
84.253967 3.813036 
84.257088 3.697694 
84.260757 3.77477 
84.268089 4.122808 
84.274147 3.56624 
84.274513 3.37173 
84.274879 3.909209 
84.279099 4.076818 
84.280754 3.787241 
84.282768 3.68315 
84.283501 3.509111 
84.295067 4.627244 
84.303879 6.165583 
84.306076 3.959945 
84.309753 4.670142 
84.332886 3.556469 
84.340599 3.624755 
84.346298 3.583005 
84.349785 4.064567 
84.355301 3.866326 
84.356216 3.778854 
84.371101 3.601858 
84.376801 3.920372 
84.421844 3.517118 
84.431412 7.2714 
84.449997 3.772073 
84.471352 3.621969 
84.478348 3.640571 
84.485161 3.908674 
84.487923 3.771213 
84.494186 3.536484 
84.499527 4.232235 
84.510033 3.957394 
84.523849 3.486005 
84.536751 3.568943 
84.537857 4.27454 
84.547256 3.303965 
84.552048 4.341714 
84.55777 3.757331 
84.558136 3.71 
84.558502 3.568581 
84.56662 3.752594 
84.571411 4.594552 
84.571785 3.688898 
84.573814 3.961872 
84.595024 4.477057 
84.596138 7.222653 
84.597427 3.454399 
84.598717 4.022038 
84.605179 6.298989 
84.607758 4.719084 
84.608871 4.767278 
84.610901 3.885156 
84.613113 3.581479 
84.614586 4.125669 
84.619392 5.736092 
84.621422 3.637801 
84.622345 5.933618 
84.623077 4.388344 
84.623451 3.765633 
84.629539 3.89875 
84.631943 3.556281 
84.637665 4.584873 
84.641548 4.289926 
84.64653 3.734104 
84.648933 4.550007 
84.649483 6.551702 
84.649857 6.545363 
84.654655 4.426516 
84.663155 3.715646 
84.665375 7.428006 
84.670357 5.007255 
84.67498 4.061106 
84.67701 3.438048 
84.677933 4.068524 
84.679413 4.869671 
84.680336 3.764038 
84.682556 7.236168 
84.684219 3.98469 
84.685326 3.392087 
84.686249 4.463467 
84.687363 3.800646 
84.689392 3.589622 
84.690315 4.616411 
84.691055 3.81616 
84.692909 3.787178 
84.694016 5.582713 
84.699745 3.602585 
84.708061 3.288695 
84.709175 3.52109 
84.713425 4.300157 
84.714348 3.872766 
84.717125 4.476386 
84.723785 3.386173 
84.725632 3.482926 
84.729698 3.882532 
84.731735 3.769423 
84.734322 3.598993 
84.736176 3.813817 
84.758934 7.192775 
84.766891 3.680131 
84.768929 3.564466 
84.770958 3.99245 
84.776886 3.977763 
84.794106 3.571926 
84.795029 3.695536 
84.816139 3.89685 
84.822807 3.494589 
84.823921 3.519357 
84.836891 3.935848 
84.842819 4.060281 
84.846718 3.817723 
84.868774 3.174153 
84.872299 3.681387 
84.873039 3.518511 
84.895111 3.771351 
84.896034 3.814289 
84.900116 3.962123 
84.901604 4.140102 
84.904015 3.508949 
84.909027 3.803644 
84.91552 3.617958 
84.929436 4.19807 
84.935562 3.515514 
84.943916 3.530941 
84.958031 3.648815 
84.959328 3.830208 
84.976044 4.527696 
84.990349 5.530539 
85.001686 7.972599 
85.005775 3.889561 
85.011909 3.689985 
85.03199 3.398511 
85.040543 4.835873 
85.041847 3.904723 
85.051331 6.300581 
85.052444 3.797954 
85.057281 4.081464 
85.070305 4.06655 
85.074402 4.03463 
85.082588 3.95748 
85.084824 4.002657 
85.089287 3.597019 
85.098969 3.439114 
85.101204 3.826379 
85.105858 4.579377 
85.107346 3.646293 
85.114609 4.173334 
85.128204 3.426316 
85.133797 4.361011 
85.134727 3.430284 
85.15522 3.988729 
85.155968 3.753359 
85.171806 3.88096 
85.184486 4.215809 
85.1856 3.634285 
85.191566 3.736147 
85.206673 3.841052 
85.208725 4.02483 
85.225517 3.966348 
85.231865 4.262255 
85.232979 3.587031 
85.24231 3.75773 
85.251831 4.398346 
85.254074 3.437294 
85.25631 7.926549 
85.2733 3.389175 
85.276482 3.712786 
85.283012 3.500541 
85.285072 7.412508 
85.288246 3.466696 
85.300758 3.531981 
85.304314 3.734615 
85.314964 3.812807 
85.323746 3.786756 
85.327484 3.814814 
85.328415 7.081018 
85.329353 4.130083 
85.350479 3.457159 
85.357956 3.904757 
85.363007 4.068811 
85.366379 3.424239 
85.3675 3.442083 
85.367874 3.209981 
85.368248 3.459606 
85.381531 3.780141 
85.388824 3.905817 
85.400993 7.298925 
85.403801 3.407143 
85.406044 4.062016 
85.408478 3.692909 
85.420647 4.061143 
85.4478 3.778634 
85.461288 3.89973 
85.462784 3.820814 
85.47197 3.790777 
85.489395 4.039053 
85.497459 3.843989 
85.536095 4.426634 
85.547722 3.845711 
85.561615 3.245072 
85.576065 6.454231 
85.579071 3.211859 
85.593529 3.753188 
85.596909 3.870654 
85.602921 3.854249 
85.607986 4.0195 
85.632042 5.370354 
85.633163 4.091499 
85.647827 3.773599 
85.657036 4.239807 
85.667946 4.480873 
85.671707 3.490115 
85.675652 3.789815 
85.682236 3.394059 
85.686562 10.284504 
85.714592 4.134759 
85.715721 3.635104 
85.717979 3.510183 
85.719864 3.52916 
85.723068 4.384317 
85.732666 3.526825 
85.740761 4.185116 
85.756203 5.425355 
85.756767 4.746848 
85.758835 3.772934 
85.761101 4.475805 
85.774284 4.08578 
85.779938 3.91152 
85.788605 3.771045 
85.790672 3.857057 
85.798401 5.011565 
85.805 4.762731 
85.812347 3.38466 
85.817444 3.582526 
85.821968 3.831406 
85.833466 7.617607 
85.842522 3.760909 
85.84346 4.077577 
85.850441 3.726282 
85.867424 3.685101 
85.870064 3.926197 
85.873085 6.785096 
85.884598 4.448725 
85.894226 3.757369 
85.89592 3.794168 
85.896866 3.833953 
85.911217 4.004169 
85.916504 3.489948 
85.924812 3.343592 
85.925758 3.749743 
85.93483 3.608879 
85.938416 3.842805 
85.938797 3.329199 
85.939171 3.698147 
85.947105 4.175825 
85.966385 3.457314 
85.970169 3.695422 
85.979614 3.575014 
85.986046 3.424027 
86.014229 3.664202 
86.034286 3.409247 
86.044884 3.659714 
86.060402 7.327497 
86.081238 3.781009 
86.093552 3.770418 
86.099609 4.342716 
86.105293 4.010479 
86.112877 4.312506 
86.115341 3.868042 
86.13031 3.603426 
86.147751 7.650247 
86.149269 4.184281 
86.151543 3.509242 
86.155525 3.882526 
86.160652 4.802156 
86.170326 3.810188 
86.176392 4.023363 
86.179237 3.815775 
86.180946 3.461614 
86.182274 3.930729 
86.183228 3.745882 
86.187965 3.67099 
86.190437 4.84403 
86.196884 3.63922 
86.199921 3.777982 
86.212639 4.015688 
86.216057 7.598466 
86.218147 4.097841 
86.235428 4.211303 
86.248337 3.614246 
86.25708 4.209444 
86.271141 6.439013 
86.272087 7.352971 
86.283302 4.135913 
86.301552 3.994198 
86.305351 3.812561 
86.307823 3.513396 
86.327415 3.678545 
86.338638 4.014895 
86.339783 4.24165 
86.345871 3.313198 
86.352531 3.736629 
86.353668 3.502177 
86.372704 4.082261 
86.375175 3.531346 
86.381844 4.034001 
86.385269 4.581268 
86.390221 3.932546 
86.397835 3.501125 
86.403168 3.577904 
86.411743 4.684197 
86.416122 3.587112 
86.419365 4.492718 
86.458237 6.991031 
86.464722 4.263748 
86.46949 3.76527 
86.473686 3.796565 
86.47731 3.983715 
86.47979 3.581695 
86.482269 4.481454 
86.498291 3.470503 
86.499817 3.285384 
86.509735 3.512291 
86.511833 3.943332 
86.512794 5.146329 
86.522141 3.655819 
86.534737 4.096929 
86.543335 3.38843 
86.545242 3.968913 
86.550781 3.773871 
86.554024 3.747606 
86.561279 3.511571 
86.564339 7.609344 
86.57618 4.089402 
86.5821 3.883231 
86.583443 3.897071 
86.586685 3.382176 
86.60675 4.556934 
86.621284 3.524561 
86.627594 3.945075 
86.63237 3.521306 
86.677902 4.350374 
86.682304 3.83897 
86.70298 3.790129 
86.714272 4.304881 
86.724998 3.647007 
86.732277 3.911203 
86.744347 3.788223 
86.773666 3.735099 
86.776733 6.989102 
86.777306 3.795337 
86.777695 4.094218 
86.792648 4.740831 
86.797829 4.560438 
86.804344 3.256966 
86.807411 4.233633 
86.809334 3.686812 
86.817581 3.551122 
86.82679 3.646305 
86.840988 3.778573 
86.848473 3.784312 
86.851158 7.250625 
86.865364 3.935679 
86.87439 3.573682 
86.909927 3.48147 
86.91185 4.069417 
86.942024 3.629981 
86.959908 3.644539 
86.960869 4.370549 
86.983948 3.92018 
86.987991 3.713893 
86.990494 3.689216 
87.010887 3.627194 
87.017052 3.68444 
87.02417 3.622502 
87.039001 3.692148 
87.043617 3.908598 
87.047089 4.348244 
87.058838 4.382789 
87.068466 3.813003 
87.09082 3.556127 
87.130539 6.648416 
87.13633 4.117984 
87.157547 3.440336 
87.158516 3.574382 
87.162956 3.647475 
87.171638 4.58566 
87.180901 3.712356 
87.186691 3.718125 
87.192291 3.833403 
87.196159 3.7942 
87.220879 3.299144 
87.229568 3.443838 
87.237877 4.168239 
87.239235 6.635803 
87.242126 4.349592 
87.251404 3.501026 
87.251984 4.201052 
87.262619 4.089859 
87.264938 3.41504 
87.265518 4.054528 
87.271896 3.644986 
87.274796 3.636362 
87.280792 5.218803 
87.285431 3.81954 
87.2864 4.236308 
87.296455 8.663444 
87.311546 3.750808 
87.32354 3.775619 
87.326256 3.911139 
87.333412 6.768115 
87.334381 7.568049 
87.338448 3.686305 
87.342316 4.125188 
87.357224 4.817226 
87.362839 4.219788 
87.364586 3.300168 
87.376007 4.646459 
87.377754 4.685349 
87.379692 3.555874 
87.387634 3.584973 
87.406036 5.531682 
87.421547 3.804771 
87.438606 3.414319 
87.462074 3.461989 
87.467888 3.536556 
87.468666 4.765411 
87.472931 3.708785 
87.476425 3.511162 
87.481468 3.615371 
87.484573 3.537808 
87.48632 3.360822 
87.489235 3.539554 
87.502625 3.627135 
87.512329 3.527548 
87.526505 3.900569 
87.529808 4.138579 
87.532913 3.978123 
87.533691 3.915549 
87.53447 4.900823 
87.551559 3.511024 
87.558945 3.479256 
87.596848 3.985559 
87.603065 4.128262 
87.608902 4.380183 
87.626602 3.874945 
87.630104 4.060731 
87.63205 3.515753 
87.662987 4.194778 
87.665131 3.748492 
87.6772 4.244295 
87.693947 3.958766 
87.729202 3.453888 
87.734856 4.423239 
87.743233 3.759819 
87.747528 4.174325 
87.771118 3.346939 
87.775017 3.590315 
87.779694 3.845044 
87.784378 3.81805 
87.785744 3.657381 
87.787109 3.610158 
87.797058 3.415018 
87.808182 3.475614 
87.823402 3.601146 
87.824379 4.243871 
87.838043 3.557898 
87.839996 3.493522 
87.840965 3.851376 
87.854836 4.379481 
87.873581 3.692693 
87.881203 3.629102 
87.882179 3.55672 
87.907188 3.212373 
87.926743 4.082792 
87.947662 3.797009 
87.950012 7.20473 
87.959991 3.8397 
87.974861 3.870099 
87.980537 4.092436 
87.987968 3.855464 
87.995804 4.071913 
88.008331 4.161363 
88.03183 3.459879 
88.035355 3.542802 
88.038689 3.333138 
88.055931 3.848012 
88.060242 3.894113 
88.072586 3.620346 
88.076508 3.735821 
88.077881 3.687537 
88.078857 4.318748 
88.08474 3.394321 
88.100426 4.297862 
88.113373 3.487324 
88.11396 3.995205 
88.118668 3.335764 
88.123962 3.684395 
88.126122 4.055159 
88.139664 3.329974 
88.148689 3.522588 
88.175583 3.728742 
88.177544 3.543155 
88.184029 3.68941 
88.187363 3.54022 
88.189919 4.005206 
88.214867 3.642415 
88.217422 3.810982 
88.218597 3.586409 
88.228233 4.09265 
88.249458 4.009995 
88.251427 3.74773 
88.26165 3.847621 
88.269714 3.826566 
88.283478 3.315222 
88.285057 4.034194 
88.286232 3.875247 
88.287415 4.315182 
88.28997 3.728617 
88.291153 3.40717 
88.302368 3.966357 
88.307091 3.859514 
88.315948 6.391815 
88.324806 4.163689 
88.336029 4.629352 
88.341537 4.084064 
88.36084 3.823839 
88.393547 4.18349 
88.399658 3.280573 
88.404785 3.629619 
88.418388 4.811525 
88.426865 3.430909 
88.429428 3.398037 
88.436722 3.46593 
88.447182 3.310393 
88.449944 3.20375 
88.468483 3.711543 
88.476776 3.475933 
88.47934 3.720325 
88.485657 3.562911 
88.48941 4.374869 
88.496117 6.412373 
88.515076 3.300428 
88.523369 4.280807 
88.531273 3.429758 
88.536804 4.582809 
88.575142 3.713197 
88.576332 4.009271 
88.582458 3.841516 
88.587799 4.292141 
88.602432 3.713823 
88.607773 4.347746 
88.612122 4.16272 
88.614693 3.741403 
88.62439 4.227857 
88.634087 3.677442 
88.635468 3.788198 
88.641602 3.742644 
88.646156 4.73267 
88.647545 4.501238 
88.658234 3.189415 
88.672089 4.110883 
88.686943 3.831037 
88.698235 3.571265 
88.699623 3.749577 
88.713493 3.754869 
88.719437 3.476494 
88.721222 3.856462 
88.725975 3.502713 
88.727364 4.400332 
88.750755 3.475976 
88.75631 3.905818 
88.760277 3.297876 
88.77951 4.050064 
88.787247 4.718205 
88.790031 3.484869 
88.796379 4.054465 
88.807289 6.821859 
88.809677 3.713271 
88.827141 4.371311 
88.827934 3.767629 
88.874016 4.372396 
88.875008 3.350052 
88.875999 3.653781 
88.881371 3.591701 
88.882561 3.659236 
88.886932 3.656542 
88.90303 4.065232 
88.904419 6.842514 
88.906807 3.296759 
88.910187 4.1311 
88.929871 4.238774 
88.933258 3.824692 
88.939224 3.534856 
88.940811 3.643841 
88.949768 3.940118 
88.953941 3.417491 
88.958717 3.834212 
88.959717 3.319854 
88.961502 4.128489 
88.972054 4.106369 
88.979416 3.629635 
88.986778 7.593872 
88.987579 4.626213 
88.989571 4.464429 
89.005898 3.970709 
89.012863 3.589386 
89.014061 3.569971 
89.020828 4.5426 
89.022224 3.982935 
89.035172 3.446196 
89.044144 3.861758 
89.045532 3.581452 
89.055496 7.494457 
89.059288 3.8532 
89.06208 3.96715 
89.069855 3.890747 
89.08062 3.599476 
89.102753 3.374925 
89.114723 3.365088 
89.117912 3.739636 
89.133873 3.846712 
89.15184 4.061585 
89.191978 3.935344 
89.201767 3.721764 
89.202164 3.475539 
89.212158 4.290791 
89.239738 3.709286 
89.241142 3.440889 
89.246941 3.812141 
89.24894 3.793061 
89.252937 3.653237 
89.271133 3.65919 
89.277138 3.860674 
89.279739 3.822369 
89.283539 3.984318 
89.307152 3.785292 
89.312958 3.469241 
89.316559 3.357675 
89.318764 4.014367 
89.322365 3.696467 
89.337379 3.995647 
89.33918 3.64267 
89.346992 3.704303 
89.361412 3.651206 
89.374237 5.73103 
89.375443 3.365596 
89.39167 3.514168 
89.402695 5.436221 
89.41172 3.958565 
89.421143 4.25926 
89.422951 4.218894 
89.434181 3.871293 
89.45163 3.385184 
89.465881 3.940094 
89.466881 3.579146 
89.468491 3.674409 
89.471901 3.546954 
89.473106 4.025745 
89.480934 4.758159 
89.488358 3.849827 
89.506027 3.76904 
89.510048 3.47573 
89.518478 3.313697 
89.524506 3.468949 
89.525909 5.051549 
89.529129 3.749404 
89.540779 3.61843 
89.544395 4.063193 
89.554443 3.632951 
89.575951 3.883132 
89.586807 4.039609 
89.588219 4.163877 
89.59787 8.495663 
89.601891 8.733918 
89.602699 10.286467 
89.604103 4.23393 
89.610138 3.748689 
89.614166 3.137651 
89.615372 7.079399 
89.618996 4.044371 
89.622009 3.881117 
89.625633 9.418947 
89.630058 12.490417 
89.63147 4.772414 
89.633484 18.585508 
89.634888 6.628541 
89.636299 9.550643 
89.639114 3.887785 
89.659042 4.10342 
89.675552 3.90267 
89.696503 3.61412 
89.7229 3.527974 
89.724915 3.85085 
89.729149 3.531652 
89.73056 3.895621 
89.735596 3.905595 
89.747093 4.149023 
89.756973 4.520982 
89.761002 4.215044 
89.766655 3.866481 
89.770081 5.530396 
89.790459 7.416957 
89.817299 3.480651 
89.823761 3.780108 
89.842331 4.607765 
89.848595 4.098848 
89.871826 3.804032 
89.873848 3.91126 
89.897293 8.547016 
89.899918 7.249689 
89.901131 3.323035 
89.90416 3.923315 
89.906792 3.399267 
89.914673 3.443795 
89.917305 3.756367 
89.936722 3.699785 
89.939957 4.198817 
89.951485 3.538073 
89.955734 3.828487 
89.959579 3.707194 
89.969093 3.531135 
89.976578 3.721694 
89.982246 3.590194 
89.991554 3.275322 
90.000671 3.449306 
90.014442 3.560547 
90.02153 3.483581 
90.029633 3.806434 
90.048676 3.630705 
90.053947 3.572706 
90.064079 4.155243 
90.067322 4.47308 
90.079285 4.078576 
90.080498 3.880634 
90.113762 3.598617 
90.1166 3.558893 
90.121468 3.751434 
90.126137 3.568384 
90.137909 3.586591 
90.140953 3.374357 
90.148056 4.179661 
90.15049 3.684244 
90.165108 3.564383 
90.180946 4.139752 
90.204102 3.156543 
90.206741 4.371502 
90.216499 3.77932 
90.234177 7.157394 
90.236824 3.754562 
90.238449 3.432571 
90.247597 3.63471 
90.248611 3.516769 
90.250038 3.748071 
90.258575 3.582016 
90.260201 4.168645 
90.263664 4.261018 
90.270576 3.996685 
90.28054 3.54572 
90.282982 3.593443 
90.288475 3.542958 
90.294785 3.641325 
90.315338 4.111535 
90.323074 4.110575 
90.325722 4.325982 
90.328773 8.493833 
90.33712 3.764086 
90.350769 3.925446 
90.358299 3.68794 
90.364006 3.476949 
90.438606 3.654428 
90.439835 3.851386 
90.447792 4.858584 
90.457993 3.929516 
90.469414 3.704115 
90.479012 7.475961 
90.483292 3.632817 
90.486153 3.779406 
90.503914 6.228613 
90.50779 4.054697 
90.509628 3.562855 
90.522087 3.504421 
90.523109 3.476636 
90.524338 3.692023 
90.566833 3.424966 
90.581963 3.658594 
90.596886 3.809383 
90.600571 4.339625 
90.613045 3.86834 
90.613457 3.66413 
90.615295 4.146636 
90.618156 7.837315 
90.620613 3.609021 
90.642509 3.714307 
90.653152 4.570638 
90.656631 3.588489 
90.658272 3.612045 
90.66011 4.515274 
90.665642 3.666971 
90.669327 3.872556 
90.673416 4.028529 
90.677719 3.517885 
90.686729 3.587492 
90.698608 3.256201 
90.713562 3.270267 
90.731186 3.830856 
90.739998 3.398686 
90.754143 3.600339 
90.759682 3.958072 
90.789833 3.891496 
90.800499 3.679595 
90.812607 3.392327 
90.837242 3.668555 
90.840324 3.559791 
90.858391 3.871181 
90.875237 3.602481 
90.880577 3.77227 
90.910583 3.533443 
90.912636 4.131395 
90.914078 3.834075 
90.924355 3.452401 
90.927437 5.593376 
90.930115 4.358607 
90.938957 3.491511 
90.9478 3.534907 
90.952118 3.698664 
90.958496 3.528583 
90.959732 3.596157 
90.960762 3.624493 
90.965492 3.956287 
90.997803 4.069599 
91.000893 3.542621 
91.017982 3.854143 
91.020859 4.189672 
91.025185 3.893117 
91.03363 3.448089 
91.061653 4.476843 
91.062889 3.984641 
91.067009 3.478862 
91.074432 3.626354 
91.092773 3.693688 
91.100403 4.253284 
91.131966 4.178755 
91.137741 3.358614 
91.151154 3.955707 
91.172211 4.320045 
91.178192 6.96021 
91.185631 7.585808 
91.19265 3.678138 
91.206696 3.366463 
91.216194 4.196507 
91.220535 3.525324 
91.224876 4.31532 
91.227974 3.899031 
91.230042 3.274912 
91.231071 3.577011 
91.235207 3.625461 
91.249672 4.132406 
91.26683 3.509028 
91.275726 3.812711 
91.277382 4.954518 
91.279243 3.503349 
91.28669 3.537169 
91.288757 4.9071 
91.301994 3.78972 
91.332413 3.405822 
91.339867 3.620025 
91.356842 4.158397 
91.364304 3.641897 
91.373619 3.323204 
91.376732 6.190434 
91.382111 3.555127 
91.387291 3.58937 
91.391647 3.865293 
91.433716 3.763802 
91.438072 3.4696 
91.454872 7.52618 
91.457985 6.457753 
91.461922 3.699459 
91.471466 3.959312 
91.473541 3.556802 
91.475204 3.374302 
91.47686 3.692826 
91.48661 7.516562 
91.490761 3.464025 
91.499687 6.588346 
91.534157 3.264629 
91.545578 4.788195 
91.549316 4.641209 
91.554512 5.166098 
91.561363 3.686918 
91.567596 3.569803 
91.569466 3.256746 
91.575912 4.114052 
91.582352 3.74561 
91.590874 3.632672 
91.593582 3.351342 
91.597115 3.832144 
91.609383 3.692016 
91.613747 3.967613 
91.621857 3.471079 
91.626228 3.861195 
91.637871 4.440836 
91.644737 4.054471 
91.647232 3.75533 
91.678246 4.367255 
91.686363 7.332169 
91.696152 4.397392 
91.703644 3.330398 
91.70948 4.543805 
91.721352 3.891535 
91.727806 4.224129 
91.735939 3.714702 
91.741768 3.281822 
91.800354 3.601465 
91.816628 3.769094 
91.829353 3.367828 
91.836037 4.914806 
91.839371 4.073043 
91.843544 4.092003 
91.865677 4.343442 
91.884682 3.745372 
91.906822 4.020097 
91.927101 1656.646729 
91.928978 1786.464722 
91.935249 4.096535 
91.964729 3.809127 
91.979584 3.937947 
91.980209 4.063523 
91.992348 4.169868 
92.015785 3.729634 
92.028137 3.826086 
92.070648 4.258772 
92.081963 4.195573 
92.085739 3.550716 
92.089508 3.328178 
92.103973 3.889235 
92.115501 3.732877 
92.122421 4.100423 
92.124519 3.953959 
92.135635 3.900131 
92.143394 3.888188 
92.151154 3.782992 
92.152412 3.531368 
92.157448 3.490871 
92.172768 3.525414 
92.222946 3.516058 
92.225464 4.349277 
92.226097 4.120635 
92.257187 3.483376 
92.275894 3.961992 
92.279678 3.770261 
92.282829 3.857491 
92.287666 3.385432 
92.291237 3.451945 
92.305542 3.476215 
92.314163 4.124715 
92.332466 3.576501 
92.337097 4.293909 
92.338776 4.355443 
92.345718 3.729492 
92.348877 6.825202 
92.364456 4.091194 
92.383827 3.944098 
92.398781 4.043612 
92.439018 3.779943 
92.456093 3.719304 
92.461578 3.754612 
92.471695 3.683116 
92.48098 3.491349 
92.499542 4.371579 
92.504395 3.837636 
92.505661 4.253871 
92.517685 3.682381 
92.538795 3.343057 
92.543861 3.464756 
92.570892 3.991972 
92.575325 7.747066 
92.576385 10.841999 
92.583145 4.092531 
92.589905 3.448715 
92.612511 4.208436 
92.614204 3.387445 
92.627945 3.861196 
92.646767 3.668638 
92.657761 4.048321 
92.659668 4.237189 
92.660301 3.426621 
92.672783 4.678581 
92.676804 3.950143 
92.68103 3.863036 
92.703255 3.296932 
92.708969 3.923434 
92.723999 3.747474 
92.747086 5.284216 
92.747513 3.702709 
92.766365 5.809691 
92.782043 3.838486 
92.790733 3.965486 
92.792854 3.885681 
92.850113 4.580145 
92.885986 3.463015 
92.896385 3.838841 
92.912102 3.277443 
92.916779 4.236058 
92.925697 3.952134 
92.940781 3.512601 
92.956291 3.958889 
92.969261 3.939124 
92.980957 3.802786 
93.013069 3.875257 
93.016045 3.521766 
93.029236 4.065279 
93.053497 3.525737 
93.074791 7.024508 
93.079048 3.529493 
93.106529 3.844869 
93.112923 3.490009 
93.121872 3.444019 
93.128693 3.325947 
93.130394 4.446158 
93.145958 3.845897 
93.18306 3.992633 
93.185196 3.737 
93.219978 3.933262 
93.227661 3.819119 
93.234703 5.962579 
93.242393 4.497743 
93.251144 3.33635 
93.253922 3.534867 
93.263748 4.235442 
93.266525 4.246691 
93.272079 4.083208 
93.280411 4.201628 
93.305199 5.014256 
93.311607 3.530988 
93.319946 3.807405 
93.321014 3.870572 
93.338547 3.81039 
93.342613 3.816599 
93.352242 3.756963 
93.361862 3.668294 
93.374916 3.696306 
93.38369 3.934252 
93.388397 3.423212 
93.4021 4.021711 
93.410019 3.603549 
93.418152 3.658953 
93.43721 3.893301 
93.444283 3.804782 
93.454781 3.85321 
93.471275 3.893147 
93.474495 3.574271 
93.487572 4.221281 
93.493568 3.467437 
93.516083 4.155497 
93.533028 3.629269 
93.540108 4.031451 
93.55706 3.647736 
93.562424 3.812571 
93.566719 3.59812 
93.572517 3.563854 
93.586037 4.262479 
93.603859 3.615571 
93.605797 3.639579 
93.613098 3.437159 
93.642746 4.003281 
93.645325 3.978268 
93.648117 3.668208 
93.665962 3.465485 
93.694771 3.572628 
93.701225 4.28462 
93.711121 3.85431 
93.713058 3.55675 
93.726395 3.870349 
93.729843 3.591859 
93.733284 3.965592 
93.746414 3.457593 
93.755882 3.968023 
93.76342 3.82255 
93.801544 3.894643 
93.803047 3.395659 
93.812744 4.122247 
93.821152 7.969483 
93.825027 3.962289 
93.839684 3.634392 
93.840767 4.157876 
93.860168 4.010884 
93.872459 3.867938 
93.917557 4.499454 
93.93116 3.542243 
93.944542 3.872641 
93.947998 3.666757 
93.954475 3.879832 
93.957069 4.118438 
93.972618 3.89579 
93.9804 3.459096 
93.985367 4.133877 
93.989471 3.723889 
93.993584 3.796978 
93.999199 3.67518 
94.005898 3.605649 
94.017357 3.343602 
94.019737 3.695698 
94.027733 4.089315 
94.031624 3.745509 
94.034218 3.546484 
94.037895 3.7071 
94.057144 3.937426 
94.064934 3.643753 
94.084846 6.891459 
94.089172 3.670495 
94.100212 3.60692 
94.112549 4.162663 
94.125542 4.295714 
94.135071 3.746396 
94.138535 8.024917 
94.145256 4.019338 
94.164749 3.63296 
94.179054 3.373496 
94.191849 4.066056 
94.193794 4.119277 
94.194878 3.806627 
94.209412 3.89461 
94.211143 4.487697 
94.235435 4.161372 
94.237389 4.093431 
94.246498 3.851094 
94.247803 3.874552 
94.258003 7.868455 
94.261253 3.394438 
94.275146 3.660536 
94.293388 3.871784 
94.297295 3.398972 
94.306412 7.347441 
94.308807 3.525353 
94.319016 3.75895 
94.332268 3.751773 
94.337914 3.62403 
94.348999 4.131962 
94.354218 3.392391 
94.359215 3.742865 
94.370514 4.138221 
94.377907 3.633285 
94.3853 4.285952 
94.405533 4.379229 
94.418144 3.49516 
94.439911 3.48965 
94.458191 3.470525 
94.460152 3.892099 
94.461891 3.548127 
94.467339 3.885053 
94.47583 3.400022 
94.477356 4.440958 
94.483238 3.618471 
94.493904 3.723513 
94.494995 3.9831 
94.501312 3.66728 
94.503929 3.768459 
94.505455 6.946553 
94.507195 4.338889 
94.513954 5.983653 
94.51722 3.879853 
94.532913 4.100827 
94.550133 3.403037 
94.554497 3.948525 
94.576302 3.91532 
94.583717 4.152857 
94.590919 6.06037 
94.595284 4.829815 
94.603355 4.015597 
94.643959 4.185973 
94.65313 3.426929 
94.655746 3.9905 
94.667542 4.160419 
94.678902 3.768106 
94.726326 6.357777 
94.74054 3.865536 
94.796989 6.018259 
94.814285 4.240041 
94.816032 3.465158 
94.825226 3.857008 
94.827637 3.775748 
94.835083 4.048815 
94.846252 3.429084 
94.849106 3.46818 
94.856987 3.870599 
94.878242 3.7734 
94.89315 4.01787 
94.903893 4.034812 
94.921432 3.48668 
94.925606 4.542808 
94.954124 3.320322 
94.972992 3.863795 
94.987267 3.710702 
94.9888 3.416932 
94.996262 4.106338 
95.010536 3.500728 
95.030312 3.652274 
95.031845 4.188154 
95.043274 3.875049 
95.061073 3.660889 
95.066124 7.602205 
95.068108 3.473031 
95.072945 4.568646 
95.084373 3.711219 
95.115387 3.948681 
95.117584 3.762093 
95.131668 3.756022 
95.135185 3.668687 
95.147514 3.894035 
95.157639 3.782923 
95.171944 4.081392 
95.180534 3.663595 
95.184937 3.648564 
95.194626 3.941042 
95.2052 3.827315 
95.231422 3.826707 
95.244209 3.868715 
95.287209 3.766101 
95.290512 3.897759 
95.30265 3.380908 
95.331337 6.768466 
95.358276 3.899668 
95.362915 3.704925 
95.367325 3.538468 
95.37307 4.217755 
95.379036 4.206566 
95.409309 4.054517 
95.412842 5.155013 
95.442909 3.8949 
95.449539 3.812069 
95.458832 3.540795 
95.463036 4.509617 
95.483826 3.411082 
95.489578 3.613295 
95.492012 4.074663 
95.50264 3.829909 
95.51725 4.220308 
95.52832 3.688371 
95.537621 3.798687 
95.538284 3.892899 
95.543823 3.986601 
95.549797 4.502952 
95.55246 3.534527 
95.568848 3.850243 
95.583252 3.952758 
95.601875 7.1023 
95.640236 4.039943 
95.642006 3.405621 
95.661308 4.581583 
95.671295 3.382836 
95.724136 3.878774 
95.729904 3.711101 
95.732796 4.05021 
95.747902 5.431605 
95.74968 8.199529 
95.788574 4.179349 
95.795464 4.061515 
95.808807 3.86443 
95.813927 4.608217 
95.8246 3.660646 
95.842621 6.51019 
95.848183 3.822916 
95.853302 3.688306 
95.859756 3.562427 
95.874451 7.322101 
95.882912 3.42416 
95.888031 3.172277 
95.889816 5.031382 
95.892487 3.600215 
95.905403 4.16504 
95.959991 4.028262 
95.976936 3.450405 
95.986748 3.458902 
96.013962 3.953589 
96.018654 3.902235 
96.034492 3.852337 
96.049896 3.625749 
96.065971 3.91331 
96.067757 3.870934 
96.103271 3.39727 
96.113998 3.479225 
96.143051 4.852732 
96.157806 3.470114 
96.171448 3.613003 
96.180397 3.422046 
96.183533 3.999385 
96.199417 3.663765 
96.203667 3.599802 
96.235901 4.380335 
96.257843 3.967915 
96.259186 3.450387 
96.272629 3.555721 
96.274193 3.737086 
96.289879 3.44338 
96.308029 3.589265 
96.330894 3.568279 
96.333138 4.48495 
96.362289 4.217725 
96.365211 3.48863 
96.386078 4.016013 
96.390564 3.810793 
96.402237 3.710193 
96.407394 4.238664 
96.411217 3.761559 
96.426483 3.652623 
96.428955 3.572251 
96.451408 4.270408 
96.461296 3.506091 
96.466019 3.611031 
96.479271 3.855247 
96.483093 3.640118 
96.484665 4.653839 
96.510971 3.440781 
96.57148 5.087041 
96.594666 3.513147 
96.600746 3.542898 
96.621689 3.520356 
96.623039 4.217824 
96.631821 3.963587 
96.637459 4.160557 
96.666298 3.723442 
96.677345 3.870535 
96.689972 4.914047 
96.70034 4.430551 
96.705078 5.064002 
96.717705 3.427031 
96.718163 3.452728 
96.718613 3.373834 
96.740944 3.848628 
96.743881 8.033205 
96.74749 3.748452 
96.772545 3.917965 
96.807091 3.516968 
96.827423 3.419825 
96.833527 3.815514 
96.842339 3.513682 
96.848892 4.100322 
96.852516 4.117854 
96.859749 4.157125 
96.877159 3.444164 
96.882133 3.690474 
96.890495 3.991362 
96.897057 3.599666 
96.905876 4.32211 
96.923073 3.585416 
96.924431 3.768824 
96.935066 3.624984 
96.947296 3.383547 
96.954086 3.613875 
96.959969 4.378048 
96.979897 3.711583 
96.997337 4.361502 
97.027931 3.683167 
97.052414 3.641347 
97.061485 3.802482 
97.063301 7.317282 
97.070557 3.591148 
97.086205 4.229712 
97.088699 4.210227 
97.095512 3.730102 
97.131592 3.38798 
97.138405 3.910278 
97.146126 4.03157 
97.152481 4.221814 
97.154984 3.852405 
97.160202 5.63594 
97.163841 4.334062 
97.170425 4.083832 
97.192467 5.438334 
97.192917 4.353408 
97.208374 4.54146 
97.208824 4.223693 
97.209282 4.370643 
97.229965 3.703122 
97.249527 5.095253 
97.256348 4.186619 
97.320068 3.455066 
97.361519 4.225181 
97.369263 3.544267 
97.373138 4.25664 
97.374962 4.559837 
97.379745 3.826161 
97.393196 3.863136 
97.406189 3.943253 
97.41143 3.890947 
97.41394 3.585232 
97.417587 3.764035 
97.424881 7.361933 
97.45636 3.888876 
97.470963 3.954083 
97.476898 3.570457 
97.48101 4.423085 
97.492874 3.496172 
97.499954 4.56364 
97.510689 3.690137 
97.521187 3.493739 
97.528267 3.387078 
97.540375 4.519644 
97.542892 3.885408 
97.547462 4.305071 
97.554314 4.060796 
97.571228 3.74187 
97.573738 3.949748 
97.586998 7.793741 
97.596603 3.968131 
97.61261 3.861849 
97.616035 8.15976 
97.62999 4.701532 
97.632507 4.333781 
97.634338 7.462498 
97.635483 4.251179 
97.635941 3.661766 
97.636398 3.73904 
97.669807 3.605192 
97.670952 3.686337 
97.672554 4.592239 
97.694534 3.795193 
97.701866 3.619025 
97.707359 3.521756 
97.70919 3.592118 
97.729813 3.592889 
97.743332 3.991403 
97.746078 3.834453 
97.749977 3.620327 
97.75135 4.07513 
97.759834 5.194571 
97.784363 3.751988 
97.788719 3.62172 
97.79216 3.78541 
97.803856 3.382333 
97.815559 3.479875 
97.835747 3.846336 
97.849747 3.758926 
97.928299 3.82953 
97.937492 3.696335 
97.951057 3.542557 
97.986702 3.560356 
97.990608 3.753016 
98.014999 3.69704 
98.032486 3.755369 
98.042618 3.74729 
98.05275 3.827317 
98.057121 3.999901 
98.060349 4.269768 
98.077393 3.597417 
98.089142 3.894064 
98.095818 4.038211 
98.099045 3.767013 
98.111954 5.021681 
98.116096 3.708003 
98.126701 3.452956 
98.130852 6.035359 
98.140305 3.823047 
98.183662 3.413375 
98.190353 3.724411 
98.200508 3.614193 
98.205589 3.715361 
98.207436 3.660858 
98.213203 3.652436 
98.243912 8.125715 
98.27301 4.283123 
98.28849 3.731377 
98.329178 3.656122 
98.340973 5.193515 
98.352303 4.082678 
98.354385 4.102865 
98.363174 3.810575 
98.366875 4.03441 
98.3685 4.005119 
98.386543 3.848015 
98.440956 4.633061 
98.44883 4.202735 
98.467369 3.981564 
98.476402 4.33562 
98.491005 3.436274 
98.519753 3.643942 
98.541786 4.284748 
98.565453 3.855733 
98.597252 3.588074 
98.602592 3.591602 
98.618156 4.213078 
98.628838 3.56217 
98.651146 4.332736 
98.652771 3.767541 
98.667412 4.014108 
98.669502 3.773337 
98.672752 4.157283 
98.679268 4.946303 
98.681587 3.811035 
98.68531 4.089381 
98.696236 4.819679 
98.698792 4.151944 
98.707397 3.520098 
98.726471 3.682709 
98.733452 3.496969 
98.746948 3.794135 
98.759514 4.518829 
98.788612 3.719311 
98.800026 4.077407 
98.833801 3.620984 
98.838699 3.674803 
98.844986 4.199734 
98.851517 4.127037 
98.863869 3.726578 
98.866669 3.902012 
98.880188 7.892012 
98.897682 3.648062 
98.904213 4.001729 
98.90934 3.565551 
98.915642 4.049074 
98.92614 4.152557 
98.927307 3.473463 
98.94294 3.6327 
98.981461 4.075633 
98.986366 3.752508 
98.989403 3.744252 
98.993141 4.275911 
98.993607 4.255454 
98.99408 4.066145 
98.99501 4.549279 
99.007156 3.341745 
99.016266 3.396188 
99.021645 3.707053 
99.02562 4.513044 
99.028885 3.937949 
99.04969 4.454112 
99.051559 3.657172 
99.058578 3.714312 
99.070969 3.758176 
99.122665 3.869705 
99.137413 4.537545 
99.143265 4.298676 
99.151695 11.831177 
99.153099 3.769947 
99.159889 3.496123 
99.17511 3.619814 
99.201118 4.027676 
99.202522 4.648038 
99.221977 3.60819 
99.228065 7.468973 
99.247055 3.438462 
99.250107 3.903224 
99.252686 3.509895 
99.271919 4.500451 
99.286697 3.582357 
99.296082 6.56734 
99.337395 3.966461 
99.346313 4.956837 
99.355003 4.797812 
99.371918 3.567543 
99.382019 4.242507 
99.407166 4.284416 
99.418213 3.932653 
99.435608 7.937331 
99.442665 3.978305 
99.464775 3.778589 
99.479591 7.072793 
99.487358 3.983266 
99.498184 4.224156 
99.500778 3.653009 
99.505722 3.96078 
99.511604 7.350351 
99.51725 4.169171 
99.536797 7.328462 
99.541977 4.215583 
99.54763 3.618379 
99.55658 3.689842 
99.567421 3.821272 
99.584618 4.010232 
99.623047 3.745418 
99.634369 3.917304 
99.643799 3.881152 
99.652054 6.097591 
99.654655 4.276259 
99.658188 3.923868 
99.66362 3.994362 
99.672112 3.590667 
99.682259 4.225855 
99.69619 3.773256 
99.698547 3.675533 
99.701851 4.199207 
99.72287 3.722137 
99.747437 5.561663 
99.761139 3.917444 
99.766098 4.289487 
99.795174 3.681049 
99.80085 3.388787 
99.805344 3.844428 
99.812904 3.869752 
99.825912 3.919502 
99.845551 3.984883 
99.851936 4.181758 
99.868271 3.358042 
99.902596 3.308395 
99.904961 3.496827 
99.912064 4.76169 
99.918938 4.250367 
99.922012 3.915016 
99.923439 3.58574 
99.933624 3.398055 
99.934807 3.86183 
99.943336 3.443798 
99.95163 3.61507 
99.960632 4.886651 
99.96917 3.96595 
99.987427 4.025175 
100.004494 3.91326 
100.00663 3.484195 
100.009239 4.433946 
100.012085 3.361987 
100.016357 3.960244 
100.01944 3.918295 
100.039604 4.413496 
100.049576 4.533389 
100.075447 3.376656 
100.083755 4.704554 
100.084709 3.989125 
100.096107 4.088548 
100.102989 3.936967 
100.128174 3.703737 
100.14077 4.175362 
100.149086 3.729966 
100.162399 3.882639 
100.172142 3.634598 
100.174049 3.491381 
100.18808 3.974159 
100.194496 3.552377 
100.230423 3.830923 
100.242081 3.763543 
100.258507 3.751681 
100.344978 4.187978 
100.352852 3.836697 
100.356903 4.716178 
100.377167 3.590255 
100.391716 3.867861 
100.393631 3.93917 
100.39888 4.553928 
100.399834 3.71122 
100.407707 4.700074 
100.440163 3.664556 
100.448997 4.278965 
100.449471 4.081615 
100.449951 3.68609 
100.451141 3.873035 
100.46714 4.171372 
100.472633 3.81014 
100.497955 3.904786 
100.522331 3.366517 
100.536194 3.9883 
100.537392 4.514121 
100.550301 3.729883 
100.554123 3.87937 
100.562019 7.673549 
100.566086 4.19482 
100.567993 4.053177 
100.595268 5.089715 
100.60125 3.911765 
100.603165 3.681831 
100.622787 4.207142 
100.635239 4.090755 
100.646492 3.397178 
100.654633 4.130323 
100.65583 4.07171 
100.658699 4.259027 
100.689362 3.818063 
100.699432 3.708517 
100.710693 4.90633 
100.718605 3.524549 
100.746895 3.627191 
100.753372 3.900583 
100.775917 4.370883 
100.779037 4.01835 
100.785278 4.494713 
100.787437 3.71767 
100.823677 3.609375 
100.840004 4.530341 
100.84481 3.830477 
100.850571 4.283291 
100.858261 3.722337 
100.866188 7.631081 
100.87027 3.72933 
100.873634 8.536994 
100.876038 4.382628 
100.876518 3.516016 
100.896706 3.436197 
100.911125 4.247179 
100.920258 6.804826 
100.928917 4.231834 
100.936371 3.843846 
100.939018 7.081795 
100.955612 4.374667 
100.961143 10.073953 
101.010963 3.764496 
101.055756 3.622141 
101.064194 7.333234 
101.067322 3.926633 
101.082504 4.322402 
101.090942 3.633049 
101.128067 3.953065 
101.175842 3.517447 
101.180664 3.735039 
101.198532 5.01762 
101.217606 3.90148 
101.229919 3.98153 
101.232094 4.876126 
101.246346 3.430044 
101.255287 4.426581 
101.2826 3.97238 
101.289848 4.121538 
101.305321 3.687424 
101.31572 3.697453 
101.317902 3.858867 
101.320076 8.158853 
101.346924 4.057498 
101.36338 4.044003 
101.369431 4.110303 
101.376213 4.252147 
101.405502 3.90406 
101.422943 4.469721 
101.440872 3.820064 
101.447166 3.734645 
101.467285 4.060625 
101.473831 7.48149 
101.475044 4.027704 
101.476494 4.108014 
101.489349 3.967117 
101.505112 3.915019 
101.51796 4.173448 
101.523056 3.699898 
101.52597 3.699871 
101.532761 3.893809 
101.55703 3.820442 
101.563095 3.669332 
101.606804 3.88921 
101.615547 4.948223 
101.692596 4.041961 
101.715942 4.095478 
101.721786 4.246155 
101.723 4.098579 
101.7286 3.868218 
101.737358 4.129261 
101.739304 3.602454 
101.746117 3.547228 
101.753906 3.889493 
101.768997 3.412355 
101.77314 3.805185 
101.779716 3.962485 
101.78215 3.725163 
101.785072 3.828182 
101.809914 4.112618 
101.821365 3.625784 
101.830383 4.065744 
101.832573 4.094928 
101.835503 8.335934 
101.847687 3.886256 
101.850121 7.660316 
101.875481 3.850135 
101.891335 4.027348 
101.900841 3.520128 
101.902794 3.634636 
101.922806 4.214178 
101.928169 4.218604 
101.92939 4.009378 
101.931099 3.984482 
101.954529 4.274405 
101.958923 3.809344 
101.973579 3.877538 
101.975533 4.429569 
101.980171 4.146765 
101.987984 3.871979 
102.000687 3.889905 
102.017548 3.739154 
102.036125 3.776364 
102.038078 3.920279 
102.043213 6.690458 
102.065704 4.207571 
102.086006 4.108728 
102.091629 53.266388 
102.098969 4.497121 
102.10215 3.948953 
102.112427 3.824476 
102.121239 7.166777 
102.122215 3.850966 
102.127113 3.895878 
102.134209 4.153658 
102.140083 4.118249 
102.14547 3.637671 
102.159912 3.977854 
102.181953 3.867353 
102.190285 3.973459 
102.202293 4.294333 
102.21209 3.618886 
102.216011 3.724514 
102.227287 4.772236 
102.234886 3.848872 
102.236115 3.734018 
102.237335 3.744057 
102.25573 3.731852 
102.264557 4.450282 
102.272156 4.251684 
102.289818 3.671918 
102.290314 4.304869 
102.290802 3.978409 
102.305031 3.631441 
102.340134 4.886576 
102.358795 6.546915 
102.394173 4.278147 
102.420959 3.91956 
102.439888 4.635967 
102.442345 3.230265 
102.460297 3.883398 
102.462509 4.326445 
102.48613 3.653179 
102.504829 3.706447 
102.517387 3.882959 
102.526245 4.285865 
102.528954 4.482193 
102.583389 4.00785 
102.594719 3.772848 
102.600388 3.540118 
102.606552 4.252538 
102.617393 4.466647 
102.635399 3.816546 
102.646736 4.458937 
102.647728 4.687497 
102.650436 3.438084 
102.68251 4.172009 
102.686211 3.818048 
102.691643 4.044677 
102.696327 9.358991 
102.70694 4.169572 
102.713112 3.867847 
102.73114 3.647418 
102.7341 3.361705 
102.761269 4.072907 
102.79364 3.960666 
102.80056 4.15902 
102.801544 3.465867 
102.81366 3.909758 
102.823799 6.440509 
102.827011 4.054412 
102.828987 4.406376 
102.833443 5.356235 
102.850754 4.145999 
102.852486 3.65132 
102.860405 3.802947 
102.875244 7.333227 
102.896286 3.980747 
102.897522 3.892689 
102.903465 4.270129 
102.906189 4.754811 
102.912376 3.965744 
102.915596 3.958692 
102.920792 3.949283 
102.933426 4.064103 
102.940849 4.24906 
102.949272 4.733122 
102.970581 3.881504 
102.971077 3.702056 
102.972069 5.348616 
102.973801 4.026632 
102.975044 4.005174 
103.016937 4.390376 
103.040001 4.347151 
103.046204 4.058555 
103.084412 4.07926 
103.085899 3.678899 
103.089874 7.644737 
103.109985 6.830328 
103.125626 4.192679 
103.154694 4.280208 
103.177307 3.74631 
103.190475 4.564703 
103.20813 4.034544 
103.220566 4.093946 
103.234245 3.554553 
103.235733 4.454879 
103.237228 4.365286 
103.254143 5.097082 
103.266335 4.487373 
103.268578 3.249858 
103.352997 4.287646 
103.360474 4.755881 
103.375175 4.177837 
103.375671 4.129592 
103.376175 3.946816 
103.383652 4.016159 
103.412079 7.294197 
103.423798 4.161805 
103.438263 3.679142 
103.44001 3.416555 
103.455482 3.686836 
103.455978 3.558324 
103.456482 3.77556 
103.465218 3.73262 
103.485435 3.408783 
103.54438 3.692236 
103.547623 4.324406 
103.573372 3.870403 
103.575119 3.94922 
103.58387 3.706409 
103.613876 3.605399 
103.617882 3.712537 
103.620132 3.71622 
103.627632 4.009657 
103.633141 3.64676 
103.67218 7.973609 
103.677933 4.284286 
103.684448 3.855234 
103.68795 7.578322 
103.693962 4.161414 
103.70047 4.554743 
103.717255 4.707843 
103.723763 3.550001 
103.755585 3.720444 
103.764107 7.608681 
103.786926 3.817492 
103.78968 3.613486 
103.792442 3.640064 
103.816269 4.458213 
103.826553 3.525795 
103.834084 3.708224 
103.88102 4.046725 
103.887794 3.487973 
103.896332 4.210768 
103.906128 3.70189 
103.925224 4.016669 
103.92849 3.605853 
103.932007 3.532243 
103.934265 4.23357 
103.936531 5.062434 
103.940804 3.909804 
103.957893 4.070249 
103.982277 4.744586 
104.003151 3.77741 
104.014725 5.927611 
104.037369 3.959289 
104.038628 4.029087 
104.040894 4.985919 
104.05574 3.598376 
104.072105 4.189797 
104.093513 3.501614 
104.108124 3.662812 
104.125 3.876325 
104.139366 3.84698 
104.14415 3.964078 
104.159279 4.217702 
104.176926 4.382896 
104.18676 3.936856 
104.189285 4.258492 
104.2024 4.192789 
104.210976 3.615914 
104.213501 3.744266 
104.235703 3.608492 
104.243782 4.138075 
104.244286 3.92494 
104.244789 4.309834 
104.277863 8.124232 
104.303123 4.535232 
104.320045 4.312705 
104.326874 3.852438 
104.346077 4.027858 
104.347847 3.615873 
104.357201 3.991547 
104.359985 3.855552 
104.367317 3.76004 
104.371109 4.183041 
104.380211 3.765127 
104.389061 3.951923 
104.400696 3.9094 
104.416641 4.707143 
104.425491 4.461589 
104.429291 3.537608 
104.449539 4.401467 
104.456123 4.466217 
104.489799 3.781553 
104.508804 4.130214 
104.517921 4.959024 
104.518433 5.216723 
104.518936 4.164837 
104.534142 3.785157 
104.540482 4.031524 
104.550369 4.039563 
104.552391 4.105095 
104.555946 3.805208 
104.579781 8.741167 
104.636612 3.960306 
104.654129 4.035869 
104.664795 4.166395 
104.678764 5.577627 
104.697304 3.97052 
104.699593 3.829088 
104.700867 8.373744 
104.708229 3.823434 
104.710777 4.733404 
104.724495 3.859903 
104.732887 4.533847 
104.733391 4.154361 
104.758049 4.236939 
104.761101 3.985877 
104.76899 4.373544 
104.788315 5.092083 
104.7901 3.7414 
104.80587 3.488892 
104.817322 3.942079 
104.822922 6.933402 
104.832085 3.79368 
104.852196 3.90698 
104.869514 3.772024 
104.881485 3.807993 
104.906708 4.018585 
104.912567 4.181026 
104.917915 4.022949 
104.927856 4.123173 
104.93219 7.862062 
104.934738 4.038979 
104.939072 7.727334 
104.939842 4.131948 
104.940346 3.958794 
104.941879 5.314085 
104.944176 3.755127 
104.948509 9.941521 
104.955902 3.698255 
104.962784 8.408582 
104.970695 3.926698 
104.975029 8.835368 
104.980133 3.768383 
104.985229 8.168968 
104.989822 4.06646 
105.002838 3.696315 
105.004623 4.398641 
105.006409 8.723399 
105.009468 7.877853 
105.015594 4.123335 
105.018402 6.932154 
105.020187 4.05998 
105.023254 4.40537 
105.026062 4.388706 
105.027336 8.012074 
105.030144 4.918528 
105.032188 3.907842 
105.042145 3.615936 
105.046486 4.107197 
105.066147 4.013389 
105.082497 3.742925 
105.085815 3.654444 
105.092201 7.265735 
105.108551 4.51644 
105.110596 3.763063 
105.13002 4.008322 
105.143318 3.790985 
105.15789 3.797463 
105.171448 4.95825 
105.172218 3.529092 
105.172729 3.964826 
105.199074 4.197395 
105.20752 3.79784 
105.227745 4.273491 
105.236443 4.142505 
105.270508 3.788504 
105.347389 4.002603 
105.359695 4.152266 
105.362518 4.194153 
105.37278 4.222722 
105.385605 3.838199 
105.413322 4.267948 
105.438217 3.626442 
105.475456 4.250614 
105.492157 3.78346 
105.494987 4.00347 
105.499611 4.172045 
105.507324 3.988865 
105.512459 3.421469 
105.514 4.172625 
105.516319 3.897986 
105.548195 4.147842 
105.549995 4.232805 
105.552055 4.48271 
105.564911 3.989302 
105.588066 3.771215 
105.588585 3.454846 
105.589096 3.562869 
105.596046 4.017705 
105.613289 4.173596 
105.623329 4.168231 
105.64032 4.088114 
105.65139 3.88015 
105.662979 3.681459 
105.664268 3.791752 
105.678696 4.135084 
105.683846 3.550689 
105.692352 3.841206 
105.711937 3.868554 
105.791115 4.159879 
105.823631 5.706932 
105.83448 4.008991 
105.853844 3.715233 
105.855911 4.63804 
105.860046 4.251811 
105.879677 3.768306 
105.881744 4.557469 
105.897766 3.710542 
105.904228 4.410014 
105.906036 3.501574 
105.916893 4.110475 
105.921028 3.762593 
105.937576 3.932624 
105.949471 4.085136 
105.958008 3.858431 
105.985168 4.730117 
106.006134 8.388037 
106.021919 3.921168 
106.028915 4.185015 
106.042374 4.377079 
106.068275 3.784438 
106.079933 4.356242 
106.085381 4.248393 
106.104034 3.671953 
106.112587 4.176898 
106.122185 4.378498 
106.136963 3.897803 
106.174568 4.029611 
106.177162 5.244868 
106.216095 3.749089 
106.224663 4.192586 
106.250633 4.006488 
106.299217 4.684893 
106.307274 4.357444 
106.314293 3.962593 
106.318451 3.88986 
106.321571 4.047406 
106.339775 3.910541 
106.343674 3.976975 
106.367081 4.195489 
106.379829 3.967922 
106.391022 3.715369 
106.39753 3.624046 
106.430328 4.169796 
106.451164 4.08251 
106.457413 4.288718 
106.498581 3.747977 
106.501709 3.961784 
106.505096 3.886441 
106.507446 4.895368 
106.512398 4.212127 
106.514481 4.563952 
106.52491 3.809096 
106.554901 3.760197 
106.564552 4.011259 
106.578644 3.804503 
106.584122 3.836822 
106.591431 7.777384 
106.592995 4.323082 
106.596649 3.703376 
106.609703 4.108674 
106.611786 5.489319 
106.621712 3.699332 
106.62458 4.46624 
106.625626 4.769083 
106.630844 14.667786 
106.632935 4.73387 
106.634766 10.206126 
106.642601 5.055727 
106.64312 4.808384 
106.643646 4.26386 
106.64782 4.519582 
106.649651 7.791141 
106.650955 3.700651 
106.653305 4.103814 
106.655396 3.928065 
106.657227 8.531904 
106.660622 7.74522 
106.662453 8.992895 
106.664017 12.008373 
106.666634 8.023647 
106.667679 9.989397 
106.669243 22.417934 
106.671333 16.041912 
106.672638 14.743125 
106.674728 8.730821 
106.675514 8.630647 
106.677345 4.126368 
106.682831 7.165191 
106.711578 4.152872 
106.719162 4.461047 
106.720993 4.009642 
106.722038 4.574693 
106.735893 4.226593 
106.743217 3.937722 
106.747925 8.317945 
106.754204 3.945116 
106.77906 3.945284 
106.794762 3.963058 
106.796852 3.790845 
106.804443 3.947958 
106.830887 7.648805 
106.834557 3.749844 
106.851311 4.25621 
106.892448 3.987034 
106.940689 4.842028 
106.94384 3.750441 
106.94751 4.304135 
106.960625 4.034401 
106.983711 3.963149 
106.988174 4.027614 
106.990273 4.27478 
107.005501 3.820615 
107.025185 4.010938 
107.059326 3.969458 
107.06826 4.438761 
107.071152 3.990438 
107.102951 4.176741 
107.10952 4.351306 
107.123192 3.806346 
107.128716 5.07686 
107.141075 4.427071 
107.149231 3.823536 
107.155014 4.522197 
107.162384 3.690562 
107.177643 3.802179 
107.179482 3.893734 
107.185013 4.392316 
107.190796 3.891991 
107.208961 5.670479 
107.225281 4.888002 
107.23687 3.903904 
107.250565 4.148533 
107.254257 4.274723 
107.255836 3.68134 
107.260048 4.128997 
107.293777 4.756412 
107.302742 4.192478 
107.320663 4.044014 
107.33728 4.02951 
107.341499 3.736022 
107.35231 3.566669 
107.358116 4.268166 
107.360222 3.821688 
107.395317 5.077581 
107.432281 4.278787 
107.505203 3.670451 
107.514984 3.968418 
107.524498 4.755764 
107.563377 3.976762 
107.577141 4.589244 
107.582169 6.960046 
107.589043 3.706596 
107.594337 3.94595 
107.607841 3.730042 
107.613396 3.845571 
107.614456 4.620223 
107.627693 4.108923 
107.63723 4.104462 
107.653381 4.845193 
107.669281 4.369713 
107.708504 3.907377 
107.730774 4.334256 
107.745361 3.899231 
107.747215 3.934081 
107.761543 4.261394 
107.763664 4.741356 
107.7687 3.917562 
107.864807 5.931401 
107.883141 4.235609 
107.889519 4.742074 
107.89138 4.05484 
107.904938 3.883701 
107.922752 6.411804 
107.998566 6.631272 
108.009743 3.535383 
108.022789 4.34824 
108.041428 3.877512 
108.050751 4.077776 
108.057678 4.016921 
108.08432 3.942624 
108.091782 3.976884 
108.114174 7.622263 
108.126167 4.425188 
108.136566 4.30467 
108.140839 3.869989 
108.172577 4.268987 
108.195793 4.07946 
108.225426 4.419298 
108.228897 4.311385 
108.235306 5.320149 
108.260414 3.759095 
108.301292 4.273555 
108.303963 3.964003 
108.31546 3.918835 
108.342201 4.007502 
108.359581 3.756408 
108.438805 4.064753 
108.457558 4.392929 
108.463181 4.1437 
108.477646 4.062973 
108.482468 3.833642 
108.486221 3.701926 
108.488899 5.340296 
108.495331 4.03721 
108.505783 3.72206 
108.529106 3.69314 
108.537422 4.012349 
108.566391 4.01432 
108.587852 4.407931 
108.603416 7.250469 
108.624359 3.647318 
108.627312 4.348482 
108.630531 4.068802 
108.634827 4.813892 
108.640732 4.731202 
108.644226 4.35347 
108.659538 3.574986 
108.671623 7.76194 
108.684517 3.922691 
108.693657 4.076837 
108.696884 4.050187 
108.723763 3.839365 
108.747421 4.454634 
108.7528 3.895038 
108.762215 4.03292 
108.768944 3.880769 
108.771629 4.420146 
108.775131 4.453919 
108.782661 3.975739 
108.786697 4.091112 
108.791809 4.470788 
108.80069 3.710694 
108.806076 3.88683 
108.809303 4.028408 
108.841339 3.836738 
108.865311 4.144477 
108.913544 3.64223 
108.916779 4.258531 
108.923248 4.453617 
108.93026 5.061143 
108.932953 4.375309 
108.936195 3.83759 
108.948326 3.591002 
108.975838 4.000589 
109.012535 4.04974 
109.029274 3.645189 
109.031975 4.148438 
109.090317 3.927987 
109.111664 4.055202 
109.119774 3.661873 
109.122208 4.699894 
109.13681 4.08359 
109.146545 5.518557 
109.15033 3.738652 
109.153847 4.108277 
109.189011 4.363469 
109.281609 3.852525 
109.298401 4.785703 
109.311951 4.346485 
109.318733 4.391266 
109.346924 3.825572 
109.351532 3.901053 
109.362656 4.298543 
109.372147 7.892596 
109.392494 4.255462 
109.394127 4.029507 
109.394669 3.402263 
109.395477 4.607847 
109.419632 3.991948 
109.426147 3.936863 
109.440811 4.237608 
109.486977 3.832851 
109.494041 4.248573 
109.49649 4.194217 
109.522575 3.829812 
109.530731 4.395048 
109.533455 4.630037 
109.586754 4.254685 
109.605804 3.702984 
109.612877 3.852207 
109.62159 3.91542 
109.638191 3.879319 
109.647179 3.747606 
109.652893 4.023121 
109.68367 4.190238 
109.694298 4.135682 
109.696205 4.172872 
109.712555 4.062601 
109.719093 3.794214 
109.73381 4.116494 
109.740356 3.892671 
109.784531 4.077066 
109.807449 4.602616 
109.886086 3.784469 
109.932533 4.246988 
109.933907 3.865806 
109.94265 8.364149 
109.957687 3.805658 
109.960426 3.702978 
109.963432 4.100649 
109.985313 4.30052 
109.987228 3.655963 
109.991058 5.818205 
110.053177 4.003405 
110.098373 4.498122 
110.101654 5.076029 
110.129883 3.79188 
110.137833 4.205566 
110.147697 4.507817 
110.150986 3.990203 
110.167442 4.782563 
110.184715 4.01059 
110.214622 9.179814 
110.241516 7.749073 
110.243164 3.767711 
110.252769 4.490768 
110.280777 3.778399 
110.285721 4.3396 
110.287918 4.045944 
110.303307 4.087981 
110.321716 3.874395 
110.329132 4.170577 
110.40255 4.105363 
110.43116 4.315644 
110.474106 4.60435 
110.477409 4.86579 
110.47934 3.832973 
110.501923 3.965705 
110.507439 3.739594 
110.520111 3.7407 
110.525894 4.088061 
110.534714 3.805025 
110.539398 4.116726 
110.541878 4.614187 
110.549324 4.265019 
110.57634 4.243867 
110.593712 4.307692 
110.594269 4.631934 
110.595367 8.515465 
110.609436 3.916205 
110.620193 8.71445 
110.62516 3.79867 
110.631783 4.132373 
110.648621 3.507391 
110.658562 3.739815 
110.662971 4.828378 
110.669327 3.79702 
110.67485 4.171707 
110.694176 3.727037 
110.69722 3.918046 
110.701363 4.61549 
110.716827 3.861272 
110.764915 11.483418 
110.770721 3.727147 
110.785927 3.426115 
110.789528 4.303018 
110.812202 4.007446 
110.823822 3.963061 
110.837105 4.252305 
110.848175 3.982886 
110.862572 4.538481 
110.869766 4.247728 
110.873917 3.71416 
110.885269 3.808971 
110.890808 3.707904 
110.894135 4.188799 
110.902718 3.633198 
110.918228 4.400891 
110.936516 3.471272 
110.954529 4.269367 
110.956467 3.835789 
110.969772 4.029678 
110.970329 3.620169 
110.970886 3.800234 
110.972549 4.029207 
110.993622 4.340433 
111.005821 4.081183 
111.013031 3.904255 
111.01442 3.728397 
111.023849 4.192666 
111.036896 4.49308 
111.043274 4.368944 
111.047997 3.769262 
111.051598 4.619147 
111.063812 4.767424 
111.104073 3.963308 
111.114906 3.895919 
111.130463 4.058869 
111.135185 3.647843 
111.141296 3.868737 
111.154358 3.805735 
111.174095 3.561574 
111.181038 3.476987 
111.186325 5.186549 
111.188545 4.118318 
111.189941 3.695811 
111.219971 4.31499 
111.221367 3.766248 
111.235832 8.766283 
111.250298 4.064753 
111.258926 4.049806 
111.279526 4.233782 
111.303749 4.072255 
111.309593 3.888263 
111.320175 4.616521 
111.338005 3.723054 
111.342186 3.969213 
111.351662 4.101696 
111.358345 3.873605 
111.368935 3.674499 
111.392075 4.354158 
111.393745 3.821577 
111.471016 4.180964 
111.481903 7.289226 
111.489723 6.828992 
111.493073 4.049911 
111.496979 3.816132 
111.498375 3.640586 
111.502281 3.924581 
111.507591 4.226795 
111.520996 4.653744 
111.608742 3.64091 
111.636993 4.296069 
111.642303 4.997014 
111.647903 3.72707 
111.650696 3.994003 
111.670288 3.661791 
111.67952 7.647412 
111.71479 3.856122 
111.721512 4.023175 
111.725998 4.336001 
111.744759 3.58631 
111.752609 7.663386 
111.754288 3.930959 
111.766335 6.504421 
111.766891 3.953939 
111.815948 4.333863 
111.82296 8.352765 
111.848763 4.12133 
111.861946 3.988036 
111.884399 3.589293 
111.893379 5.020586 
111.93409 3.432919 
111.941391 4.103739 
111.950943 4.244231 
111.959648 5.834559 
111.989998 4.13989 
112.020073 4.156668 
112.033295 4.303331 
112.04229 3.782942 
112.049889 4.222517 
112.052414 4.052238 
112.062828 4.066794 
112.066765 3.731472 
112.071266 3.80864 
112.083366 4.207966 
112.096031 4.213937 
112.108696 3.887001 
112.11264 3.946988 
112.114326 4.536524 
112.137978 5.634282 
112.144173 4.051286 
112.177696 4.062821 
112.200806 4.818101 
112.203621 3.762944 
112.230118 4.845286 
112.230682 4.869878 
112.265938 4.043155 
112.267632 3.813135 
112.276375 3.660502 
112.288788 4.037749 
112.298103 4.210961 
112.314758 4.266213 
112.316452 4.027966 
112.339035 3.774835 
112.341858 3.936611 
112.355133 3.714658 
112.356827 4.356518 
112.367844 4.516574 
112.37886 4.054279 
112.383949 3.797905 
112.385925 4.302214 
112.387901 4.175025 
112.39666 4.721368 
112.408531 4.095863 
112.414185 3.633684 
112.419556 4.138499 
112.444717 3.981519 
112.452919 3.758755 
112.459137 4.015174 
112.533272 3.70942 
112.536385 3.800049 
112.538651 4.25579 
112.555923 3.91981 
112.57943 3.66357 
112.60125 3.816854 
112.617401 4.031952 
112.625908 3.68694 
112.627319 4.687404 
112.630157 3.737901 
112.6483 4.033631 
112.651421 12.104204 
112.655106 4.358688 
112.678642 4.061629 
112.683182 3.888075 
112.693398 4.11227 
112.72007 3.657642 
112.728302 3.87328 
112.74675 4.387236 
112.754417 4.507161 
112.760384 4.355022 
112.767761 3.818731 
112.80526 3.839803 
112.813499 3.90929 
112.827141 3.93216 
112.833107 4.19661 
112.834816 4.416396 
112.870918 3.799115 
112.873482 4.395383 
112.881729 4.202485 
112.915863 4.020229 
112.925827 3.674994 
112.931801 4.112712 
112.948311 3.913335 
112.967667 3.658719 
112.969666 6.987186 
112.975647 4.328628 
112.980484 3.960287 
112.992447 4.545132 
113.012672 3.797441 
113.015518 3.941738 
113.018944 3.965902 
113.024643 4.761502 
113.054283 4.843917 
113.064262 4.021612 
113.073952 4.032559 
113.08992 4.08379 
113.11731 3.92832 
113.135002 4.353091 
113.141846 5.027821 
113.144699 3.724531 
113.154404 3.672551 
113.192665 4.571667 
113.204948 4.395463 
113.212372 4.260068 
113.221519 4.613127 
113.248665 3.817756 
113.274101 4.181447 
113.280106 3.903755 
113.286682 3.674883 
113.29612 3.951658 
113.311279 4.159039 
113.318428 4.078407 
113.331306 4.101781 
113.342751 4.47846 
113.360497 4.160239 
113.367081 7.487204 
113.381104 4.041112 
113.38884 4.25358 
113.391411 4.211958 
113.39399 8.13095 
113.417763 4.039618 
113.432373 3.648553 
113.445839 4.249588 
113.457016 3.836721 
113.461311 3.760409 
113.475357 3.941245 
113.483963 3.675807 
113.49514 4.3163 
113.50489 4.431914 
113.512344 3.891762 
113.517509 3.923456 
113.53788 4.072891 
113.559685 3.6657 
113.567719 3.379391 
113.571449 4.125946 
113.590401 7.362712 
113.607056 7.327645 
113.625717 3.756908 
113.635483 3.921004 
113.641518 4.467952 
113.691238 4.015012 
113.70504 3.694489 
113.728043 4.370183 
113.753067 4.004833 
113.782997 3.694517 
113.784729 6.60122 
113.787895 4.622266 
113.78933 3.92923 
113.828201 4.103999 
113.829933 3.910516 
113.845772 4.366153 
113.853264 3.788433 
113.86248 4.314989 
113.873146 3.881401 
113.886978 4.450759 
113.903984 3.874164 
113.909462 4.669362 
113.920128 3.549608 
113.948685 4.143471 
113.972916 4.048802 
113.9758 4.426053 
113.989365 4.545783 
113.997444 3.736008 
114.00264 3.673341 
114.019096 3.67305 
114.026314 3.819593 
114.047974 6.55798 
114.076286 4.073459 
114.135544 3.813166 
114.164757 6.106113 
114.167358 3.767005 
114.193398 3.683486 
114.224083 4.291869 
114.245216 4.55802 
114.251297 3.907564 
114.269547 3.81246 
114.278526 4.115805 
114.286057 3.62616 
114.295334 3.849702 
114.297363 3.68949 
114.31591 3.867905 
114.320259 4.230279 
114.322578 4.251423 
114.339973 4.085427 
114.347511 3.650411 
114.35041 4.240094 
114.361717 4.111466 
114.38028 4.264718 
114.400589 8.458762 
114.408714 3.79202 
114.441521 3.847253 
114.446747 3.770876 
114.452843 4.011199 
114.469978 3.874846 
114.483047 3.888865 
114.485664 3.551754 
114.492928 3.74997 
114.496994 3.848035 
114.514717 8.07949 
114.530411 4.093077 
114.561516 4.590047 
114.585365 3.774553 
114.587982 4.746592 
114.598457 3.895146 
114.602242 4.157915 
114.604568 3.600285 
114.63105 3.732291 
114.636292 3.786421 
114.640656 5.005728 
114.662781 4.04587 
114.677338 3.89605 
114.678795 3.69433 
114.683167 4.20059 
114.698601 4.111882 
114.705597 4.485833 
114.76622 3.866422 
114.788376 3.51538 
114.788963 4.214585 
114.789543 4.290359 
114.81813 3.75405 
114.847023 4.043424 
114.865997 3.749168 
114.884102 4.632292 
114.885559 4.039302 
114.906593 3.516373 
114.908638 4.968365 
114.926163 3.884792 
114.931717 7.772022 
114.938728 3.806952 
114.992226 4.26301 
115.01767 4.372215 
115.07093 3.53901 
115.094353 3.722158 
115.103722 3.735934 
115.112213 4.108628 
115.125984 4.606278 
115.153519 3.719065 
115.165245 3.7792 
115.169937 3.430598 
115.176674 3.437465 
115.178726 4.165794 
115.19104 3.976094 
115.206879 7.69846 
115.268188 3.789578 
115.279633 4.135318 
115.289032 7.797289 
115.292259 4.071624 
115.297249 3.585468 
115.297836 3.768485 
115.298424 3.75304 
115.302826 3.982875 
115.31604 4.093625 
115.32074 4.548524 
115.362457 3.96901 
115.387138 4.268713 
115.420067 4.103365 
115.467133 3.744954 
115.477135 4.238827 
115.492149 3.888241 
115.508041 3.785671 
115.511871 3.70935 
115.533958 4.282425 
115.539551 4.066652 
115.541611 4.049187 
115.548683 4.060038 
115.553101 3.835605 
115.562233 4.555568 
115.58934 3.78796 
115.61528 3.792682 
115.62088 3.223254 
115.63002 3.685548 
115.631493 8.424581 
115.634445 7.295234 
115.636215 7.496726 
115.642113 4.351892 
115.650368 3.92557 
115.653908 3.953636 
115.681938 3.647422 
115.683708 5.141097 
115.724434 3.91976 
115.755737 3.913948 
115.776413 3.535157 
115.784981 3.793129 
115.789711 3.715971 
115.804192 4.088783 
115.812462 4.156478 
115.817192 3.402939 
115.847939 3.730212 
115.887871 6.200131 
115.890236 3.99314 
115.894974 3.933906 
115.907104 3.815998 
115.914207 3.913825 
115.922195 3.743848 
115.928116 3.816631 
115.934334 4.029735 
115.936111 3.930172 
115.937889 3.958347 
115.949432 3.946931 
115.956833 3.906578 
115.983192 3.717158 
115.98764 4.84508 
115.990005 3.528177 
115.998299 3.797475 
116.04068 4.149676 
116.084564 4.54162 
116.08931 3.80468 
116.101471 3.871005 
116.103256 3.91684 
116.13382 6.240619 
116.167366 4.039229 
116.170929 8.618216 
116.189041 4.237408 
116.210426 3.917537 
116.223503 3.647308 
116.230934 3.984625 
116.241631 3.782501 
116.25798 4.163036 
116.276413 3.881348 
116.280273 3.894355 
116.283844 4.740291 
116.292175 4.314556 
116.324593 3.905634 
116.348701 4.242901 
116.363579 6.109546 
116.371323 3.856998 
116.376678 3.569956 
116.390678 4.050998 
116.40229 3.992748 
116.413307 3.875838 
116.437737 3.788191 
116.44519 3.982113 
116.452042 4.347328 
116.481552 7.14517 
116.500038 3.994527 
116.514946 3.98602 
116.528076 4.157602 
116.556122 3.535577 
116.575516 4.13753 
116.598801 3.825926 
116.623589 3.616392 
116.626579 3.872024 
116.637329 3.99141 
116.687531 3.787093 
116.696205 3.911291 
116.70517 4.117322 
116.715034 4.073213 
116.726997 4.734706 
116.739861 3.723299 
116.748238 3.909368 
116.750031 3.73736 
116.756912 3.74033 
116.765289 4.133589 
116.782646 3.961519 
116.805992 3.836095 
116.809288 3.48012 
116.813782 3.628244 
116.826958 3.528257 
116.829048 4.531095 
116.832344 4.290656 
116.848518 4.862099 
116.873383 4.091784 
116.888367 4.077667 
116.908752 3.80016 
116.924042 8.371511 
116.959427 3.790356 
116.999634 4.570822 
117.001732 3.715907 
117.015839 3.848962 
117.026344 3.967469 
117.033554 3.926225 
117.06118 3.935855 
117.078606 3.735857 
117.099937 4.233841 
117.104744 4.688999 
117.114059 4.508849 
117.120071 3.844625 
117.132095 4.143155 
117.138412 3.76015 
117.159157 3.998528 
117.165474 3.626395 
117.202774 4.397005 
117.209999 4.211437 
117.215118 3.766792 
117.235283 3.596653 
117.250938 3.649519 
117.257858 3.776218 
117.285568 6.745371 
117.312683 3.711071 
117.325645 7.023046 
117.361214 4.280684 
117.364227 3.526787 
117.393181 3.886518 
117.415504 4.003531 
117.43663 4.267208 
117.446587 3.667527 
117.4487 4.214476 
117.464401 3.564409 
117.475571 4.912019 
117.508789 4.018397 
117.512413 3.878158 
117.523598 4.06012 
117.547165 4.096547 
117.552605 3.974378 
117.557442 3.821632 
117.564392 3.529035 
117.567116 4.240744 
117.57074 3.846117 
117.592514 3.755836 
117.616104 3.880554 
117.624268 3.880919 
117.63002 4.495894 
117.693886 4.467305 
117.711449 3.980967 
117.748711 3.659988 
117.763863 3.879241 
117.783257 3.805481 
117.805092 3.769024 
117.816307 3.85038 
117.817825 4.839738 
117.824493 4.152618 
117.845428 9.153363 
117.869095 3.769964 
117.871216 4.494473 
117.876076 4.165126 
117.879112 8.606585 
117.883057 6.118932 
117.885178 4.416166 
117.888519 4.752069 
117.893074 7.960169 
117.894897 6.25146 
117.897629 4.555233 
117.899147 10.327239 
117.903999 4.073692 
117.914024 6.095485 
117.922829 3.641944 
117.93103 3.866013 
117.948647 3.895293 
117.969002 4.259909 
117.984802 3.748617 
118.017632 5.43488 
118.022499 4.030472 
118.031616 4.354505 
118.041962 4.64508 
118.046524 3.92738 
118.066902 3.782193 
118.077248 3.579718 
118.111946 3.762897 
118.134781 3.631021 
118.158836 4.469303 
118.213074 3.600878 
118.213684 3.893096 
118.218864 3.602467 
118.222519 3.504853 
118.228012 3.701681 
118.243561 3.672324 
118.282295 5.118683 
118.290222 4.933908 
118.297852 4.348718 
118.303955 3.69067 
118.324402 3.86164 
118.332031 3.948257 
118.369896 3.603158 
118.374474 4.443167 
118.386391 4.559518 
118.405334 4.250328 
118.422752 3.749093 
118.444145 3.494778 
118.455765 4.325725 
118.494293 3.633584 
118.500412 3.687892 
118.54631 3.988158 
118.551208 3.71208 
118.556412 4.206187 
118.557945 4.240227 
118.58979 4.376185 
118.601738 4.086945 
118.606331 4.336742 
118.62471 3.984978 
118.643097 4.558425 
118.654434 3.647026 
118.659035 4.060151 
118.66394 5.872807 
118.666084 4.43198 
118.667923 3.919819 
118.687546 4.49711 
118.706253 4.106049 
118.711472 3.892666 
118.770386 3.946631 
118.790642 4.997572 
118.792793 3.922675 
118.825348 3.841114 
118.83149 3.540955 
118.841324 3.528525 
118.857605 4.467747 
118.875435 3.637132 
118.891724 3.944289 
118.952621 3.802156 
118.956924 3.87296 
118.973236 3.952228 
118.979698 3.90596 
118.98185 3.537579 
118.998474 5.349283 
119.020027 7.799627 
119.04805 3.559008 
119.15625 4.379223 
119.158096 4.704223 
119.175682 4.091479 
119.178764 3.895754 
119.214569 7.795055 
119.216423 4.045468 
119.218269 3.591841 
119.226913 4.773148 
119.250694 4.15349 
119.270767 3.608849 
119.289307 3.531917 
119.300735 3.986718 
119.307533 3.70771 
119.333496 7.856463 
119.340302 3.733601 
119.348343 3.693963 
119.381119 3.886296 
119.397827 4.505338 
119.411438 3.69327 
119.418869 3.853168 
119.438057 4.248456 
119.440536 3.4489 
119.466545 4.174285 
119.473663 3.695845 
119.495964 3.769297 
119.514557 3.940174 
119.526016 4.413574 
119.529739 4.025255 
119.534081 3.930681 
119.536247 3.682358 
119.542442 3.621225 
119.588951 3.757279 
119.594536 3.588569 
119.598564 3.381796 
119.601051 3.664089 
119.606941 3.99249 
119.618729 3.661397 
119.645729 4.38454 
119.647278 3.522461 
119.657837 3.30173 
119.664352 3.853379 
119.671181 3.920691 
119.677704 3.574811 
119.709686 3.718225 
119.71994 3.585299 
119.727081 4.788621 
119.744797 3.919037 
119.783333 4.024381 
119.788933 4.060482 
119.792664 5.044089 
119.796394 8.222066 
119.803238 6.101602 
119.814743 3.65837 
119.819717 3.838981 
119.821274 3.935789 
119.836205 6.984416 
119.853004 3.810391 
119.867012 4.336804 
119.88382 3.589151 
119.890976 4.286947 
119.895958 3.876417 
119.901878 4.418285 
119.942047 3.999083 
119.946411 4.136763 
120.013107 3.733955 
120.054276 4.160946 
120.061447 3.661012 
120.071747 3.760364 
120.097649 4.468581 
120.111694 3.915179 
120.113564 4.402153 
120.128555 4.058096 
120.145729 3.869017 
120.169777 8.303149 
120.175087 4.038987 
120.204147 3.555252 
120.259483 4.186884 
120.294525 5.155719 
120.315491 3.429792 
120.317993 4.072918 
120.320496 3.607257 
120.322372 4.009302 
120.329887 3.508633 
120.34053 3.91303 
120.345543 3.595201 
120.348358 3.64916 
120.382179 3.887868 
120.383743 4.046732 
120.444534 4.28406 
120.457077 4.111382 
120.458954 7.365023 
120.460838 4.408967 
120.490318 4.239133 
120.496902 3.936331 
120.502861 3.694106 
120.519493 3.792369 
120.547104 4.244479 
120.554642 7.266838 
120.557465 4.369509 
120.563744 4.141135 
120.585411 4.40745 
120.610535 5.12292 
120.627495 4.394137 
120.631897 3.534853 
120.647606 3.494651 
120.678726 4.318079 
120.683441 4.595525 
120.686905 3.673181 
120.706085 3.804653 
120.75547 8.522546 
120.760193 4.000311 
120.772781 4.255081 
120.791039 3.701195 
120.795448 4.746436 
120.831978 3.609239 
120.856865 4.100853 
120.865059 4.445718 
120.880814 4.339184 
120.886803 4.321164 
120.895317 4.462727 
120.937569 3.561244 
120.941986 3.651893 
120.959335 7.133617 
121.022453 3.928041 
121.04361 3.642614 
121.045509 3.759451 
121.056564 4.205048 
121.066673 4.054436 
121.069511 3.596411 
121.07962 3.790102 
121.092575 3.58056 
121.117233 3.620936 
121.17067 3.766043 
121.178894 4.461897 
121.191551 3.65152 
121.208 3.474609 
121.223824 4.73442 
121.227943 3.40315 
121.240288 4.373516 
121.245354 4.164347 
121.262451 4.119152 
121.322639 3.98957 
121.326447 7.901496 
121.328346 3.978859 
121.330566 4.259408 
121.332787 5.932272 
121.374313 4.113995 
121.374947 4.095423 
121.379387 3.97392 
121.397148 4.137344 
121.401276 3.914367 
121.406349 7.546485 
121.418724 4.32669 
121.423798 8.201736 
121.426971 3.63208 
121.443474 3.84582 
121.448868 4.738475 
121.455849 4.028468 
121.471092 3.924043 
121.483475 3.846831 
121.497444 3.578298 
121.502525 3.784327 
121.526985 7.307969 
121.544144 4.710431 
121.548592 5.002385 
121.592781 3.715005 
121.596596 3.987815 
121.617584 3.936795 
121.638901 8.008411 
121.657669 4.402126 
121.66626 4.213425 
121.688545 4.573979 
121.713379 4.17974 
121.715927 3.48346 
121.77932 3.639813 
121.791748 3.759845 
121.803543 3.716579 
121.817253 4.214221 
121.870842 3.527835 
121.875946 3.495618 
121.913284 4.438289 
121.925095 3.747031 
121.933083 6.562786 
121.980034 3.612516 
122.00016 4.251431 
122.016144 3.761945 
122.018059 3.779691 
122.019974 4.840888 
122.029564 4.132796 
122.030525 3.787541 
122.051308 3.834913 
122.058983 7.916654 
122.070816 3.376482 
122.103127 6.567915 
122.106644 3.706254 
122.114967 4.66617 
122.130005 4.460586 
122.135452 3.552657 
122.155296 4.238629 
122.168747 6.526764 
122.18988 4.205626 
122.205902 3.82273 
122.209106 4.216844 
122.236343 3.784025 
122.240829 5.288591 
122.249802 4.60986 
122.255257 4.325762 
122.272888 7.827275 
122.325165 4.957253 
122.332222 3.642516 
122.359505 3.749252 
122.362717 4.661002 
122.365921 3.636134 
122.370743 3.52809 
122.390327 3.664465 
122.422119 3.918567 
122.433365 4.697807 
122.441391 4.284922 
122.452965 4.123704 
122.473206 4.878938 
122.476425 3.964272 
122.485428 4.377939 
122.489922 3.591993 
122.510826 3.437793 
122.517578 3.806449 
122.530441 3.603299 
122.532372 3.689921 
122.534943 4.42568 
122.581276 3.833987 
122.588684 4.703735 
122.600594 3.669513 
122.613792 3.449617 
122.619591 3.55539 
122.635368 4.275862 
122.636337 4.038216 
122.640846 4.025894 
122.642776 3.724391 
122.649864 3.328295 
122.674995 4.235337 
122.699165 4.093976 
122.7127 4.345371 
122.734947 3.53421 
122.748489 3.840138 
122.756233 6.951705 
122.773331 3.972218 
122.785591 8.15863 
122.790108 5.222117 
122.794624 3.731323 
122.83432 3.802045 
122.84433 4.439789 
122.869843 3.697808 
122.880829 4.495627 
122.89827 3.955709 
122.995911 3.661905 
123.007553 3.736859 
123.011436 4.637365 
123.025993 3.739985 
123.030853 4.501995 
123.04509 3.988556 
123.067108 3.745902 
123.091713 4.049377 
123.12249 3.571057 
123.136742 3.94722 
123.150352 7.007023 
123.161377 3.602021 
123.167206 3.440628 
123.182449 3.925041 
123.201576 3.971064 
123.206764 3.609412 
123.210655 4.108429 
123.273277 3.621821 
123.28302 3.848298 
123.367462 4.100006 
123.378838 3.777088 
123.39801 4.139846 
123.401917 3.544516 
123.408737 3.968454 
123.439957 4.406473 
123.468582 3.84936 
123.476395 4.230094 
123.490707 3.724989 
123.51577 3.690061 
123.535309 3.857685 
123.627182 4.130706 
123.676094 3.462468 
123.692406 4.424742 
123.748535 4.097146 
123.760292 4.01789 
123.761925 3.966621 
123.768456 3.889535 
123.791641 4.154896 
123.793602 4.342229 
123.908981 3.650743 
123.945297 4.387295 
123.94857 4.093638 
123.969841 3.972272 
123.976067 3.978556 
123.983597 3.841945 
123.989159 3.880436 
124.001274 5.21423 
124.012405 4.470055 
124.032387 3.812576 
124.050079 4.063657 
124.06974 3.634725 
124.08744 4.042044 
124.140892 4.621552 
124.180588 4.001119 
124.192406 3.89151 
124.20488 7.094841 
124.263985 3.688251 
124.27877 6.504105 
124.300789 3.818759 
124.323135 3.639386 
124.328072 3.601149 
124.340233 5.913424 
124.402069 7.408863 
124.424118 7.287191 
124.425766 3.898526 
124.447495 3.753768 
124.450783 3.699871 
124.492935 3.240361 
124.503479 3.570113 
124.506775 3.924119 
124.510071 3.874311 
124.513695 3.932151 
124.550278 7.799967 
124.567749 4.515841 
124.573685 4.420043 
124.588196 5.303446 
124.59314 4.096656 
124.672005 4.369509 
124.684875 4.090781 
124.715919 4.524267 
124.741684 4.588633 
124.790596 3.898716 
124.795555 3.966853 
124.815399 4.42582 
124.838882 3.717242 
124.84053 4.073663 
124.847809 4.797963 
124.854424 3.981534 
124.867661 4.153898 
124.877922 4.293043 
124.887848 3.497255 
124.915657 3.509081 
124.977264 3.871799 
125.017029 3.688206 
125.01902 7.629735 
125.041237 3.625816 
125.045547 3.8622 
125.07473 3.952374 
125.086342 4.07417 
125.088661 4.065359 
125.102264 4.196299 
125.104591 3.930361 
125.140434 3.746178 
125.178291 8.050277 
125.179619 4.080437 
125.19091 3.659947 
125.199219 4.280623 
125.2052 3.600426 
125.218819 3.833474 
125.230782 4.243139 
125.23278 3.388442 
125.307259 3.600441 
125.334206 4.613989 
125.363831 3.80407 
125.44442 3.915593 
125.476082 3.921942 
125.480751 3.747604 
125.484413 4.50034 
125.510422 3.254411 
125.54744 4.331916 
125.583481 3.698921 
125.599167 4.045688 
125.692352 4.27063 
125.698364 3.616608 
125.71508 3.979275 
125.717415 3.867002 
125.720428 3.635601 
125.734467 3.938313 
125.74617 3.930822 
125.777946 3.301836 
125.786308 4.218341 
125.796013 3.631866 
125.815086 3.851451 
125.839851 3.749201 
125.863625 4.357499 
125.890419 3.82223 
125.903152 4.44763 
125.907173 3.918235 
125.910187 3.462027 
125.917557 3.795551 
125.929955 4.141793 
125.932968 3.76548 
125.947716 4.097959 
125.94973 3.447818 
125.975212 3.691369 
125.98259 5.351562 
125.98896 7.354049 
126.007072 4.152658 
126.015793 3.893478 
126.035255 3.670097 
126.05304 3.75971 
126.064117 3.941004 
126.09903 4.348565 
126.104736 3.924187 
126.107765 3.706611 
126.121872 5.128976 
126.128922 4.059086 
126.136986 3.874533 
126.157814 3.607089 
126.168236 4.30197 
126.211601 3.90649 
126.213951 4.02999 
126.231781 4.175941 
126.249603 3.626758 
126.253983 3.64015 
126.261383 4.469891 
126.265083 3.542684 
126.266762 3.969422 
126.275177 4.561748 
126.301094 4.135511 
126.303787 4.047405 
126.313881 3.572602 
126.323311 3.532292 
126.337456 3.589272 
126.368439 3.742172 
126.392365 3.906563 
126.400787 3.655715 
126.422699 3.64961 
126.468216 3.636329 
126.479347 3.432315 
126.48542 4.336992 
126.503639 3.705521 
126.523888 3.537569 
126.579933 4.135142 
126.581619 4.293521 
126.588371 4.331988 
126.605598 4.238821 
126.630608 4.404677 
126.635338 3.787814 
126.644798 3.544513 
126.685707 4.113275 
126.705322 5.809077 
126.777054 4.104617 
126.800751 4.550175 
126.811249 4.049947 
126.81498 4.079861 
126.875961 4.360244 
126.880707 3.903919 
126.890198 4.397656 
126.969551 4.135046 
126.979393 4.370499 
126.981766 4.675 
126.990593 3.771518 
126.997375 3.694566 
127.002129 4.105232 
127.032005 4.166875 
127.038795 3.543029 
127.058151 3.573652 
127.122025 4.113701 
127.124069 4.058081 
127.131546 3.810179 
127.149902 3.553092 
127.172005 3.744642 
127.202965 4.269242 
127.231209 3.699295 
127.239716 3.630149 
127.247887 4.05063 
127.301346 7.092525 
127.352455 6.413104 
127.410751 7.428203 
127.431557 4.036604 
127.483086 8.019843 
127.511421 3.912551 
127.518257 4.94979 
127.522011 4.499 
127.538406 4.100435 
127.546944 3.464802 
127.576324 4.081729 
127.581108 4.068602 
127.617683 3.98863 
127.634438 4.375952 
127.651878 4.775329 
127.673431 3.721324 
127.682671 3.924878 
127.691566 3.837971 
127.696701 7.321498 
127.706284 3.986413 
127.715866 3.953439 
127.731956 4.467051 
127.737434 3.902818 
127.750443 3.92326 
127.759346 3.33688 
127.787773 3.867477 
127.847748 4.309656 
127.863174 4.079641 
127.871407 4.363154 
127.874489 3.543009 
127.908104 3.670321 
127.916679 4.028727 
127.934181 3.680065 
127.962669 4.006338 
127.979828 4.487692 
127.994942 3.554442 
128.04509 4.534918 
128.092865 4.055466 
128.098373 3.903795 
128.133438 3.806505 
128.163712 4.330449 
128.178864 3.683848 
128.181274 3.603406 
128.208801 4.073295 
128.21431 4.589807 
128.255646 4.151991 
128.271835 3.383787 
128.274582 3.522101 
128.280792 3.576676 
128.289062 3.677897 
128.291809 4.431418 
128.3125 6.910405 
128.328354 4.025418 
128.335251 8.455674 
128.39801 3.620703 
128.404922 3.713511 
128.409058 3.409835 
128.425278 3.641146 
128.432877 3.764752 
128.443924 3.826892 
128.451172 6.408027 
128.453583 3.516399 
128.454971 4.696466 
128.581421 3.726567 
128.59491 3.882923 
128.624313 3.729334 
128.629501 3.931228 
128.631226 3.773336 
128.733002 4.295509 
128.744095 3.203643 
128.770081 3.559685 
128.777008 3.503304 
128.786713 3.633262 
128.80751 3.648207 
128.81929 4.342675 
128.838364 4.634066 
128.853622 4.428054 
128.871674 3.764399 
128.881378 4.043206 
128.896301 4.064817 
128.898727 4.497256 
128.908112 3.891006 
128.916443 4.097363 
128.973038 4.751904 
128.987274 3.86674 
129.016113 9.671966 
129.022018 8.319244 
129.024109 7.323828 
129.02655 13.433748 
129.035583 4.513873 
129.050873 4.752401 
129.053314 3.529335 
129.056091 4.454803 
129.058868 5.120107 
129.06514 6.587449 
129.067917 10.514693 
129.069656 22.757425 
129.072083 19.653915 
129.073822 6.080831 
129.075912 8.738465 
129.077652 6.437688 
129.08078 6.744238 
129.084259 3.561773 
129.087036 7.404526 
129.107224 3.798531 
129.153152 4.017341 
129.164291 3.902546 
129.203979 3.517134 
129.217911 7.174647 
129.249619 3.755961 
129.252411 6.878716 
129.262161 3.777327 
129.295288 6.068359 
129.309921 3.867178 
129.322128 3.598338 
129.348999 3.723147 
129.365036 3.36425 
129.386337 3.9591 
129.400635 3.729492 
129.407272 3.633509 
129.412155 3.370205 
129.433807 4.13161 
129.45546 3.619593 
129.462799 3.432182 
129.485153 3.886775 
129.502975 3.782499 
129.510315 3.970248 
129.535141 5.125367 
129.537231 3.741201 
129.563812 7.189836 
129.569061 3.801919 
129.701721 4.175388 
129.708374 3.984512 
129.724487 3.952191 
129.761642 3.851009 
129.776367 3.837462 
129.781982 4.153534 
129.791443 4.68715 
129.804062 3.990521 
129.819153 4.508235 
129.835632 3.622156 
129.868622 4.028264 
129.87915 4.337409 
129.89003 3.905978 
129.895309 7.958769 
129.908646 3.698756 
129.913208 3.708746 
129.951141 3.615455 
129.954651 3.743371 
129.957123 3.841643 
129.979248 4.094488 
129.981354 3.846659 
129.99437 4.089968 
130.015106 4.721098 
130.017914 3.861965 
130.022842 4.180976 
130.024597 4.270361 
130.088959 3.643143 
130.099869 3.643204 
130.113251 3.934285 
130.115356 3.657693 
130.132263 4.347025 
130.13472 3.807735 
130.147049 4.291518 
130.156555 4.59497 
130.161484 3.560777 
130.173813 5.403566 
130.193176 4.254211 
130.206573 3.740029 
130.218552 3.424614 
130.222076 3.960725 
130.222778 3.706781 
130.22348 3.60215 
130.231583 4.236448 
130.279541 4.05621 
130.28447 4.289901 
130.285889 4.13588 
130.339859 3.613317 
130.342331 4.147879 
130.347626 4.111275 
130.365616 4.367271 
130.378677 4.17284 
130.404465 3.719248 
130.410461 4.065012 
130.446487 3.958902 
130.448608 4.416985 
130.498444 4.183531 
130.52002 3.589652 
130.532394 4.544877 
130.54335 3.637877 
130.563522 3.957941 
130.578384 3.536869 
130.603516 4.111311 
130.630417 3.914311 
130.636429 3.636004 
130.641388 3.666166 
130.654846 3.832859 
130.657333 4.25546 
130.664764 3.544194 
130.725006 4.05267 
130.749466 3.613001 
130.757263 3.524679 
130.773575 3.811099 
130.789536 3.958809 
130.796982 4.111561 
130.81366 3.955523 
130.832474 4.436697 
130.842056 4.043345 
130.862289 4.110808 
130.868668 4.689043 
130.898849 4.193502 
130.904892 4.032312 
130.945755 3.473701 
130.94931 3.757502 
130.966003 3.961301 
130.972046 4.245684 
130.975952 3.54273 
130.991241 4.143013 
130.994797 4.380178 
131.005463 8.224294 
131.01329 3.79842 
131.018265 4.344083 
131.025742 6.392559 
131.037476 3.463624 
131.082672 3.990668 
131.10936 4.124496 
131.112213 4.177792 
131.131439 3.505419 
131.140701 4.379292 
131.147827 3.463014 
131.151382 4.850211 
131.158508 3.833026 
131.162064 3.826133 
131.16777 4.345976 
131.20697 3.717249 
131.234055 7.26061 
131.237976 3.584261 
131.250107 4.134698 
131.254028 4.999271 
131.281128 3.777097 
131.287201 4.422259 
131.3004 3.676052 
131.336441 3.798789 
131.343216 4.166917 
131.383575 3.858542 
131.391068 4.813919 
131.397141 4.031851 
131.398575 4.118279 
131.441803 4.170811 
131.48613 3.829891 
131.524399 11.145844 
131.536194 3.835557 
131.53978 3.658835 
131.55838 3.93394 
131.567688 4.473259 
131.569839 3.707614 
131.579498 3.381634 
131.586655 3.696291 
131.606705 3.650945 
131.618881 4.228664 
131.658997 4.58671 
131.666519 3.575564 
131.671539 3.846066 
131.694824 4.095637 
131.716339 4.149096 
131.734253 4.289732 
131.739639 4.410485 
131.742859 3.508355 
131.746445 4.912531 
131.776581 6.554317 
131.789139 3.520419 
131.834 3.938909 
131.905106 3.660144 
131.915527 4.048453 
131.918762 4.269168 
131.94104 4.001976 
131.943558 4.331665 
131.967636 4.430654 
131.989212 4.027493 
132.041367 4.456158 
132.04425 4.856066 
132.062958 3.839128 
132.09967 4.824274 
132.107956 3.663302 
132.148666 4.129597 
132.151901 3.644605 
132.20343 4.410864 
132.211365 3.964387 
132.221466 4.370781 
132.225784 4.206213 
132.227951 3.779721 
132.230118 7.706807 
132.247787 4.560885 
132.271957 3.525254 
132.273392 4.365601 
132.287109 4.354986 
132.300095 3.394996 
132.345215 3.960135 
132.358215 3.805153 
132.360382 4.416468 
132.400833 4.320288 
132.434082 4.066377 
132.448898 3.740192 
132.452515 9.412799 
132.473846 3.838051 
132.483978 3.745017 
132.486862 3.745476 
132.507843 4.606084 
132.536423 3.478128 
132.543671 3.844741 
132.55162 3.625444 
132.603027 4.449951 
132.616791 3.645403 
132.644318 3.607429 
132.649399 3.474868 
132.663528 3.682553 
132.689621 3.737651 
132.703751 3.808569 
132.715714 3.684322 
132.724792 4.191179 
132.739288 4.914327 
132.763229 3.731021 
132.77774 4.326228 
132.802414 3.93771 
132.815125 4.195972 
132.826019 3.740705 
132.873215 3.928844 
132.900467 3.796173 
132.904099 4.071001 
132.911011 4.111618 
132.91391 3.908238 
132.919357 3.776132 
132.956436 3.628894 
132.997528 3.629917 
133.048096 4.505209 
133.051743 4.133904 
133.059753 4.543064 
133.061203 3.828427 
133.069214 4.417891 
133.08815 4.108679 
133.099426 5.006894 
133.105255 4.048031 
133.146423 3.39979 
133.17157 4.184987 
133.175934 5.113097 
133.197083 4.039547 
133.207291 3.880639 
133.209839 5.172113 
133.259445 4.002653 
133.26564 3.733106 
133.284988 3.882209 
133.343384 3.828676 
133.347031 4.222646 
133.35434 3.687947 
133.36348 4.209768 
133.408401 3.775714 
133.417175 4.158319 
133.424484 4.503616 
133.432892 3.942166 
133.487732 4.380905 
133.491028 4.105956 
133.495056 3.82045 
133.504929 4.455965 
133.532364 3.710785 
133.533096 3.794373 
133.533829 3.277871 
133.537857 7.424317 
133.557983 3.964495 
133.57666 3.984994 
133.67337 4.239782 
133.688034 3.760398 
133.743027 4.205834 
133.790359 3.856933 
133.79953 3.71396 
133.802109 3.528836 
133.820465 4.518365 
133.860489 3.817499 
133.865997 3.627 
133.868927 4.327934 
133.879578 4.263659 
133.893539 4.255185 
133.900894 3.912219 
133.908981 4.465623 
133.911179 3.585028 
133.928818 4.273367 
133.944626 6.293425 
133.953079 3.71534 
133.956024 3.842417 
133.961548 4.039419 
133.973312 4.367075 
133.987289 3.750145 
134.0009 3.774085 
134.004211 3.891984 
134.030334 7.523372 
134.049835 5.516325 
134.055359 3.914453 
134.057556 3.686178 
134.063446 3.641742 
134.074127 3.755906 
134.078552 7.493458 
134.095108 3.581414 
134.105423 3.799402 
134.109482 4.796885 
134.133423 4.104798 
134.138947 8.405663 
134.145218 4.419474 
134.153687 3.604627 
134.16069 3.927952 
134.176529 5.00992 
134.180222 4.348083 
134.212662 3.99481 
134.283493 3.544252 
134.297134 3.680722 
134.309326 3.683449 
134.374313 4.112705 
134.383545 4.263138 
134.387238 4.083141 
134.410889 3.724594 
134.413849 3.891151 
134.461899 3.661553 
134.477798 3.963387 
134.482986 3.759939 
134.486679 3.860376 
134.501099 4.287844 
134.521454 4.43444 
134.541443 4.319871 
134.593262 7.4698 
134.633636 3.918959 
134.658081 4.158493 
134.668472 4.074365 
134.695526 3.591546 
134.740387 7.488565 
134.773041 6.887216 
134.778229 3.774245 
134.800125 3.96929 
134.803467 3.763295 
134.833542 4.190984 
134.840591 3.720463 
134.849869 3.73419 
134.85434 4.552189 
134.903732 4.30448 
134.905228 4.429371 
134.910797 4.025892 
134.91452 4.092261 
134.924545 4.198294 
134.930496 3.585512 
134.944992 9.186111 
134.953171 3.827579 
134.965073 4.053935 
134.97995 4.105867 
135.003754 5.011454 
135.047287 4.054514 
135.081909 4.248575 
135.088226 3.676868 
135.110947 5.560828 
135.12883 3.868774 
135.131439 3.691188 
135.195908 3.759484 
135.215286 4.250685 
135.218643 3.603486 
135.249603 8.077739 
135.269379 3.892301 
135.309677 4.515194 
135.317886 3.820308 
135.323486 4.271634 
135.356354 3.634441 
135.376144 3.614583 
135.381744 3.487541 
135.39296 4.084179 
135.446762 3.708084 
135.4505 6.858807 
135.468826 3.851278 
135.482285 4.615863 
135.503601 4.548677 
135.539154 4.468085 
135.561981 4.254739 
135.569473 4.064867 
135.58107 3.891151 
135.605042 4.151034 
135.638748 4.481096 
135.658234 3.715982 
135.660477 3.5239 
135.671341 3.891854 
135.718948 3.636713 
135.724945 6.800453 
135.754196 5.414407 
135.778595 4.493956 
135.788712 3.920826 
135.816498 3.879943 
135.821747 3.756662 
135.855164 3.800905 
135.881821 3.696501 
135.892715 3.716025 
135.91188 4.600532 
135.932922 3.749854 
135.972778 3.974818 
135.974655 4.105 
136.002869 3.501048 
136.016403 8.168213 
136.049515 4.016442 
136.15419 4.059453 
136.161728 3.504492 
136.162476 4.864177 
136.172653 4.658639 
136.194138 3.574135 
136.213364 3.886016 
136.219025 3.662861 
136.240891 3.742514 
136.244278 3.818845 
136.315964 3.730052 
136.332581 3.66516 
136.344284 3.833589 
136.366928 3.956334 
136.369949 4.116596 
136.372971 3.773945 
136.375626 3.653463 
136.396774 4.223486 
136.399796 4.01352 
136.409622 3.9988 
136.413025 6.5271 
136.451569 3.697356 
136.461014 4.85129 
136.480682 4.01036 
136.49353 3.946583 
136.532486 3.578783 
136.538162 4.085073 
136.543472 3.876683 
136.552917 4.118209 
136.571854 3.642659 
136.575256 3.677586 
136.578278 4.410011 
136.58812 4.278697 
136.593048 3.496435 
136.613495 3.905709 
136.628647 4.197999 
136.637344 4.027517 
136.655914 4.330257 
136.659698 3.591451 
136.73436 4.631027 
136.741577 3.805109 
136.744232 4.207112 
136.799225 3.32863 
136.820862 3.568263 
136.829208 3.8463 
136.847809 3.640072 
136.8573 3.89336 
136.866791 4.196723 
136.879318 4.08157 
136.881989 4.600803 
136.898315 4.140712 
136.913132 3.537135 
136.927185 4.375465 
136.943909 4.125048 
136.994095 5.019699 
137.002075 4.326058 
137.026031 3.982036 
137.052292 3.995873 
137.05838 3.764951 
137.060654 3.7562 
137.100235 3.612845 
137.128418 3.966393 
137.149368 3.873957 
137.187088 4.146352 
137.192795 4.661042 
137.195847 3.954314 
137.20195 3.915405 
137.212234 3.807215 
137.272476 3.765497 
137.314438 4.077972 
137.315201 3.663555 
137.315964 3.883927 
137.32283 4.392966 
137.331619 4.258106 
137.335434 4.954222 
137.350311 3.548504 
137.411804 7.099084 
137.423264 4.287513 
137.425934 4.292418 
137.429367 4.219488 
137.438919 4.089169 
137.473709 3.930521 
137.475998 3.877131 
137.487076 4.053991 
137.487839 4.052004 
137.488617 4.368826 
137.512695 3.755207 
137.520737 3.679667 
137.551331 4.365949 
137.568542 4.546002 
137.615631 4.079365 
137.652008 4.389989 
137.664642 4.601218 
137.679962 3.782161 
137.701813 4.3189 
137.707932 7.390859 
137.734772 3.740712 
137.74205 4.11091 
137.770813 3.681083 
137.779251 4.872661 
137.785004 4.405669 
137.853683 4.400532 
137.869034 3.752649 
137.87326 4.240913 
137.8936 4.305779 
137.895905 3.664166 
137.913574 4.161273 
137.927399 4.214409 
137.944687 4.106661 
137.951614 3.723633 
137.968903 3.659509 
138.045029 3.80659 
138.051178 3.848336 
138.055023 4.281274 
138.079269 3.724268 
138.080811 4.102939 
138.098511 3.827672 
138.10582 4.041067 
138.11853 4.347751 
138.124298 9.110697 
138.144318 3.876854 
138.1474 3.963433 
138.149704 3.783283 
138.158188 3.983698 
138.164337 6.007953 
138.176666 3.98959 
138.182449 4.600465 
138.194778 3.799712 
138.2229 4.20951 
138.308502 4.702522 
138.32663 4.700476 
138.354019 3.915091 
138.424683 4.161552 
138.432785 3.856026 
138.481857 3.926246 
138.493057 3.717875 
138.498474 3.729922 
138.509293 3.7453 
138.51973 3.484394 
138.529785 3.681765 
138.541 4.481213 
138.542938 4.115793 
138.578522 4.418899 
138.581619 4.543588 
138.59903 4.02373 
138.61412 4.499112 
138.625732 4.105213 
138.640823 3.629155 
138.660187 5.890974 
138.663666 7.409722 
138.679169 3.759394 
138.696594 3.935801 
138.722549 4.436234 
138.727203 3.834318 
138.738831 4.391614 
138.75975 3.900391 
138.790375 3.679666 
138.792313 3.963238 
138.797363 4.85 
138.807831 4.137751 
138.852051 4.04435 
138.862137 4.029418 
138.869125 4.703872 
138.883102 3.880661 
138.893188 4.599886 
138.935516 4.204382 
138.949112 3.908193 
138.959213 3.720654 
138.975143 3.708809 
138.978241 3.945908 
139.012436 3.70101 
139.015549 4.13007 
139.027222 4.632419 
139.071152 4.198718 
139.073883 4.150301 
139.093323 4.396357 
139.095657 4.095479 
139.108109 4.60694 
139.110443 3.870727 
139.112 4.2125 
139.115509 3.992839 
139.12796 3.65511 
139.132233 3.963019 
139.135345 3.933131 
139.150528 4.120579 
139.204269 4.704286 
139.217117 3.805552 
139.238541 3.92588 
139.262314 3.996281 
139.337952 3.829287 
139.385941 3.915291 
139.408966 4.156206 
139.448792 3.973402 
139.460907 3.95451 
139.485123 3.61923 
139.531235 3.893805 
139.609436 3.996166 
139.62117 3.898512 
139.658356 4.133849 
139.679886 4.076398 
139.706497 4.084344 
139.71669 4.112935 
139.721771 4.613454 
139.736664 3.637886 
139.739792 3.916141 
139.799362 4.175297 
139.801712 3.872245 
139.805237 4.076272 
139.822495 3.955213 
139.840134 4.302856 
139.843658 4.82118 
139.849548 5.193135 
139.860535 3.696753 
139.882889 3.728302 
139.890732 4.301944 
139.898193 4.948493 
139.905258 7.899439 
139.936661 3.895309 
139.937439 4.664412 
139.938232 4.73886 
139.96257 4.111927 
139.97435 4.206241 
139.982986 4.298231 
140.006165 4.048737 
140.036026 4.056933 
140.115051 4.154006 
140.166992 4.222486 
140.172501 4.054838 
140.190598 3.745222 
140.192566 3.661425 
140.206741 4.44917 
140.210281 4.292378 
140.213043 3.90713 
140.237457 3.983359 
140.248093 4.023426 
140.250854 4.238657 
140.25676 4.758318 
140.266205 4.573319 
140.270935 4.390865 
140.297333 3.820876 
140.301285 4.058741 
140.309952 4.202981 
140.31311 3.654212 
140.324142 4.591812 
140.335571 4.976264 
140.338333 3.720465 
140.350555 4.453235 
140.365936 4.077781 
140.369873 4.37594 
140.405777 4.24296 
140.42984 4.042641 
140.451553 3.992952 
140.457474 4.141673 
140.471298 3.705943 
140.477219 4.465991 
140.478394 4.053782 
140.494202 3.866277 
140.519073 3.902257 
140.529739 3.792704 
140.553452 4.253285 
140.601669 6.826953 
140.605621 4.078794 
140.614334 5.045136 
140.653488 3.587811 
140.660995 4.230093 
140.701355 3.881409 
140.707687 4.088619 
140.744904 3.851574 
140.785706 4.349788 
140.794815 3.76249 
140.797592 3.710775 
140.802734 3.826445 
140.820969 4.078595 
140.857437 5.040826 
140.867737 4.361053 
140.910965 4.038611 
140.936356 3.472112 
140.949448 3.839914 
140.963348 3.657592 
140.965729 3.775987 
140.968109 3.972156 
140.970886 3.631397 
140.976044 3.779435 
140.995895 3.492734 
141.00383 4.643447 
141.043945 4.174105 
141.07692 3.973897 
141.080505 3.653065 
141.116272 3.660318 
141.128601 3.603383 
141.225662 5.959051 
141.229645 3.85394 
141.252335 3.799776 
141.288574 3.702619 
141.302505 3.850444 
141.312073 3.725827 
141.318436 4.48897 
141.327606 4.631496 
141.330795 4.882798 
141.332382 3.940038 
141.370255 4.499246 
141.377823 4.631688 
141.386597 4.326519 
141.390976 4.312389 
141.404541 3.916246 
141.416901 3.707536 
141.427673 3.934686 
141.438843 4.320518 
141.477142 3.604676 
141.479141 4.096668 
141.496292 4.732831 
141.499496 6.845376 
141.502686 8.36639 
141.503479 8.273778 
141.506668 3.950837 
141.543411 4.567486 
141.548996 4.177383 
141.554184 4.173467 
141.564575 4.121267 
141.578156 4.273238 
141.631699 8.236531 
141.652496 3.871963 
141.68808 4.084555 
141.697678 4.148082 
141.706879 4.440674 
141.714081 4.05442 
141.725693 4.186793 
141.758102 3.629698 
141.778122 3.926206 
141.810547 3.541198 
141.87265 3.581572 
141.891479 5.036008 
141.896286 3.835409 
141.905518 3.620649 
141.908722 3.809348 
141.93277 3.873781 
141.959244 4.562681 
142.00177 8.140372 
142.015411 3.902074 
142.019028 3.51562 
142.033875 4.026268 
142.047531 3.657964 
142.104965 4.572277 
142.11702 3.972846 
142.142334 4.143191 
142.14595 3.752689 
142.149567 3.618644 
142.153976 3.888582 
142.160416 7.320107 
142.17569 4.10595 
142.1978 4.272661 
142.201019 4.161198 
142.223145 4.752606 
142.228378 3.66547 
142.231995 6.89087 
142.235214 7.12395 
142.238434 4.458461 
142.241241 3.800081 
142.246475 3.677986 
142.258148 3.599214 
142.26297 22.565025 
142.269409 18.074833 
142.272232 9.675759 
142.275848 13.695505 
142.279068 26.409744 
142.285507 10.625542 
142.289932 6.975754 
142.293564 9.585235 
142.295975 5.657608 
142.300812 11.861812 
142.304825 12.545585 
142.307648 8.01053 
142.311264 4.017633 
142.31369 4.750625 
142.318115 4.751983 
142.320129 4.486455 
142.321747 4.959756 
142.329391 4.658345 
142.330994 3.687517 
142.343491 3.822186 
142.357574 3.813254 
142.362015 3.976697 
142.371674 4.835512 
142.393845 4.220904 
142.406738 3.995574 
142.432526 4.490219 
142.447449 4.239064 
142.471237 3.573659 
142.540222 4.143958 
142.596741 8.652238 
142.615723 3.803652 
142.616531 3.815003 
142.61734 3.822662 
142.643188 4.047519 
142.677139 4.054564 
142.681992 4.261962 
142.710693 3.793609 
142.71312 4.266828 
142.727676 3.7777 
142.758408 4.530118 
142.762054 8.484562 
142.837723 4.710151 
142.871735 4.203394 
142.891174 3.738825 
142.893204 4.120848 
142.934128 3.601533 
142.947495 3.733536 
142.959656 3.966956 
143.01886 4.247098 
143.056183 3.963926 
143.076874 3.855424 
143.201553 3.702411 
143.220657 4.509301 
143.253586 4.292207 
143.333313 3.8124 
143.338608 4.133403 
143.363022 3.761549 
143.369537 4.278336 
143.389893 4.243093 
143.408218 3.633312 
143.517029 3.498625 
143.546387 3.576509 
143.636978 7.563531 
143.651672 8.601558 
143.653717 3.970401 
143.687607 3.808148 
143.700272 3.817168 
143.70314 3.917444 
143.706818 4.331108 
143.709259 3.926835 
143.742767 4.061328 
143.760757 3.41578 
143.772202 3.926858 
143.774658 4.783167 
143.787323 7.242761 
143.792236 3.516969 
143.798782 3.573645 
143.800827 5.112082 
143.814728 4.226791 
143.826996 4.663955 
143.855225 4.120818 
143.90802 4.643652 
143.910477 7.244523 
143.94693 6.410706 
143.972733 4.082646 
143.980927 4.322238 
144.001816 3.537306 
144.048965 3.626074 
144.058807 4.320188 
144.066177 4.972915 
144.101868 48.798634 
144.10556 4.08014 
144.113358 4.647202 
144.127304 3.654377 
144.216797 3.860703 
144.232407 3.869407 
144.233231 4.738305 
144.234055 4.749061 
144.249664 3.878093 
144.255829 4.492708 
144.261169 3.820909 
144.266098 3.897282 
144.272263 7.721655 
144.274719 4.019603 
144.303497 4.42698 
144.334335 4.701439 
144.345444 3.758744 
144.349136 4.281484 
144.40715 3.756733 
144.412903 4.010312 
144.419495 4.520241 
144.508026 4.111825 
144.510498 3.914463 
144.520798 5.079605 
144.554993 3.866248 
144.608597 4.507524 
144.622208 4.794596 
144.647781 3.784999 
144.664703 4.656639 
144.667999 6.995282 
144.688217 3.854688 
144.700195 4.374475 
144.715881 3.722484 
144.72702 3.856716 
144.741882 7.99126 
144.750565 4.152532 
144.757996 4.415366 
144.761307 3.755892 
144.776993 6.050059 
144.784851 3.824108 
144.805923 3.904229 
144.812943 4.299596 
144.816666 5.153555 
144.818314 6.221498 
144.821625 4.919987 
144.825348 4.061735 
144.830719 4.553221 
144.841461 3.934746 
144.856354 3.968462 
144.860062 7.768505 
144.864197 7.121128 
144.89357 4.115585 
144.904739 3.878155 
144.933273 6.503514 
144.978806 4.106456 
144.983368 4.90683 
144.984192 4.441638 
145.018967 4.145414 
145.079041 8.235477 
145.117172 3.735104 
145.128784 4.062776 
145.173157 4.077548 
145.209259 4.047724 
145.214645 3.969651 
145.264038 4.442784 
145.268616 3.985528 
145.301422 4.243773 
145.330917 4.397396 
145.332993 4.001896 
145.344208 3.984462 
145.356262 4.802385 
145.37912 4.611178 
145.449814 3.874676 
145.473526 4.203074 
145.484344 4.049468 
145.509735 4.366947 
145.525131 3.90789 
145.533051 3.702175 
145.549286 3.990533 
145.557205 4.454044 
145.590515 3.580585 
145.6026 4.184836 
145.620529 4.161728 
145.633865 4.693427 
145.652191 4.512353 
145.691391 3.813887 
145.698898 4.043162 
145.70224 4.452725 
145.727264 4.091467 
145.728104 4.301139 
145.728928 3.789119 
145.742706 5.121747 
145.790695 3.822677 
145.835373 3.807304 
145.840805 5.051446 
145.846649 4.463592 
145.868378 3.656716 
145.879242 4.041478 
145.892197 8.291483 
145.901382 4.003441 
145.943192 4.02622 
145.958237 3.967808 
145.961594 4.199527 
145.971619 4.672416 
145.977478 4.106937 
146.01178 3.737838 
146.012619 4.780019 
146.013458 4.88099 
146.023087 4.523096 
146.028946 4.068996 
146.045685 4.682778 
146.070801 3.981286 
146.091309 4.14719 
146.094666 3.779838 
146.105972 3.687817 
146.169235 3.659224 
146.178452 4.758523 
146.199417 3.973762 
146.202347 3.816519 
146.208633 3.563154 
146.217438 3.873282 
146.222046 4.011271 
146.225403 4.153606 
146.243851 4.011632 
146.254349 4.878806 
146.266083 3.828439 
146.270706 3.989422 
146.344574 3.908193 
146.358429 4.186174 
146.376907 4.54493 
146.404617 4.061588 
146.479004 4.256961 
146.532837 3.95049 
146.536209 3.63985 
146.552185 3.970818 
146.555557 3.906518 
146.649841 4.062826 
146.694077 3.768934 
146.700394 4.535222 
146.702927 3.914924 
146.707977 4.271429 
146.735382 4.690337 
146.753922 3.891101 
146.757721 4.209953 
146.764465 3.915884 
146.812119 4.829031 
146.847565 6.725615 
146.854324 3.444368 
146.856003 4.149318 
146.883865 3.776088 
146.903717 4.127966 
146.917221 4.302793 
146.926941 5.856091 
146.937912 4.008676 
146.965378 4.075409 
146.995377 3.655067 
147.028351 3.916669 
147.052032 4.352612 
147.065994 3.86686 
147.108719 7.590296 
147.113373 4.218943 
147.118454 4.44404 
147.127762 4.092117 
147.129456 3.75232 
147.133682 3.739841 
147.174316 4.140031 
147.195923 5.302542 
147.203537 4.596867 
147.212021 3.874477 
147.215408 5.659559 
147.22049 11.07786 
147.224716 4.692979 
147.22641 4.758818 
147.230652 3.777306 
147.32518 4.338203 
147.355713 4.217722 
147.405777 4.35945 
147.425308 3.813229 
147.442291 4.365585 
147.459702 4.179552 
147.51236 3.765303 
147.521713 3.798563 
147.535309 4.903222 
147.568039 3.733787 
147.608429 5.010031 
147.622894 4.251588 
147.652252 5.405056 
147.656082 4.575409 
147.662888 3.954082 
147.677353 3.555771 
147.699493 3.67473 
147.730988 3.759362 
147.740356 4.286618 
147.743347 4.107914 
147.775284 7.552894 
147.829407 4.277942 
147.834091 3.684487 
147.846039 3.91815 
147.84816 4.048316 
147.853714 3.927657 
147.869476 3.63983 
147.880142 3.551551 
147.906586 4.760087 
147.92067 3.791333 
147.959503 4.622158 
148.009872 4.022906 
148.015427 3.396984 
148.034225 3.986921 
148.041046 3.829723 
148.064117 4.863446 
148.074371 3.970705 
148.097458 5.266026 
148.114975 3.793612 
148.127808 4.651212 
148.159027 3.81581 
148.1633 3.750767 
148.164154 3.568358 
148.165009 3.955926 
148.179123 4.443256 
148.266418 4.630724 
148.273697 4.181384 
148.316956 3.531887 
148.330658 4.259568 
148.36795 4.312993 
148.393234 4.836748 
148.416809 4.019891 
148.430542 8.653221 
148.451553 4.286105 
148.454987 4.449813 
148.469574 7.428496 
148.480301 3.964352 
148.495743 3.74466 
148.503464 3.860535 
148.51506 3.814802 
148.561417 4.704179 
148.587616 4.021123 
148.59964 4.140343 
148.603516 3.934162 
148.616409 3.832888 
148.629715 3.819762 
148.679153 11.230631 
148.700226 4.233783 
148.702805 4.254628 
148.709244 3.921869 
148.720428 4.787009 
148.742371 4.280446 
148.758713 4.10045 
148.776794 4.719328 
148.820267 4.277566 
148.824997 3.903437 
148.849121 4.29158 
148.871948 3.836974 
148.884445 5.016797 
148.887878 4.45397 
148.909866 3.818801 
148.956406 4.150171 
148.960297 3.963545 
148.968491 4.146942 
148.997375 3.90087 
149.016357 3.909884 
149.040955 4.357221 
149.099213 4.44022 
149.141541 4.279227 
149.14888 4.025378 
149.171341 4.3324 
149.178253 4.492587 
149.183868 4.053161 
149.207642 3.804912 
149.233582 4.014787 
149.236603 4.251985 
149.256927 4.180487 
149.257797 4.706933 
149.258667 4.491911 
149.265579 3.820536 
149.280289 6.712928 
149.281586 5.40662 
149.290665 4.378268 
149.332642 7.50211 
149.340851 3.69266 
149.346924 3.749299 
149.361206 3.965211 
149.374191 4.032928 
149.413162 3.778932 
149.417053 4.389682 
149.419662 3.985221 
149.425293 4.201357 
149.50589 3.729438 
149.521072 4.294888 
149.526276 4.832835 
149.565308 3.760757 
149.569199 3.581858 
149.576141 4.184366 
149.58049 3.683116 
149.593933 3.725717 
149.606522 4.528499 
149.608688 3.608535 
149.636459 3.889948 
149.637329 4.579312 
149.638199 4.490976 
149.685089 3.746994 
149.688568 3.616571 
149.737228 3.601364 
149.746353 3.604052 
149.785461 3.954234 
149.788513 4.360651 
149.794159 4.144223 
149.807205 3.838749 
149.817215 3.783221 
149.829391 4.247639 
149.856354 4.052576 
149.859833 3.665604 
149.87941 3.739859 
149.883331 3.953454 
149.888123 4.411592 
149.892471 3.9116 
149.93425 3.949474 
149.961258 3.918611 
149.969101 4.108215 
149.977798 4.970304 
149.983032 3.618098 
149.988266 3.652352 
150.026596 6.485122 
150.034882 3.74388 
150.045776 3.972951 
150.050568 4.170545 
150.054062 4.341403 
150.113358 4.15715 
150.17662 4.217244 
150.211105 4.46475 
150.218094 4.312953 
150.225952 3.852793 
150.230316 3.811265 
150.256088 5.640106 
150.294525 4.464971 
150.299332 4.549915 
150.315948 7.743741 
150.335617 3.778853 
150.347412 4.720288 
150.396393 4.363348 
150.420013 4.594131 
150.428329 8.269404 
150.452835 4.575014 
150.458954 4.395817 
150.473846 3.917818 
150.477341 4.157663 
150.510178 4.517091 
150.52858 4.20956 
150.531204 3.885442 
150.547409 3.444258 
150.564499 4.161772 
150.567566 4.768899 
150.588593 4.295953 
150.601746 4.313792 
150.60437 4.142942 
150.612701 3.922182 
150.658295 3.697178 
150.67804 4.061576 
150.715317 4.01707 
150.719711 4.922961 
150.72937 4.220885 
150.733749 3.994406 
150.749557 3.623799 
150.760086 4.561974 
150.783356 4.292521 
150.804001 4.054551 
150.81366 4.753905 
150.83606 3.743773 
150.841339 3.844322 
150.850113 4.536333 
150.85408 4.463225 
150.896271 4.100495 
150.924835 4.830067 
151.014145 7.909322 
151.043198 4.322711 
151.047592 3.852609 
151.075775 4.505154 
151.151993 3.841848 
151.173584 4.357262 
151.204437 4.03441 
151.21106 4.520853 
151.273254 4.104026 
151.312973 3.953883 
151.326645 3.871827 
151.398193 3.850856 
151.410126 4.692809 
151.443268 3.780777 
151.44989 3.679107 
151.45874 3.867665 
151.464478 5.342618 
151.489243 3.589425 
151.50029 4.959326 
151.553818 3.771648 
151.604706 4.181225 
151.645889 4.179976 
151.654755 3.665647 
151.657852 4.34794 
151.669815 4.29585 
151.701263 3.867258 
151.706573 5.074625 
151.777512 4.305948 
151.813431 4.045048 
151.820084 3.965678 
151.852921 4.262687 
151.895081 3.854895 
151.913727 3.873376 
151.944824 3.989674 
151.965698 4.126849 
151.969696 4.064675 
151.979019 3.69556 
151.982132 4.900524 
151.999908 4.612543 
152.006134 4.100295 
152.028351 3.977315 
152.04747 3.807478 
152.063477 4.517063 
152.113739 4.107934 
152.170258 4.305604 
152.177826 4.233041 
152.189407 3.61762 
152.194305 4.08685 
152.19519 4.302829 
152.196533 4.232246 
152.239731 4.365965 
152.241959 4.537322 
152.26825 4.45576 
152.298553 4.128627 
152.333313 5.345935 
152.337326 7.874256 
152.341797 4.000383 
152.344025 3.930213 
152.352493 4.09334 
152.362747 5.083483 
152.369003 3.681428 
152.3797 3.768278 
152.384155 8.856829 
152.400223 4.215266 
152.425217 4.244324 
152.427444 5.07912 
152.432358 9.79034 
152.443069 3.816444 
152.449753 4.165119 
152.450653 4.678029 
152.451538 3.890296 
152.484131 3.782884 
152.492172 3.975248 
152.528793 4.448363 
152.532379 4.156489 
152.552032 4.036911 
152.583771 4.415618 
152.635178 4.002065 
152.662018 4.049507 
152.695572 4.41222 
152.6996 3.93843 
152.731369 3.999918 
152.755096 4.047246 
152.773453 4.002374 
152.779282 4.399489 
152.797638 3.982072 
152.826309 8.167405 
152.839752 3.856776 
152.874268 4.007536 
152.906097 4.534297 
152.909683 3.962075 
152.942871 4.564337 
152.997162 3.881896 
152.999405 4.352334 
153.014206 4.694069 
153.017807 4.167765 
153.023193 4.113019 
153.031265 4.225789 
153.034409 3.941017 
153.055969 3.859035 
153.05687 3.556509 
153.057755 4.247825 
153.062256 4.509474 
153.073486 4.600125 
153.077972 3.95623 
153.101776 3.948228 
153.123352 4.309636 
153.167847 4.047641 
153.179977 4.100127 
153.211456 4.060546 
153.2155 3.98885 
153.275787 3.824959 
153.294693 4.060457 
153.332062 3.889586 
153.389252 3.680617 
153.39151 4.063247 
153.398712 4.128154 
153.40773 3.968709 
153.424408 3.623891 
153.428009 4.89119 
153.448746 3.633208 
153.451447 4.026443 
153.457748 4.115856 
153.460464 4.064857 
153.467224 4.034103 
153.476242 4.126629 
153.487061 3.609972 
153.518631 3.749612 
153.577744 3.678421 
153.584961 7.70492 
153.657211 3.702816 
153.672577 3.795972 
153.679352 4.15408 
153.686127 4.548204 
153.706451 6.526348 
153.730408 3.999963 
153.73584 4.230379 
153.771561 5.02243 
153.78331 4.143874 
153.805023 3.595924 
153.865204 4.581225 
153.899612 4.960462 
153.901871 3.620741 
153.911835 4.207938 
153.920883 4.069074 
153.935379 3.987571 
153.938095 4.369186 
153.968002 4.144047 
153.97525 3.864757 
154.022842 4.023321 
154.043686 4.010799 
154.04686 4.108632 
154.085861 4.26816 
154.113541 4.605393 
154.144394 4.114583 
154.186615 3.748295 
154.191147 4.210703 
154.278366 8.084576 
154.33609 4.605378 
154.343369 3.678277 
154.397491 3.849455 
154.450287 4.454458 
154.464859 4.401958 
154.50174 4.230269 
154.506744 3.779953 
154.538177 3.768662 
154.583755 4.43007 
154.601974 4.558421 
154.606079 4.814092 
154.629333 4.308386 
154.661255 4.006303 
154.706879 3.908065 
154.741119 4.711823 
154.814636 3.740096 
154.925705 4.087685 
154.946274 3.978175 
154.987915 4.588398 
155.002563 4.197038 
155.013077 4.524551 
155.029556 5.781173 
155.07489 4.181306 
155.080841 3.879977 
155.091827 3.524261 
155.140396 5.278795 
155.203201 4.702818 
155.213745 4.090087 
155.230255 4.093419 
155.237137 4.157189 
155.239426 4.11581 
155.26236 3.80806 
155.280716 4.184343 
155.291275 4.158616 
155.308258 3.684785 
155.311462 4.268714 
155.39183 4.57307 
155.414795 4.616126 
155.462128 3.998259 
155.46489 3.903476 
155.478683 4.23946 
155.495697 4.840903 
155.508575 3.930492 
155.517776 4.123113 
155.530655 4.20772 
155.542603 3.903555 
155.594604 4.804714 
155.619461 4.36184 
155.635117 3.961026 
155.650314 3.837197 
155.654922 3.944195 
155.664597 4.053964 
155.682556 3.983902 
155.741531 4.28323 
155.765045 7.09404 
155.773804 3.899903 
155.780258 3.777256 
155.790405 4.147559 
155.803772 3.934801 
155.87114 4.88761 
155.894211 3.706605 
155.918686 9.006708 
155.925598 3.820247 
155.950073 4.65155 
155.96347 3.993237 
155.974106 4.366315 
155.979645 4.190301 
155.984268 4.752683 
156.004135 3.816761 
156.010132 4.606627 
156.03833 4.58542 
156.097046 3.807354 
156.099365 4.478257 
156.11879 4.081644 
156.121567 4.026715 
156.125275 3.949679 
156.148407 4.248332 
156.18959 3.958468 
156.210892 4.336064 
156.252563 4.092573 
156.271103 4.269361 
156.275269 3.906626 
156.284988 4.318959 
156.291016 4.051189 
156.29982 8.782911 
156.30307 3.681921 
156.310013 4.91958 
156.335968 3.794158 
156.339218 4.639554 
156.353134 3.59624 
156.361938 4.614507 
156.369354 4.103511 
156.403214 3.550364 
156.412949 7.04934 
156.449142 4.8319 
156.451462 4.137759 
156.515533 4.365346 
156.516449 4.740951 
156.51738 4.046555 
156.522491 3.981374 
156.524811 4.214311 
156.534561 3.769893 
156.579163 3.892405 
156.588928 4.520648 
156.600998 4.794176 
156.601929 4.19249 
156.60611 4.210575 
156.620987 3.672787 
156.634476 3.986339 
156.662369 4.104906 
156.673996 4.598189 
156.691208 6.27647 
156.713074 4.562848 
156.715851 8.571726 
156.724701 4.28266 
156.729813 6.313818 
156.737732 7.935159 
156.743317 4.20968 
156.757736 4.452375 
156.762863 6.752395 
156.770309 4.332686 
156.779617 6.103785 
156.78334 5.505668 
156.785675 4.126883 
156.786606 5.310406 
156.787537 4.937528 
156.79451 6.445131 
156.80011 4.741645 
156.802429 7.706195 
156.806625 4.41254 
156.809875 7.95839 
156.817337 4.151988 
156.829437 8.132887 
156.832703 4.212989 
156.846207 8.615746 
156.84761 11.681907 
156.853195 4.183068 
156.857391 4.779653 
156.869034 32.075329 
156.872772 24.058321 
156.875565 30.740789 
156.881622 23.03907 
156.884888 43.921329 
156.887207 14.877338 
156.891403 27.66626 
156.896072 43.73542 
156.899323 47.323338 
156.901657 26.004681 
156.902588 28.671057 
156.90538 36.137344 
156.909119 48.009441 
156.912384 37.920692 
156.914703 41.856113 
156.917511 35.613441 
156.920776 52.796722 
156.921707 56.925262 
156.927292 70.778442 
156.93103 66.22123 
156.934753 94.348946 
156.93988 123.122299 
156.94455 690.191162 
156.952469 4.44408 
156.954346 4.196755 
156.957138 4.366213 
156.97673 3.888599 
157.066788 4.716808 
157.072388 4.870885 
157.085922 4.800488 
157.087784 4.577216 
157.12468 4.309169 
157.127487 4.532114 
157.155518 3.928169 
157.191498 4.820277 
157.225143 3.86559 
157.25882 4.660356 
157.270981 4.008849 
157.280334 4.505165 
157.29718 4.175744 
157.30513 7.790761 
157.327118 5.032136 
157.347244 4.222145 
157.372986 4.507918 
157.44278 4.021671 
157.460114 3.912537 
157.468552 3.789095 
157.48494 4.026685 
157.491516 4.458058 
157.502289 4.589921 
157.510254 3.97591 
157.559967 5.101568 
157.562302 3.8958 
157.576843 4.226737 
157.583878 3.954914 
157.607346 4.10316 
157.62471 3.716048 
157.675873 3.951918 
157.694656 4.719156 
157.809769 4.220952 
157.863388 4.838352 
157.868088 4.197964 
157.887375 8.410359 
157.962204 5.123228 
157.969742 8.435139 
158.00412 3.959413 
158.050293 3.570365 
158.07103 3.728348 
158.164383 8.705712 
158.199295 4.064246 
158.227142 3.671508 
158.26207 4.162952 
158.279541 3.799645 
158.306458 3.650398 
158.32489 3.83119 
158.333862 3.919288 
158.33812 8.271251 
158.383011 4.40222 
158.404755 4.671513 
158.410904 4.857887 
158.425095 4.306212 
158.458191 3.867819 
158.503616 4.357878 
158.517349 4.101714 
158.562317 4.079579 
158.632416 6.82677 
158.653275 4.55141 
158.67981 3.937186 
158.694977 4.589388 
158.726746 4.813752 
158.763748 4.132888 
158.767059 4.372827 
158.784622 4.573927 
158.800751 4.198794 
158.848221 4.107138 
158.854401 4.28236 
158.941788 3.843829 
159.01976 6.944408 
159.04686 3.699468 
159.074463 7.898979 
159.131561 3.735276 
159.137283 4.262504 
159.196335 4.148678 
159.199661 4.026946 
159.202042 4.139993 
159.219193 4.378585 
159.27066 4.056765 
159.278778 4.766178 
159.28067 4.113132 
159.285446 11.39824 
159.289734 5.231763 
159.292114 14.055966 
159.297363 4.372783 
159.301651 9.308953 
159.30452 4.350366 
159.314529 5.026076 
159.317871 10.238699 
159.318817 10.476476 
159.324066 7.139482 
159.3255 6.646862 
159.329788 5.684801 
159.333603 27.303104 
159.337906 17.048153 
159.345535 38.909687 
159.348877 24.313515 
159.35173 13.88196 
159.367004 5.569022 
159.376068 3.988878 
159.392761 4.181109 
159.419022 4.179907 
159.452438 3.950982 
159.460556 4.060673 
159.500198 4.399032 
159.527908 4.25017 
159.530777 4.394741 
159.543198 4.193501 
159.561844 7.335736 
159.569 4.835549 
159.621597 4.37435 
159.627823 4.682808 
159.644562 4.355879 
159.65509 3.719113 
159.669922 4.095474 
159.686188 3.81798 
159.710114 4.163918 
159.716339 3.916665 
159.723038 3.725141 
159.734055 4.593074 
159.737396 4.949194 
159.789124 4.210315 
159.856689 5.632391 
159.873932 3.818832 
159.88736 3.948483 
159.895508 4.645842 
159.916138 3.983273 
159.954987 3.679351 
159.9785 4.225798 
159.990021 6.664033 
159.991455 6.867677 
160.00441 3.972965 
160.020737 4.023763 
160.03273 4.662337 
160.053864 4.082465 
160.082672 5.39364 
160.111023 4.509863 
160.153305 4.124671 
160.236008 4.148911 
160.254288 3.868126 
160.256699 4.128663 
160.271606 4.71638 
160.274979 4.437713 
160.291824 4.559893 
160.360184 3.895946 
160.375107 3.704904 
160.478714 5.791986 
160.485947 4.038249 
160.531281 4.462649 
160.606552 3.956042 
160.628754 5.625354 
160.633102 4.397666 
160.676086 3.854937 
160.684296 4.568961 
160.692017 4.279723 
160.714722 4.502192 
160.723419 5.506757 
160.730194 4.463687 
160.777557 6.110557 
160.783844 4.118837 
160.804642 3.811768 
160.819138 4.508193 
160.845749 4.376803 
160.849625 4.839826 
160.971115 3.96525 
160.975952 3.915407 
160.991455 4.031914 
160.992432 3.529142 
160.993393 4.111515 
160.995819 3.961905 
161.026825 4.022651 
161.071411 4.292153 
161.121368 4.257946 
161.137375 4.336543 
161.159683 4.549383 
161.183456 3.923782 
161.223755 5.127649 
161.250931 3.925308 
161.255798 4.524121 
161.276672 4.216001 
161.284454 4.47289 
161.318939 4.223022 
161.331573 4.525561 
161.357819 4.707171 
161.383591 4.413291 
161.391357 4.843987 
161.402069 5.285372 
161.420547 3.817036 
161.422974 3.805952 
161.451675 4.803868 
161.469193 4.055122 
161.480865 3.84574 
161.493042 3.769302 
161.50325 4.426108 
161.507156 3.550472 
161.519806 4.114708 
161.563141 4.560174 
161.577271 4.461148 
161.579697 3.836696 
161.583603 4.997764 
161.592361 3.938365 
161.619156 4.133556 
161.624039 4.717676 
161.656693 4.529754 
161.666428 3.887087 
161.669357 3.886803 
161.70787 3.975593 
161.717148 3.960205 
161.743973 4.266884 
161.749817 3.936553 
161.772263 4.241464 
161.783005 4.873035 
161.79422 4.038055 
161.806427 4.699003 
161.808868 3.953751 
161.816193 4.401905 
161.82254 4.004688 
161.847931 3.963258 
161.853302 4.357208 
161.972031 4.772542 
161.987183 5.711481 
161.998917 4.877143 
162.028748 3.979417 
162.081085 4.072662 
162.103119 4.473491 
162.134445 4.070373 
162.174103 4.117275 
162.212814 5.757513 
162.247116 4.45588 
162.306427 3.908165 
162.311829 5.331634 
162.31575 3.722253 
162.354004 3.935937 
162.358902 4.213096 
162.377548 3.949987 
162.382462 4.018836 
162.399139 4.298823 
162.407974 4.330235 
162.429581 3.999901 
162.464935 4.026668 
162.470337 4.450813 
162.490967 4.188641 
162.518478 6.35131 
162.536652 6.919417 
162.545502 4.26343 
162.552872 3.933771 
162.574493 3.947858 
162.619736 4.454503 
162.633499 4.279008 
162.657608 4.065224 
162.662521 3.810458 
162.695496 3.781433 
162.720596 3.753413 
162.728973 4.218089 
162.756531 4.259736 
162.768356 3.831608 
162.770813 4.364192 
162.789047 7.661945 
162.802338 5.149285 
162.805298 4.552029 
162.818604 4.18 
162.839783 3.674081 
162.842255 3.716932 
162.879211 4.22017 
162.916687 4.892128 
162.958618 4.254554 
162.963058 3.838142 
162.967499 3.771523 
162.970947 4.287525 
163.00499 4.07549 
163.041031 4.282995 
163.064728 4.573393 
163.080048 3.901827 
163.087936 4.905443 
163.098816 4.196483 
163.122528 4.455418 
163.146729 5.383369 
163.178864 4.083932 
163.184799 3.671275 
163.185776 3.920612 
163.186768 4.23859 
163.191711 3.723783 
163.240662 4.421251 
163.28421 4.149499 
163.315872 4.378689 
163.318344 4.468967 
163.360428 4.156441 
163.3629 3.793993 
163.401535 3.897824 
163.403519 4.245073 
163.415894 4.583212 
163.430771 4.45681 
163.435715 3.909502 
163.464951 3.70304 
163.480316 6.321141 
163.495697 4.203746 
163.514526 4.324206 
163.554703 5.773383 
163.556198 5.589574 
163.579514 5.037884 
163.58844 4.182834 
163.599854 3.791458 
163.611267 4.655803 
163.64006 4.372288 
163.647003 4.210863 
163.727463 4.201623 
163.732925 4.285048 
163.742371 4.552767 
163.751312 4.418587 
163.785599 4.452889 
163.796539 4.309292 
163.805984 4.009785 
163.865173 4.221266 
163.876602 4.432499 
163.883575 3.981728 
163.922882 4.942781 
163.936325 3.806296 
163.962708 3.764796 
163.96669 3.980005 
163.977646 4.286737 
164.009521 4.627378 
164.066818 4.007132 
164.069305 3.757544 
164.100708 4.827225 
164.138107 4.024042 
164.147583 3.739838 
164.157562 3.900684 
164.161545 3.883814 
164.181503 4.21763 
164.209946 4.195146 
164.217926 4.78606 
164.223923 4.779421 
164.240387 4.084216 
164.243378 4.083469 
164.312286 4.170099 
164.339767 3.952652 
164.388733 3.779292 
164.436737 3.922574 
164.493759 3.5732 
164.510269 4.39351 
164.513275 4.001319 
164.567322 5.2181 
164.574829 4.128023 
164.575836 4.331747 
164.576843 4.618251 
164.592865 4.789514 
164.599869 4.164302 
164.610397 3.878677 
164.644958 4.263506 
164.653976 3.776008 
164.66098 4.11353 
164.665497 4.150898 
164.688049 4.456356 
164.711105 4.758952 
164.72464 4.752726 
164.728149 4.039606 
164.737686 4.414836 
164.766266 4.020621 
164.785828 4.142585 
164.830475 5.002116 
164.835999 4.546231 
164.854065 3.879941 
164.861603 3.717892 
164.888718 4.106991 
164.908295 4.358741 
164.951996 6.90499 
164.962555 4.147758 
165.012802 7.971429 
165.014313 5.296492 
165.06308 4.091918 
165.102325 23.236603 
165.173279 4.205091 
165.203995 4.201321 
165.228668 4.228343 
165.229675 4.099216 
165.230682 3.933503 
165.250839 4.758544 
165.257385 3.787431 
165.259903 3.853713 
165.288116 4.265275 
165.310287 7.065398 
165.332977 4.625006 
165.335495 4.679089 
165.352142 4.001665 
165.359192 4.263508 
165.361725 4.082959 
165.373322 4.03327 
165.388947 3.514732 
165.395508 4.347501 
165.407104 3.945436 
165.4384 4.369687 
165.470184 4.360373 
165.485336 5.140978 
165.50705 4.279694 
165.533813 4.206655 
165.575745 7.424669 
165.590393 4.700114 
165.6819 4.200389 
165.687958 3.792312 
165.740067 4.31017 
165.874756 4.209406 
165.881851 4.659207 
165.909714 3.87528 
165.961929 4.89954 
165.988297 4.242588 
166.012634 4.054601 
166.036484 3.956228 
166.123276 4.072794 
166.144104 5.298874 
166.163391 3.882929 
166.206589 3.742304 
166.220306 4.140036 
166.239624 4.08014 
166.251816 4.052648 
166.259949 4.391961 
166.266556 4.160773 
166.275711 4.161865 
166.322495 3.812938 
166.342346 3.860064 
166.354553 4.356311 
166.378464 3.84381 
166.414612 4.453978 
166.422241 3.819938 
166.435989 4.18218 
166.462982 4.671398 
166.470123 3.948936 
166.477249 4.243967 
166.517502 4.439349 
166.549606 4.363333 
166.603134 4.656888 
166.635269 3.854791 
166.655167 4.348782 
166.709259 4.484599 
166.723053 5.05078 
166.741425 7.159862 
166.774109 4.833642 
166.793518 4.466569 
166.814468 4.007452 
166.833374 4.03473 
166.842575 3.98182 
166.864044 4.318738 
166.891129 3.882565 
166.899323 4.111031 
166.903412 11.560581 
166.917206 4.348129 
166.929993 4.098029 
166.945862 3.988911 
166.949951 4.517099 
166.959152 4.255091 
167.01033 3.984279 
167.016464 3.922733 
167.030807 4.398091 
167.035416 3.848419 
167.045654 4.440771 
167.085602 4.159962 
167.090714 4.058215 
167.103516 4.142467 
167.131699 4.049707 
167.187561 4.741704 
167.215256 3.79397 
167.221405 4.710714 
167.228592 4.43955 
167.232178 3.85217 
167.261414 4.002717 
167.2686 4.433455 
167.283981 4.052298 
167.339417 3.511833 
167.345062 4.145499 
167.387161 4.725014 
167.393845 3.931632 
167.396927 4.00192 
167.438538 4.209915 
167.449326 4.361852 
167.473999 4.250926 
167.479645 4.062373 
167.502777 4.369467 
167.548035 3.901793 
167.557281 4.13407 
167.58815 3.866827 
167.64888 4.166534 
167.657639 4.284585 
167.709641 5.192013 
167.714798 4.258144 
167.737976 9.405433 
167.756516 3.864449 
167.787445 3.846088 
167.926178 4.416025 
167.941666 4.137836 
167.953018 4.725792 
167.957657 4.70612 
168.018585 3.879977 
168.068176 4.303807 
168.069214 4.535976 
168.070251 4.128337 
168.07283 4.192394 
168.076447 4.576143 
168.109009 4.007828 
168.156052 4.177408 
168.168991 4.088458 
168.178818 3.898544 
168.216568 4.238125 
168.221237 4.165751 
168.22641 4.229754 
168.23468 5.522773 
168.239853 3.895416 
168.280746 4.610439 
168.360504 4.424183 
168.371384 8.321196 
168.407135 4.29357 
168.411285 4.158723 
168.459488 4.237336 
168.465714 4.100612 
168.467789 4.530603 
168.473495 4.418727 
168.475571 4.774104 
168.505127 4.216612 
168.540421 4.75661 
168.597504 4.6987 
168.620865 4.067093 
168.636444 4.661526 
168.646835 3.944741 
168.66658 3.954391 
168.683716 4.22391 
168.768433 4.919247 
168.800674 4.190751 
168.804321 3.825531 
168.812637 4.460704 
168.841766 4.092353 
168.863632 4.323165 
168.909424 4.441506 
168.945877 3.829951 
168.956299 4.605833 
169.02298 4.244089 
169.038605 4.313922 
169.051117 4.336238 
169.056854 4.361824 
169.079788 4.186555 
169.083435 4.0679 
169.0923 3.918518 
169.129852 4.055774 
169.140289 5.180594 
169.154373 3.921161 
169.178894 4.430729 
169.19194 8.424821 
169.194031 3.97604 
169.237885 4.304541 
169.248322 4.391009 
169.259293 4.26022 
169.289062 3.998035 
169.308395 4.182537 
169.336075 4.338697 
169.35437 3.983161 
169.361694 4.079714 
169.387299 4.680182 
169.401947 4.222067 
169.442215 4.481137 
169.448486 4.584975 
169.475174 4.574121 
169.494003 4.192635 
169.54425 4.249726 
169.548965 3.864283 
169.620193 5.726435 
169.64534 4.580331 
169.690414 3.761098 
169.72345 3.950804 
169.754395 4.557034 
169.768555 4.463101 
169.769592 4.062248 
169.770645 3.825768 
169.811569 7.593709 
169.819977 5.143167 
169.866684 3.834154 
169.872986 4.64262 
169.898712 4.091165 
169.909225 4.55016 
169.928131 4.385942 
169.941269 3.989852 
170.026413 3.866633 
170.060059 4.059598 
170.10582 7.444136 
170.141602 4.901613 
170.205841 3.877881 
170.244812 5.857749 
170.254288 4.004988 
170.304886 4.013908 
170.318054 4.765113 
170.344421 4.062339 
170.382385 3.971796 
170.431976 4.173842 
170.464691 4.378027 
170.467331 3.80801 
170.473129 4.325284 
170.50058 4.039456 
170.508514 3.845457 
170.511154 4.763855 
170.51326 4.251767 
170.5159 4.345648 
170.519073 5.006465 
170.546005 4.506544 
170.584564 4.643717 
170.650101 4.088855 
170.657501 4.518199 
170.671783 4.234031 
170.738419 4.186276 
170.7453 4.445096 
170.766998 4.197227 
170.775467 4.377744 
170.784454 4.990573 
170.849579 3.888644 
170.855942 4.105101 
170.866531 4.470236 
170.88295 3.861695 
170.889313 4.928751 
170.900955 4.418823 
170.907852 4.073918 
170.91156 7.465636 
170.949188 3.898702 
170.959259 4.286109 
170.967743 4.173717 
171.004318 4.165875 
171.022354 4.038291 
171.037735 4.033344 
171.042511 4.219044 
171.064804 4.328174 
171.103012 4.23238 
171.133789 4.311339 
171.18956 4.017848 
171.215591 4.323839 
171.240021 4.256516 
171.274567 4.056523 
171.293716 4.937936 
171.322952 3.891796 
171.376144 4.768855 
171.393707 3.855398 
171.410736 4.119123 
171.436813 4.808011 
171.490067 3.934603 
171.535339 4.456445 
171.556656 4.192195 
171.563049 4.208526 
171.586502 3.85216 
171.595566 4.533043 
171.600891 6.577892 
171.646744 4.106628 
171.661682 4.464299 
171.681412 4.638444 
171.707016 4.110645 
171.716629 4.476871 
171.741714 4.746988 
171.775879 4.253977 
171.788696 4.011617 
171.829285 3.855718 
171.85759 4.523273 
171.870422 3.752049 
171.879501 4.030487 
171.932953 4.220733 
171.953796 4.21075 
171.993912 4.501486 
172.007294 4.002943 
172.027084 4.188709 
172.064545 5.947173 
172.129333 3.687031 
172.130402 4.077126 
172.13147 4.085742 
172.145935 4.005666 
172.165756 4.200016 
172.190933 5.029123 
172.198975 4.542259 
172.212372 4.004879 
172.224701 3.899291 
172.231659 4.474936 
172.264908 4.219179 
172.268661 4.106894 
172.306732 4.271145 
172.31102 4.511615 
172.336243 4.612423 
172.362 4.405501 
172.371658 4.769879 
172.387222 8.622574 
172.416748 7.837923 
172.438751 5.456523 
172.496231 4.327377 
172.556961 3.855987 
172.644608 4.0524 
172.662903 4.164272 
172.67421 5.065401 
172.714035 4.381513 
172.716721 3.770463 
172.719406 3.828697 
172.799103 4.336846 
172.817963 4.336062 
172.845444 4.008404 
172.912827 3.755698 
172.917679 3.771098 
172.921997 4.8069 
172.964066 3.758587 
172.975388 4.904427 
172.987259 4.064321 
172.98996 4.162072 
173.00885 4.180571 
173.021805 4.698031 
173.049332 4.367933 
173.055801 4.178263 
173.061203 7.813471 
173.074158 3.914513 
173.079559 4.371038 
173.089279 4.078445 
173.094147 4.101393 
173.106033 3.782292 
173.116287 4.401449 
173.162216 4.251502 
173.198425 4.283159 
173.206528 6.735717 
173.2314 4.218482 
173.251953 3.886238 
173.254654 4.108903 
173.270874 5.129573 
173.274673 5.916963 
173.301178 3.78568 
173.316864 4.808982 
173.351501 4.361328 
173.372604 4.347826 
173.398056 3.850032 
173.42189 4.454248 
173.433258 3.902593 
173.437057 6.842735 
173.455475 4.133746 
173.509659 3.86197 
173.541092 8.200597 
173.549225 5.178631 
173.556824 4.608359 
173.588272 4.746737 
173.60347 5.161884 
173.656631 3.701816 
173.679977 4.260183 
173.690826 4.623498 
173.700058 6.168594 
173.701141 5.03599 
173.723404 4.325859 
173.735901 3.693965 
173.783157 4.505513 
173.795105 4.118641 
173.822815 4.590339 
173.839127 5.120772 
173.863037 4.080894 
173.865753 4.253528 
173.888596 4.321983 
173.893494 4.167358 
173.908722 9.099539 
173.99469 3.845333 
174.025162 4.332758 
174.031158 4.133062 
174.090515 4.07736 
174.14064 4.018966 
174.141739 4.16351 
174.142822 4.97799 
174.161896 4.487967 
174.188614 4.325388 
174.194061 4.759335 
174.215866 4.096996 
174.276962 4.126051 
174.287323 4.282396 
174.319534 4.046639 
174.320618 4.234857 
174.321716 4.377342 
174.348999 3.866319 
174.360474 4.30356 
174.36702 4.42633 
174.397064 4.174489 
174.402527 3.873546 
174.428192 3.947453 
174.499237 4.986932 
174.548996 4.600171 
174.553909 4.554544 
174.560471 4.818412 
174.580719 3.968386 
174.609161 3.995884 
174.638168 4.349782 
174.649109 4.905153 
174.663895 4.156643 
174.676483 4.960804 
174.692368 4.888129 
174.721939 6.537937 
174.72522 4.277683 
174.854553 4.361819 
174.857849 3.868029 
174.865524 4.238339 
174.869354 3.946802 
174.963715 5.326385 
174.974701 4.082385 
175.040588 4.079465 
175.064194 3.927747 
175.094971 5.551333 
175.096619 7.04562 
175.113647 4.24699 
175.144424 3.643139 
175.190613 4.195057 
175.252213 3.968079 
175.321564 8.180085 
175.356247 3.635738 
175.436127 4.254849 
175.47139 5.090446 
175.472504 5.344834 
175.473602 3.846559 
175.48793 4.52981 
175.494003 3.926613 
175.502274 4.834421 
175.540314 3.683935 
175.577835 4.221178 
175.593277 7.482267 
175.634125 4.238381 
175.667801 4.130975 
175.714188 3.986289 
175.773865 3.816772 
175.811447 5.432253 
175.838531 3.693977 
175.867294 4.205597 
175.888306 3.803603 
175.931473 4.043156 
175.93811 3.784099 
175.968552 4.363155 
175.994019 4.427514 
175.997894 4.310098 
176.021713 4.258469 
176.036667 4.268606 
176.056046 4.869407 
176.066574 4.167798 
176.077652 5.921138 
176.168564 4.033788 
176.17244 4.262044 
176.208496 4.521329 
176.31337 3.776872 
176.362793 4.158888 
176.373352 5.000676 
176.412796 3.984792 
176.416687 4.134141 
176.420029 4.663811 
176.47171 5.889473 
176.507294 4.110544 
176.51564 3.993438 
176.519531 4.76147 
176.567932 4.333805 
176.593536 4.636532 
176.612457 3.764642 
176.616348 4.26202 
176.641953 4.008752 
176.646408 3.724172 
176.665344 3.8228 
176.678146 4.209773 
176.707672 4.795067 
176.751694 4.24767 
176.831955 3.993726 
176.838089 4.958791 
176.86821 4.066352 
176.916748 4.170311 
176.958054 3.9528 
176.979279 4.451703 
177.055786 4.140957 
177.115585 4.4113 
177.128448 4.777584 
177.201141 3.968759 
177.20842 4.714213 
177.241425 5.20347 
177.261017 3.89043 
177.269409 3.701281 
177.278366 4.118284 
177.282288 4.321335 
177.319794 4.009415 
177.326508 3.670699 
177.358994 3.930562 
177.399338 3.963892 
177.422318 4.196538 
177.456497 3.921462 
177.540619 4.510973 
177.559143 3.872992 
177.618073 4.21579 
177.634903 4.783726 
177.662979 3.842767 
177.753433 3.774127 
177.766357 4.131836 
177.806839 4.054047 
177.812454 3.841306 
177.819214 4.127111 
177.838898 4.039914 
177.859695 7.172302 
177.864197 4.107914 
177.919907 4.124482 
177.930038 4.076071 
177.946365 4.967721 
177.9655 4.66267 
177.985779 3.975085 
178.16272 4.017412 
178.175125 4.113946 
178.18811 4.855733 
178.198822 4.422228 
178.234924 4.087935 
178.263153 4.056155 
178.272186 3.885609 
178.286285 4.082764 
178.287415 3.984551 
178.288544 4.229409 
178.297012 5.145544 
178.304932 4.09761 
178.322998 3.78167 
178.357452 4.511273 
178.36705 3.83574 
178.386826 3.810841 
178.391907 3.894638 
178.473297 4.204557 
178.485748 5.224516 
178.49762 4.436363 
178.538345 4.440399 
178.583054 4.039023 
178.591537 4.281457 
178.617569 3.887002 
178.641922 4.778103 
178.661179 7.790725 
178.678726 4.30907 
178.688919 4.454772 
178.731979 6.532645 
178.733688 5.290922 
178.776764 4.384251 
178.794327 4.095656 
178.853317 4.693133 
178.874863 3.959404 
178.885086 4.209826 
178.899841 4.605019 
178.904373 4.443137 
178.929916 4.141042 
178.977036 4.211069 
178.996338 4.363954 
179.11908 4.094898 
179.140106 4.29542 
179.17366 3.975307 
179.193008 4.240376 
179.208359 3.991174 
179.211212 5.411737 
179.219742 4.099134 
179.276657 4.59178 
179.298279 4.577663 
179.299423 4.259904 
179.300568 4.161739 
179.33017 3.94185 
179.342697 4.193291 
179.360367 4.033749 
179.401947 4.412162 
179.428741 4.55406 
179.431595 4.507914 
179.464661 3.970628 
179.537079 4.384922 
179.567322 4.051239 
179.581024 4.645347 
179.584442 4.793982 
179.600418 6.353005 
179.628967 4.119279 
179.634674 4.199436 
179.642105 4.772717 
179.730637 4.180324 
179.734634 4.813436 
179.772934 4.005579 
179.890747 4.694928 
179.901611 4.492234 
179.911346 4.56697 
179.915924 9.137662 
179.94339 4.226529 
179.961136 6.862463 
179.972595 4.042186 
179.975449 4.00789 
179.976593 4.090939 
179.977737 4.100389 
179.98175 4.111695 
180.065948 5.208832 
180.2202 4.237189 
180.290207 4.579325 
180.329834 5.128406 
180.35051 4.028529 
180.37233 3.777918 
180.396469 4.102729 
180.459106 3.691 
180.574142 4.131909 
180.575302 4.867415 
180.576447 5.29412 
180.59314 3.828161 
180.596588 12.329241 
180.631699 3.876174 
180.652435 3.944949 
180.655884 3.842915 
180.716934 4.669986 
180.738266 3.828947 
180.755554 4.076261 
180.780914 4.862254 
180.847794 4.123958 
180.864517 3.796967 
180.92453 4.323686 
180.925674 3.897847 
180.926834 4.519833 
180.932602 5.018297 
180.968399 5.393067 
180.977051 3.645248 
181.047516 4.173147 
181.057327 4.044856 
181.110504 8.217413 
181.140564 4.05371 
181.214584 4.213384 
181.235992 4.643611 
181.237152 4.367301 
181.238312 3.685273 
181.379578 4.290606 
181.406219 4.148892 
181.417816 3.708724 
181.438095 7.920555 
181.444473 4.92007 
181.464188 4.065977 
181.495483 4.514341 
181.50766 4.759918 
181.582504 4.482822 
181.625443 4.366366 
181.634155 4.409556 
181.653885 6.824834 
181.692795 4.609657 
181.698608 4.153419 
181.742752 4.532607 
181.747406 3.785504 
181.760773 4.185234 
181.777618 4.543868 
181.809601 4.153573 
181.861923 4.184422 
181.928253 4.081577 
181.931747 4.435661 
181.954437 3.959644 
181.96666 4.183617 
182.001007 13.314482 
182.066833 4.425461 
182.116943 4.289946 
182.139084 4.301877 
182.157166 3.942849 
182.217224 3.873195 
182.24115 4.242148 
182.257492 5.286048 
182.264481 4.700345 
182.26857 3.710135 
182.342117 4.185547 
182.35965 4.712915 
182.406952 3.534704 
182.412796 3.805209 
182.45253 4.671836 
182.470062 4.084484 
182.478256 4.77616 
182.527954 4.153872 
182.540817 4.019794 
182.557785 4.584507 
182.561874 4.097051 
182.563049 4.051756 
182.564209 3.983956 
182.617462 4.144236 
182.628586 4.285895 
182.648483 4.512928 
182.649658 4.554045 
182.650818 4.097726 
182.659012 4.486999 
182.666626 4.396378 
182.689468 4.407963 
182.7621 3.972982 
182.806641 4.622343 
182.811325 3.959076 
182.820114 4.391904 
182.823044 4.516822 
182.837708 4.27455 
182.862335 4.46201 
182.879929 4.44745 
182.893417 3.906026 
182.894592 4.608739 
182.895767 5.128236 
182.908676 4.1081 
182.975571 5.01259 
182.994934 4.413695 
183.033691 4.44064 
183.079498 4.175125 
183.084793 3.650854 
183.091843 4.046699 
183.145905 4.490791 
183.158829 4.703002 
183.166473 3.963996 
183.169998 4.138858 
183.173523 3.968185 
183.184113 3.52216 
183.226456 6.114391 
183.269394 3.97883 
183.289993 4.001301 
183.394196 4.424694 
183.421875 4.290866 
183.438965 4.107216 
183.4478 4.140384 
183.451935 3.842277 
183.526794 4.528779 
183.534454 3.88931 
183.581635 4.278517 
183.584579 4.972597 
183.59108 4.136274 
183.63591 4.709117 
183.670731 4.504257 
183.682541 4.504192 
183.717972 4.034132 
183.724472 4.255937 
183.830231 7.104655 
183.865692 4.854402 
183.928391 3.924641 
183.954407 4.056185 
183.973938 4.209358 
184.018326 4.026283 
184.032547 4.325026 
184.153976 4.010386 
184.162857 4.415091 
184.224518 9.351583 
184.300446 4.694571 
184.317062 4.033512 
184.324768 4.293582 
184.396011 3.983689 
184.420349 3.815147 
184.513641 3.94782 
184.517197 4.273988 
184.533249 3.931596 
184.567734 4.308475 
184.595688 4.361137 
184.623047 4.513745 
184.628998 4.092446 
184.659943 4.220726 
184.682556 4.09277 
184.690292 4.256691 
184.693863 3.944139 
184.699219 3.893357 
184.757568 4.191772 
184.802841 4.055739 
184.824295 3.584781 
184.863037 4.245778 
184.873764 3.907556 
184.877335 4.938953 
184.894028 4.238322 
184.935776 3.680207 
184.978119 3.89001 
185.024673 4.154488 
185.083771 4.639844 
185.090347 5.114864 
185.092728 3.723161 
185.144104 5.64828 
185.159637 4.287773 
185.176956 4.476617 
185.194885 4.067455 
185.202652 4.161856 
185.243912 4.223349 
185.364746 4.200764 
185.451553 4.42456 
185.45575 3.992083 
185.527634 4.203558 
185.554016 4.172826 
185.560013 4.232262 
185.570801 4.308737 
185.575592 3.973153 
185.636765 4.14126 
185.646362 4.767118 
185.649948 4.715714 
185.704559 4.29988 
185.712357 4.161272 
185.743576 4.336335 
185.785004 4.785959 
185.78981 4.020758 
185.803024 4.325418 
185.878723 4.336812 
185.946655 4.571693 
185.971909 4.449536 
185.980927 4.021112 
186.060944 4.272049 
186.088043 5.492479 
186.09346 4.405842 
186.132599 4.377045 
186.161499 4.062947 
186.236221 8.343205 
186.24646 4.048628 
186.254898 4.082546 
186.266968 7.463023 
186.279022 4.48279 
186.288666 3.888735 
186.313995 4.558726 
186.332687 5.510134 
186.398453 4.085917 
186.402084 4.767973 
186.405701 4.916975 
186.412933 4.233469 
186.439499 4.382234 
186.447952 3.816999 
186.479355 4.364779 
186.488403 4.307615 
186.508347 4.210399 
186.609863 4.232357 
186.68605 4.112144 
186.749588 4.031713 
186.780457 4.0805 
186.789536 3.901957 
186.853729 8.678672 
186.940979 4.261 
186.984024 4.539505 
187.014343 3.79617 
187.119919 4.701684 
187.122345 5.422318 
187.21405 4.269253 
187.252319 3.92628 
187.271774 4.239294 
187.28331 4.319946 
187.286957 4.984838 
187.330124 7.985163 
187.411636 4.112447 
187.428055 4.002341 
187.481018 3.82921 
187.506577 4.12729 
187.511459 7.987134 
187.517548 4.492563 
187.555908 3.925082 
187.591858 4.426911 
187.59552 3.838704 
187.610138 3.989425 
187.654022 3.85484 
187.707077 8.060361 
187.812012 4.011794 
187.830933 4.187586 
187.835205 3.671182 
187.840088 4.664446 
187.860855 4.202376 
187.871841 4.166961 
187.887726 4.129889 
187.902985 4.141513 
187.918869 4.468146 
187.9702 3.860094 
188.012375 4.216829 
188.097992 4.308396 
188.149399 4.871702 
188.204498 4.626288 
188.219803 4.127367 
188.24614 3.73306 
188.275543 3.694275 
188.27861 4.309469 
188.28656 4.51536 
188.349686 4.606967 
188.40181 4.234423 
188.449036 3.800109 
188.457016 4.655275 
188.514084 4.902534 
188.518387 4.205337 
188.544159 3.997505 
188.574249 4.244042 
188.617249 5.596178 
188.6707 4.269042 
188.682999 4.403722 
188.690994 4.274317 
188.769684 4.574056 
188.854599 4.111162 
188.881058 4.581088 
188.914932 5.432887 
188.948181 3.767545 
188.954346 3.872307 
189.034439 4.282242 
189.106583 4.370842 
189.152832 4.088593 
189.170731 3.861989 
189.179993 3.746191 
189.233688 4.68091 
189.292953 3.960518 
189.344238 4.132046 
189.352264 4.339123 
189.394913 4.665427 
189.404175 3.778848 
189.433243 4.796453 
189.438187 5.209683 
189.4487 4.497319 
189.587906 5.211895 
189.626297 4.89241 
189.669037 4.199682 
189.687622 4.084809 
189.723557 3.800418 
189.726654 5.04009 
189.73967 4.473131 
189.754547 3.901444 
189.779968 3.820197 
189.79422 4.36182 
189.80043 4.462115 
189.837631 4.23873 
189.843842 4.397623 
189.874237 5.489309 
189.885406 4.557934 
189.896576 5.170174 
189.907745 4.006685 
189.91272 4.609272 
189.917053 3.710794 
189.935684 6.868296 
189.941269 3.87734 
189.962997 3.958677 
189.968582 4.497581 
190.028214 4.827194 
190.096558 4.450801 
190.130127 4.4232 
190.141937 3.969087 
190.163712 7.992134 
190.175522 4.825355 
190.201019 3.848629 
190.217819 4.177781 
190.222794 3.801413 
190.308685 4.27585 
190.331726 4.03092 
190.337326 3.993102 
190.471298 8.474868 
190.483139 4.270322 
190.486252 3.824129 
190.500595 4.193518 
190.523041 3.934877 
190.553604 4.617411 
190.610382 9.017989 
190.652206 4.084165 
190.729645 4.789632 
190.747131 4.478932 
190.757751 4.787381 
190.79837 8.564 
190.904663 4.490501 
191.030457 4.385623 
191.065521 3.867588 
191.086823 4.888637 
191.096848 4.023747 
191.117523 4.610923 
191.172043 4.618618 
191.194611 4.618698 
191.202759 4.424113 
191.225967 3.875286 
191.28241 6.623424 
191.377182 4.218276 
191.387238 3.659127 
191.42868 3.975229 
191.509094 4.154969 
191.537384 3.710232 
191.604034 5.218861 
191.641785 4.801542 
191.665695 4.522069 
191.672607 3.693753 
191.713531 4.711059 
191.7173 3.75604 
191.76326 3.856262 
191.855865 4.383943 
191.89621 4.283626 
191.913239 4.079592 
191.933411 4.079425 
191.963684 3.891988 
192.007217 4.007298 
192.032455 4.423608 
192.048233 3.849612 
192.08548 4.024824 
192.098099 3.92968 
192.139145 4.699999 
192.194107 4.539454 
192.222549 4.560744 
192.239609 4.454045 
192.249725 4.021528 
192.261734 3.807935 
192.268692 3.897062 
192.294617 4.250226 
192.31105 5.526078 
192.319916 4.499123 
192.325607 4.110898 
192.332565 4.043901 
192.419891 4.010419 
192.424316 3.919711 
192.464203 4.30847 
192.501572 3.783599 
192.554779 3.947837 
192.582031 4.611913 
192.60231 4.099013 
192.625137 4.7117 
192.634018 5.205656 
192.636551 4.02413 
192.64415 4.355739 
192.689178 4.195726 
192.729156 4.778008 
192.74501 5.161282 
192.755173 4.329719 
192.768494 4.766757 
192.788818 4.551592 
192.817383 4.164655 
192.824997 7.32757 
192.870728 4.517437 
192.875809 6.809593 
192.881531 3.816805 
192.896133 4.191043 
192.908218 4.430247 
192.922195 4.290224 
193.160706 4.627536 
193.244781 4.270468 
193.376709 4.707116 
193.382446 4.389829 
193.511337 3.878019 
193.51709 4.292482 
193.527298 4.650698 
193.54071 4.518372 
193.581589 3.76801 
193.63205 4.468521 
193.65506 3.897828 
193.674225 4.354785 
193.706833 5.056279 
193.726654 4.527495 
193.78038 3.773483 
193.853973 3.995775 
193.864853 4.362194 
193.898773 5.03117 
193.934006 3.908163 
194.008957 5.75437 
194.010239 6.276853 
194.019852 3.71753 
194.02562 3.979512 
194.033951 5.354868 
194.057037 3.918099 
194.235367 3.960964 
194.348404 3.811009 
194.419754 4.341186 
194.429398 4.099551 
194.446747 4.784348 
194.472473 3.832469 
194.490479 3.896291 
194.496277 3.815977 
194.507202 4.549943 
194.525864 8.317638 
194.545166 4.593702 
194.576065 4.921568 
194.590225 4.519224 
194.606964 4.240167 
194.617905 4.061193 
194.619186 4.325023 
194.620483 4.88005 
194.669418 4.555643 
194.69455 4.068908 
194.718384 5.280657 
194.879578 7.340878 
194.984131 4.164877 
195.000275 4.544867 
195.029984 4.084127 
195.051956 4.348663 
195.059708 4.161477 
195.088135 4.665953 
195.140488 5.023445 
195.147598 4.112583 
195.203857 4.663736 
195.223251 3.922144 
195.226486 4.317052 
195.265305 7.156392 
195.326157 3.934456 
195.330688 4.328763 
195.342331 5.808979 
195.350754 4.511525 
195.377945 3.849579 
195.3909 4.200814 
195.405807 4.100961 
195.449203 4.204368 
195.486145 4.101949 
195.548386 4.466382 
195.652191 4.255841 
195.665817 4.056111 
195.697632 4.581647 
195.717102 4.267102 
195.721649 4.130475 
195.780106 3.735764 
195.824936 4.850139 
195.854187 4.784916 
195.884094 3.881283 
195.908798 4.109314 
195.940659 4.34094 
195.995316 4.677155 
196.034363 3.90847 
196.082535 4.270006 
196.104019 4.050415 
196.115753 4.637313 
196.203049 5.116923 
196.2715 4.246521 
196.275421 3.946496 
196.310638 4.111445 
196.335419 3.975514 
196.357605 3.972256 
196.383057 4.323067 
196.436584 4.292509 
196.450958 4.392797 
196.466629 5.09169 
196.484253 4.110063 
196.497971 4.000034 
196.542404 3.944774 
196.607758 4.57255 
196.633255 4.173764 
196.686234 4.143258 
196.699966 4.243446 
196.718292 4.037507 
196.830231 4.418169 
196.859039 4.289151 
196.866913 3.779697 
196.942261 4.901593 
196.996017 8.193009 
197.016342 4.485418 
197.030777 3.973823 
197.034714 4.590888 
197.156097 4.364033 
197.225708 4.229461 
197.232941 3.909274 
197.286804 4.393443 
197.331512 4.551569 
197.345306 3.611595 
197.359116 3.964701 
197.384109 8.731558 
197.391342 4.711761 
197.411728 4.935299 
197.420288 4.273639 
197.424881 4.304777 
197.44133 4.963224 
197.483444 4.069299 
197.540054 4.171535 
197.602631 5.000172 
197.603943 3.806991 
197.682358 3.942758 
197.698837 4.225256 
197.735092 4.022223 
197.750916 4.342927 
197.756195 3.904917 
197.762131 7.604978 
197.793137 4.150718 
197.841965 4.108964 
197.845917 3.670181 
197.849884 4.028787 
197.871658 4.064366 
197.89212 4.128079 
197.924469 4.308773 
197.990524 4.392485 
197.995148 3.813526 
198.002426 3.964548 
198.009689 3.928818 
198.036789 4.11748 
198.088348 4.032516 
198.17366 4.280312 
198.193512 4.340415 
198.200119 4.260419 
198.255066 3.910608 
198.320618 3.898984 
198.321945 3.551639 
198.323257 3.524363 
198.42662 4.603756 
198.497574 4.883344 
198.565231 5.921471 
198.693359 3.860588 
198.710632 3.825788 
198.75116 3.712393 
198.765121 4.634475 
198.779739 4.004653 
198.831589 7.842601 
198.914719 4.542086 
198.949997 4.14666 
198.959305 4.592666 
199.015884 5.182461 
199.022552 3.874635 
199.044525 3.910491 
199.048523 4.357431 
199.08316 4.35715 
199.103134 4.748013 
199.118469 4.097163 
199.121796 4.021744 
199.185776 3.934673 
199.221115 3.731365 
199.24646 4.471564 
199.299164 4.087876 
199.355881 4.403397 
199.372574 5.054747 
199.379257 3.811974 
199.414642 4.824482 
199.419983 3.69717 
199.480774 3.952812 
199.512848 4.257184 
199.544922 4.014842 
199.609116 4.00715 
199.627182 4.37533 
199.642563 4.49483 
199.645905 3.974137 
199.686722 4.309914 
199.739594 7.978298 
199.796509 8.488075 
199.823303 4.581074 
199.850098 4.10818 
199.878906 4.053007 
199.882935 3.851605 
199.911087 4.239868 
199.935211 4.660294 
199.947952 3.579756 
199.950638 4.651018 
199.978806 4.107277 
200.00563 4.515274 
200.020386 4.031696 
200.05864 4.106669 
200.074738 3.92751 
200.14859 3.855842 
200.156647 4.174787 
200.176788 6.05714 
200.186188 5.622687 
200.19426 3.919448 
200.229858 4.092514 
200.275558 3.951488 
200.367004 3.94555 
200.445724 3.733881 
200.513702 4.064938 
200.517075 4.050236 
200.533234 4.540583 
200.541321 3.695963 
200.546707 4.271619 
200.572296 4.177042 
200.605988 3.641351 
200.634964 3.92312 
200.636307 3.863929 
200.637665 4.367265 
200.651138 4.036371 
200.674728 5.396389 
200.692932 4.884548 
200.757675 4.49623 
200.815704 3.688358 
200.877136 4.647128 
200.941284 3.978793 
200.993988 7.512077 
201.002777 4.051739 
201.014267 4.10751 
201.054138 6.935613 
201.071716 5.307166 
201.123123 1048.029541 
201.183334 4.214532 
201.188751 4.231219 
201.212433 3.977357 
201.25441 4.223783 
201.258469 4.080882 
201.272018 3.492845 
201.30249 4.166431 
201.323486 7.78871 
201.341782 4.694538 
201.360077 4.122976 
201.385147 3.835332 
201.423782 3.970494 
201.438705 4.13435 
201.518051 4.320364 
201.598801 12.145409 
201.602203 7.378155 
201.606949 22.011135 
201.613052 4.78241 
201.627319 5.535157 
201.630035 4.906795 
201.634781 3.979102 
201.65448 5.955639 
201.657867 8.865638 
201.660583 4.483278 
201.667374 6.023255 
201.670105 4.447498 
201.676208 18.982082 
201.684357 4.391444 
201.685715 4.648286 
201.687073 4.651324 
201.697266 5.116996 
201.698624 5.881953 
201.721039 4.260408 
201.776093 4.036191 
201.797165 3.769307 
201.842041 3.937754 
201.859726 4.603499 
201.97879 3.9471 
201.982193 3.991535 
202.028503 3.753805 
202.044846 4.458834 
202.055054 5.235854 
202.062546 4.264823 
202.06868 4.69746 
202.110916 4.315839 
202.166122 4.364376 
202.236359 9.017355 
202.245224 3.624799 
202.256821 3.843115 
202.258194 4.19615 
202.259552 4.145829 
202.286835 3.922638 
202.327103 3.73836 
202.363281 6.507248 
202.374878 4.497951 
202.391953 4.309464 
202.422684 4.255767 
202.440445 4.555241 
202.460251 4.362136 
202.493729 3.732455 
202.515594 4.219738 
202.554565 3.785198 
202.581909 3.9356 
202.59285 4.529178 
202.635254 4.165637 
202.658524 3.72471 
202.696838 4.002355 
202.724213 3.976191 
202.741333 4.01352 
202.767349 4.476023 
202.776245 4.059512 
202.939316 3.97908 
202.972916 4.693769 
203.018875 4.078445 
203.036713 4.424743 
203.040833 4.084217 
203.06485 3.925076 
203.068954 4.166896 
203.075821 3.705667 
203.125931 4.124716 
203.182236 4.097708 
203.193222 4.051965 
203.215897 3.847351 
203.224823 3.986501 
203.241318 4.294549 
203.255753 3.893914 
203.325867 3.523817 
203.329987 4.34236 
203.37056 4.294322 
203.427658 4.383719 
203.431793 3.917238 
203.435913 4.48255 
203.443481 4.136909 
203.44899 4.661234 
203.46344 4.685758 
203.532288 3.952641 
203.566727 4.625668 
203.586014 4.474208 
203.620453 4.328375 
203.62735 3.7596 
203.692139 9.303369 
203.705917 3.975065 
203.712128 3.781691 
203.718338 4.550403 
203.826645 3.953104 
203.845276 4.397944 
203.846649 4.028305 
203.848038 3.943122 
203.860458 4.315457 
203.870117 3.75046 
203.966797 4.033107 
204.118164 4.55262 
204.158295 4.135442 
204.188034 4.658327 
204.197723 4.505767 
204.252396 4.410388 
204.293259 4.46629 
204.332031 4.09674 
204.343811 4.355001 
204.38884 4.508364 
204.397156 5.041236 
204.42627 4.197742 
204.44014 4.292732 
204.49353 3.939826 
204.521271 3.979205 
204.592728 4.286199 
204.7052 4.232929 
204.718399 3.946987 
204.756607 4.205276 
204.776764 4.265178 
204.881729 4.616518 
204.885208 4.010581 
204.894257 4.166215 
204.997925 3.952003 
205.02298 4.273603 
205.041092 4.291022 
205.087738 4.215904 
205.122574 4.170906 
205.147659 3.886268 
205.15184 4.120819 
205.234787 4.905572 
205.268265 3.886966 
205.28569 3.99642 
205.319183 4.159692 
205.33313 4.569231 
205.395248 4.259661 
205.433655 3.862118 
205.437836 4.16974 
205.442032 3.90481 
205.458786 3.666135 
205.46228 4.474525 
205.500702 4.963618 
205.516068 4.060211 
205.536331 4.232911 
205.542633 4.202591 
205.613922 4.541323 
205.627914 3.898965 
205.650986 3.82686 
205.66008 3.45327 
205.671967 4.205009 
205.716049 4.036622 
205.825241 3.812125 
205.836456 4.145531 
205.949951 3.816015 
206.130905 4.054261 
206.15477 3.905583 
206.168808 3.910927 
206.184952 3.983265 
206.255188 4.283875 
206.308578 5.101393 
206.351456 3.928397 
206.365509 4.471527 
206.405594 4.302914 
206.414734 3.977925 
206.429504 4.104272 
206.579407 3.897983 
206.592072 4.805893 
206.600525 3.805471 
206.79715 3.963394 
206.808426 4.178469 
206.816193 4.286398 
206.82959 4.002626 
206.859222 3.715183 
206.901566 4.772187 
206.917084 4.10201 
206.99617 4.154769 
207.00676 4.144628 
207.026535 5.7767 
207.048447 5.734446 
207.06398 7.561005 
207.133255 3.870615 
207.138199 4.089784 
207.231552 4.385303 
207.307983 4.489468 
207.327805 8.477874 
207.400024 4.082671 
207.460251 3.918119 
207.482925 4.336229 
207.490021 4.475396 
207.495682 4.674166 
207.504196 3.904107 
207.516251 5.276768 
207.641785 4.058844 
207.685074 8.409949 
207.703522 4.420004 
207.783051 5.138852 
207.892487 4.473177 
207.897461 4.938113 
207.912384 4.081034 
207.940826 4.034827 
207.950073 4.003702 
208.055359 4.334911 
208.076004 4.35857 
208.106613 3.934309 
208.129395 4.124291 
208.244797 11.588466 
208.296829 3.733338 
208.313232 4.196342 
208.319656 4.304216 
208.364578 4.201411 
208.379562 4.588055 
208.393112 4.456299 
208.429504 3.592329 
208.498734 3.587099 
208.545151 3.988448 
208.590149 3.948612 
208.613739 4.267371 
208.646606 3.838791 
208.648041 3.448769 
208.64946 4.061651 
208.669479 3.855032 
208.700928 3.809586 
208.764587 6.787385 
208.766724 3.945965 
208.768158 4.393273 
208.90773 4.018994 
208.929199 4.091692 
208.940659 4.359126 
209.018036 4.371133 
209.076813 4.587548 
209.089722 4.928441 
209.212387 4.023601 
209.257599 3.861998 
209.314316 3.934811 
209.321503 4.138594 
209.450836 4.070786 
209.51915 3.862863 
209.545761 3.698032 
209.579575 3.854135 
209.610519 5.335496 
209.619156 4.712055 
209.657303 4.446451 
209.667389 4.173611 
209.670258 4.738603 
209.735794 4.401931 
209.748047 4.60252 
209.786942 4.20209 
209.866959 4.689363 
209.919601 4.033358 
209.946289 3.982604 
210.016998 5.098021 
210.072586 3.963315 
210.102921 4.541125 
210.125305 3.886505 
210.174438 4.17824 
210.196121 4.411103 
210.199738 4.38374 
210.206238 4.562857 
210.218521 4.193951 
210.240936 4.826315 
210.244553 4.755593 
210.277084 7.221762 
210.326263 5.040869 
210.347961 4.142682 
210.354477 4.644627 
210.371841 4.19881 
210.418167 9.984338 
210.427567 4.615116 
210.433365 3.887876 
210.465225 4.313386 
210.548508 4.333479 
210.570969 4.578552 
210.60939 9.432342 
210.616638 3.972171 
210.623154 4.676877 
210.643463 3.858812 
210.676086 3.799669 
210.686966 4.203096 
210.709442 4.349931 
210.768219 4.017843 
210.818298 4.29115 
210.857498 4.026789 
210.972992 4.164778 
210.991898 4.352941 
211.026062 3.992369 
211.079865 4.160604 
211.100952 5.009707 
211.106049 4.430325 
211.114044 4.310712 
211.247223 4.076317 
211.268341 4.480601 
211.27272 4.080178 
211.301117 4.143388 
211.346283 3.694235 
211.354309 4.205193 
211.559219 4.737966 
211.569427 4.357057 
211.578186 4.09954 
211.60228 4.231387 
211.628555 3.764483 
211.633667 3.898659 
211.676025 5.096036 
211.752731 4.370676 
211.775375 4.172756 
211.779037 3.945625 
211.780502 4.196496 
211.781952 3.924324 
211.803162 7.499003 
211.847748 4.872409 
212.052643 4.589944 
212.101715 4.303352 
212.15741 3.965256 
212.164001 7.945881 
212.167664 4.179868 
212.216782 4.196384 
212.227768 4.515289 
212.23291 4.121008 
212.238037 6.136104 
212.332657 3.701847 
212.339996 4.600463 
212.362747 4.156639 
212.367142 4.261651 
212.408981 3.872024 
212.436157 3.87486 
212.455246 4.660579 
212.469208 4.227848 
212.486832 4.501007 
212.542664 3.918797 
212.551483 4.327599 
212.55957 5.236097 
212.585297 3.79916 
212.588974 4.001836 
212.659546 4.08874 
212.671326 3.848921 
212.694122 3.995032 
212.702942 4.519062 
212.711044 6.069726 
212.903931 4.727858 
212.924561 3.804649 
212.954773 3.914093 
213.030701 4.566497 
213.072739 5.284259 
213.077896 3.531602 
213.15979 4.844415 
213.165695 4.934284 
213.193008 5.55129 
213.219589 5.025791 
213.266113 4.024165 
213.290482 3.868597 
213.335556 3.909229 
213.395416 3.909388 
213.404297 4.065821 
213.405777 4.503975 
213.407257 4.460895 
213.416855 4.280045 
213.447174 3.753654 
213.457535 4.431542 
213.655884 4.032212 
213.659576 3.888193 
213.681061 4.041124 
213.693649 7.096282 
213.720322 3.666189 
213.744034 4.509488 
213.799637 3.9022 
213.824844 4.421875 
213.888626 3.7844 
213.90271 4.40096 
213.9272 4.276768 
214.036316 3.716521 
214.063797 4.370759 
214.068253 4.525941 
214.094254 4.412427 
214.121002 3.796898 
214.175247 3.728617 
214.190857 4.220562 
214.212418 4.145718 
214.239929 4.653144 
214.265228 7.231466 
214.280106 4.095406 
214.305389 4.876147 
214.32251 4.373795 
214.362686 4.806258 
214.42746 3.806796 
214.439377 4.08554 
214.46022 4.099593 
214.517593 4.521892 
214.5392 5.069872 
214.541428 3.982557 
214.542923 3.773597 
214.547394 4.510446 
214.562302 3.88608 
214.584656 4.437395 
214.592865 4.681895 
214.613739 4.461811 
214.690552 6.95482 
214.71965 3.810079 
214.760696 4.45781 
214.766663 3.893296 
214.777863 7.010326 
214.82489 3.98333 
214.830124 4.348668 
214.848053 4.147022 
214.860001 3.983027 
214.865219 4.132233 
214.893616 4.067524 
215.123886 4.195004 
215.167297 4.477543 
215.17627 3.639128 
215.214462 4.017779 
215.251144 4.621296 
215.305832 3.695581 
215.36203 4.103306 
215.384521 4.67966 
215.395767 3.886598 
215.421997 4.484206 
215.470749 4.109362 
215.49176 4.085585 
215.501511 4.228901 
215.518005 3.908382 
215.56604 3.997787 
215.63887 4.123977 
215.707962 3.937463 
215.72525 4.436309 
215.74855 4.198411 
215.789886 4.339191 
215.808685 4.154113 
215.812439 3.654951 
215.83725 3.853234 
215.846283 4.560207 
215.859818 4.900752 
215.883133 4.686252 
215.932785 4.1272 
215.97644 4.003741 
216.015579 5.566097 
216.089386 4.234367 
216.12706 4.12239 
216.145889 6.380311 
216.151917 3.936284 
216.165497 4.201004 
216.225052 4.024561 
216.248413 4.150311 
216.252945 4.087011 
216.378952 4.862457 
216.394043 3.833383 
216.443115 3.836728 
216.487686 4.014197 
216.489197 3.843963 
216.490707 4.310074 
216.562485 3.956332 
216.628998 4.293126 
216.733383 4.413569 
216.739441 5.003838 
216.749283 3.588749 
216.757599 11.632558 
216.78334 3.837714 
216.794693 3.706793 
216.800751 4.033131 
216.847687 4.078916 
216.849213 4.09235 
216.850723 3.71247 
216.879501 3.7412 
216.896164 4.281606 
216.960571 4.154473 
216.999985 4.529428 
217.063675 4.127542 
217.081116 4.777395 
217.089462 3.660657 
217.105392 4.905262 
217.128159 4.667605 
217.144089 4.222705 
217.163055 3.963591 
217.18811 4.163781 
217.191895 4.187383 
217.19722 4.112881 
217.205566 4.576492 
217.259476 4.923781 
217.405365 4.604598 
217.409912 4.0593 
217.422836 4.573308 
217.529327 3.751303 
217.603897 4.395397 
217.619125 4.173084 
217.6633 3.977711 
217.715088 4.318985 
217.733368 4.477008 
217.78595 4.553832 
217.821777 4.120429 
217.854568 4.49386 
217.856857 3.618947 
217.858383 3.87798 
217.911774 3.935061 
218.155319 4.599343 
218.22641 4.425546 
218.233292 4.604453 
218.243988 4.59896 
218.262344 3.886693 
218.303635 3.881126 
218.328125 4.576911 
218.355667 3.951311 
218.434494 4.194966 
218.438324 3.977494 
218.540192 4.393733 
218.599197 7.512471 
218.603027 4.148844 
218.610687 4.691794 
218.639816 5.324617 
218.647491 3.925788 
218.69426 4.06695 
218.722641 4.70856 
218.727249 4.869405 
218.803986 4.559587 
218.807053 4.107913 
218.819336 4.486966 
218.926071 4.215886 
218.932983 3.784394 
218.936066 4.170372 
218.952957 4.582113 
218.995224 4.401123 
219.008286 3.626336 
219.016754 4.142654 
219.025208 4.112939 
219.040573 4.267009 
219.055191 4.243974 
219.072876 4.35962 
219.131317 3.912849 
219.18364 3.788606 
219.199036 4.326116 
219.363831 3.865863 
219.421616 4.037241 
219.457855 3.994778 
219.502579 4.583967 
219.507202 3.739502 
219.527267 4.636899 
219.58667 4.22002 
219.653046 3.909132 
219.719452 4.544855 
219.764252 4.020669 
219.769669 3.942117 
219.776611 4.003459 
219.824524 4.154336 
219.880966 4.318897 
219.887146 4.193368 
219.899521 4.547584 
219.952896 6.755542 
219.957535 3.941178 
219.972229 4.329113 
219.990036 4.204473 
220.070526 4.57865 
220.074402 4.443772 
220.091431 4.3682 
220.138672 4.196627 
220.157257 4.256312 
220.175858 4.595781 
220.213043 3.922744 
220.225449 3.970484 
220.246384 4.272435 
220.402267 4.125268 
220.421661 3.938367 
220.482208 4.325322 
220.578506 4.058393 
220.610367 4.318965 
220.652344 8.981901 
220.665558 3.944346 
220.669434 3.796242 
220.688873 5.50897 
220.726196 4.217003 
220.786865 3.891852 
220.790756 4.367331 
220.810211 5.163801 
220.859238 4.406507 
220.870911 3.849357 
220.976822 3.785246 
220.994736 3.823043 
221.056305 4.242435 
221.084366 4.649735 
221.095276 4.315919 
221.112427 4.313492 
221.135818 4.666763 
221.156097 3.967371 
221.224747 4.077225 
221.226318 4.22883 
221.227875 4.505885 
221.277832 3.997155 
221.292664 4.055597 
221.439499 4.270003 
221.554413 4.176151 
221.580231 4.474922 
221.622467 4.225869 
221.712479 4.445839 
221.73674 4.096193 
221.806458 4.028894 
221.839355 3.97222 
221.869919 3.80883 
221.91539 3.914197 
221.942825 5.31823 
221.964783 4.179216 
221.973404 3.698767 
221.990662 4.259218 
222.011063 3.748499 
222.015762 4.423027 
222.032242 3.962521 
222.067551 4.396371 
222.131134 3.80059 
222.169601 3.887738 
222.208099 4.304961 
222.241089 3.942348 
222.249725 3.980262 
222.26387 4.299271 
222.307098 4.113886 
222.352707 3.867594 
222.390442 3.693025 
222.423477 4.125651 
222.501389 3.844002 
222.517914 3.752169 
222.547043 4.162593 
222.582474 3.858319 
222.592712 4.012954 
222.621857 4.191073 
222.712463 4.319737 
222.782639 4.299399 
222.912018 4.424973 
222.964127 3.979037 
222.975967 3.632988 
223.039932 4.025477 
223.075485 4.60772 
223.137131 5.214367 
223.18219 3.965461 
223.189301 4.04825 
223.232803 3.86362 
223.256531 4.413225 
223.2771 4.153098 
223.350708 4.242997 
223.400589 3.729385 
223.425125 3.80206 
223.461563 4.484824 
223.487717 3.935581 
223.495636 4.049204 
223.543182 4.172826 
223.546356 4.422305 
223.571716 3.767164 
223.599472 3.758544 
223.605026 3.652249 
223.62088 3.80238 
223.632782 7.063785 
223.696243 4.314408 
223.699417 3.951738 
223.735123 3.894564 
223.755753 4.479418 
223.786713 3.608594 
223.822449 4.274462 
223.847061 4.36564 
223.867722 5.192107 
223.909821 3.895342 
223.922531 4.075903 
223.993271 4.241558 
224.091095 3.734527 
224.111771 4.337815 
224.17305 3.746542 
224.235947 3.802822 
224.243912 8.547461 
224.28772 3.886425 
224.316391 3.98568 
224.334717 3.971375 
224.355438 5.51078 
224.364212 6.206945 
224.372971 4.642838 
224.391312 4.264125 
224.427979 3.891824 
224.44313 3.920357 
224.464661 4.275574 
224.501358 3.728002 
224.541245 4.33836 
224.569168 4.108641 
224.724075 3.933976 
224.736862 4.339648 
224.757629 4.599175 
224.81279 3.684968 
224.86235 4.159793 
224.923141 3.6932 
224.939941 4.777192 
224.980743 11.261106 
225.001556 4.120537 
225.011154 4.146968 
225.035172 3.981025 
225.084015 6.699923 
225.10083 4.233972 
225.180939 3.987458 
225.27153 4.402949 
225.302795 4.249625 
225.326859 4.656129 
225.356537 5.030669 
225.385422 3.823992 
225.448837 4.133646 
225.506638 8.489515 
225.51387 4.093176 
225.547607 4.23611 
225.591797 4.095418 
225.62233 3.873901 
225.65126 4.050439 
225.672165 3.788521 
225.703522 4.031612 
225.712372 3.829396 
225.719604 3.842556 
225.737305 3.68836 
225.743744 8.39119 
225.761429 4.058437 
225.804077 3.989786 
225.853973 3.852762 
225.878128 3.928777 
225.906296 4.148389 
225.976379 3.940893 
226.023911 5.24127 
226.034393 7.835772 
226.073074 3.796067 
226.085968 4.519246 
226.204529 4.217135 
226.265854 3.796882 
226.28685 4.251514 
226.398285 3.984682 
226.428986 7.401389 
226.457275 4.51809 
226.498489 4.133984 
226.513855 3.831157 
226.554276 4.105141 
226.57692 4.513616 
226.645691 4.523422 
226.714478 3.724952 
226.72905 7.643823 
226.742813 3.903177 
226.766296 4.117588 
226.905655 4.039963 
226.922684 3.645581 
227.007828 3.928376 
227.031342 4.410672 
227.070282 3.999532 
227.153076 4.213612 
227.246475 3.838954 
227.406601 3.959548 
227.413925 3.938795 
227.426117 3.886898 
227.431 3.823969 
227.447266 3.824071 
227.543289 4.674604 
227.547363 5.422091 
227.656479 4.330668 
227.680099 4.102121 
227.77301 4.243611 
227.885544 4.193265 
227.901855 4.351672 
227.945114 4.089174 
227.980209 4.122337 
228.01532 4.484769 
228.046341 3.977026 
228.159912 4.223438 
228.204056 4.061116 
228.229401 3.744873 
228.2621 4.360525 
228.272736 3.728567 
228.286636 4.043039 
228.492096 4.10129 
228.519943 3.916692 
228.52977 4.180247 
228.553528 4.104086 
228.592865 4.250868 
228.601074 3.918514 
228.621567 4.327869 
228.633041 4.078939 
228.69371 4.885383 
228.713409 4.158248 
228.781494 4.485341 
228.803665 4.458518 
228.880829 4.065123 
228.906281 4.441069 
228.944077 3.952338 
229.054199 7.867235 
229.087906 4.67447 
229.100235 4.177173 
229.170975 5.986637 
229.214584 4.563968 
229.231049 3.956534 
229.250809 4.988244 
229.351257 3.697162 
229.357025 3.804073 
229.427063 3.938587 
229.432007 4.056037 
229.444366 4.124079 
229.466629 4.182513 
229.501251 3.578086 
229.54248 4.647026 
229.563919 4.017832 
229.626633 3.628579 
229.642303 4.034276 
229.687698 3.872295 
229.699265 4.282155 
229.729813 3.811136 
229.782669 3.805916 
229.850418 4.383337 
229.902481 3.786563 
229.938034 4.122706 
229.962021 5.59606 
229.969467 3.71402 
229.974426 8.350192 
229.981049 4.0883 
229.990143 4.420761 
230.008331 5.409776 
230.024887 8.389084 
230.031509 8.757425 
230.043091 4.063783 
230.068741 4.133133 
230.078674 4.233286 
230.094391 4.848927 
230.11261 4.26945 
230.154007 3.92869 
230.19458 3.95646 
230.239319 4.1946 
230.322189 4.333912 
230.376907 4.009198 
230.378555 3.644873 
230.380219 4.036305 
230.430817 4.94033 
230.493866 3.701331 
230.516281 4.614803 
230.550308 7.633249 
230.590164 4.482629 
230.633347 3.560873 
230.644974 3.76769 
230.672394 4.363093 
230.684021 8.139874 
230.693161 3.934026 
230.768799 3.787542 
230.782928 3.650565 
230.815369 3.998167 
230.867767 3.956224 
230.977615 4.475744 
231.013412 4.218958 
231.035065 4.407909 
231.040894 4.717312 
231.05838 4.689479 
231.08754 4.100221 
231.210876 4.137167 
231.267593 3.8687 
231.281769 4.009203 
231.300949 4.264678 
231.344345 4.382829 
231.36937 4.554316 
231.382736 3.637019 
231.401932 4.249228 
231.44368 4.339075 
231.533051 4.428326 
231.576492 4.396567 
231.581512 4.058704 
231.586517 4.344898 
231.694382 4.86675 
231.78389 4.507411 
231.883514 4.388094 
231.899414 8.447439 
231.929565 3.742873 
231.958893 3.838677 
232.055267 3.650663 
232.076233 4.113353 
232.105576 4.186508 
232.109772 4.278374 
232.113953 4.52045 
232.134094 3.992945 
232.186935 4.309303 
232.204559 4.490965 
232.228897 7.406831 
232.23645 4.36288 
232.25827 4.230794 
232.277573 5.52951 
232.451462 3.889655 
232.47583 3.876734 
232.500214 4.026553 
232.530487 4.258509 
232.570007 3.756031 
232.721481 4.302731 
232.759369 5.016219 
232.966675 4.211532 
233.019806 8.224171 
233.02655 4.519552 
233.080551 4.16557 
233.161591 4.062924 
233.239288 4.054842 
233.255341 3.913396 
233.347443 4.031766 
233.463303 4.245555 
233.552155 8.800161 
233.705429 4.262067 
233.746109 3.69802 
233.78595 3.849151 
233.834274 4.844861 
233.850388 3.988063 
233.913147 3.845881 
233.925873 3.877697 
233.975098 4.388992 
233.997162 4.354538 
234.033676 4.405719 
234.167023 4.168784 
234.172974 4.117954 
234.186569 4.165571 
234.210373 5.136256 
234.240128 4.236364 
234.253723 4.246381 
234.277542 4.505468 
234.33197 8.460417 
234.360901 4.009745 
234.416214 3.830313 
234.447708 4.321427 
234.461334 3.923885 
234.467285 4.034802 
234.56694 3.665282 
234.619766 3.804613 
234.639374 4.333115 
234.678589 4.004903 
234.690521 3.671309 
234.705017 3.708306 
234.726334 4.257919 
234.821884 4.074535 
234.829559 4.915756 
234.873947 4.947777 
234.884186 4.268323 
234.888458 4.494961 
234.907242 4.051654 
234.9841 3.890899 
234.996918 4.453833 
235.002899 4.385205 
235.04306 5.480094 
235.054169 3.96344 
235.061859 4.264406 
235.078949 3.760176 
235.088348 4.008552 
235.106308 4.162772 
235.143066 4.611078 
235.149048 4.188577 
235.202087 3.579132 
235.294495 4.178621 
235.309052 4.38931 
235.360413 4.190669 
235.424652 3.948231 
235.506058 4.033519 
235.568634 4.42374 
235.654388 4.012579 
235.677567 4.094962 
235.722183 4.783664 
235.724762 3.840528 
235.753082 4.366852 
235.899078 5.23269 
235.986755 4.016093 
236.114899 4.492981 
236.141571 6.701277 
236.182022 3.927046 
236.238846 4.39695 
236.268127 4.079508 
236.318954 8.280046 
236.36116 6.768643 
236.394775 3.917439 
236.496521 3.998066 
236.531891 3.843202 
236.552597 4.029448 
236.561218 3.96645 
236.586243 3.664061 
236.75116 3.802192 
236.761536 4.294003 
236.777939 3.909651 
236.81424 3.896146 
236.817688 4.502364 
236.881668 3.950923 
236.921432 3.894222 
236.950851 7.267128 
236.963821 6.982287 
237.008804 5.967404 
237.125671 4.9082 
237.159439 4.386849 
237.17157 3.762706 
237.221817 4.569629 
237.234818 5.224225 
237.264282 4.694504 
237.287689 3.846065 
237.318024 3.935782 
237.353577 4.143763 
237.403885 3.554061 
237.463745 4.164927 
237.538391 4.076833 
237.557495 3.936669 
237.6539 4.902826 
237.732117 4.110144 
237.743423 8.502611 
237.777328 4.441176 
237.794724 4.124144 
237.80777 4.041559 
237.811249 4.429076 
237.852127 4.069944 
237.893021 5.432346 
237.926086 4.09676 
238.093277 3.853607 
238.099365 4.06342 
238.134232 3.706574 
238.223145 3.968405 
238.230988 4.026544 
238.235352 4.010341 
238.298141 3.669856 
238.318207 4.05918 
238.401123 4.141356 
238.405487 4.051447 
238.422943 4.139056 
238.472717 4.361277 
238.50853 4.100424 
238.539108 3.898968 
238.597656 6.473143 
238.673706 4.209369 
238.685074 3.911613 
238.713058 4.651001 
238.728806 3.88961 
238.737549 3.567672 
238.752426 3.954672 
238.773422 3.488304 
238.804932 3.856989 
238.881958 3.850126 
239.002838 4.713105 
239.096619 3.907068 
239.169403 4.517737 
239.231705 7.094398 
239.270309 3.904996 
239.279968 5.41886 
239.324738 3.692102 
239.357224 3.958567 
239.380066 4.313148 
239.410812 4.761989 
239.471436 3.809921 
239.497803 4.158064 
239.511871 3.893022 
239.545273 3.937842 
239.594513 3.994957 
239.62442 3.979022 
239.630585 9.516871 
239.636734 3.858019 
239.774033 3.763268 
239.797806 3.592602 
239.80661 4.343784 
239.818954 4.184099 
239.847137 4.378466 
239.853302 3.765716 
239.870041 3.69621 
239.955521 4.184418 
239.967865 3.911036 
240.011948 3.868701 
240.138977 4.02724 
240.153091 4.244694 
240.199875 3.86729 
240.20871 8.393494 
240.258148 3.98428 
240.297012 4.286714 
240.304962 3.858643 
240.321747 3.697285 
240.426926 4.947286 
240.439301 4.781991 
240.628616 4.113442 
240.683517 4.136635 
240.749054 4.097041 
240.753479 3.800733 
240.820831 4.179159 
240.832352 4.771062 
240.874893 4.185024 
240.900604 4.774522 
240.906815 4.050661 
240.973328 4.681827 
240.981323 3.810663 
240.993744 4.8333 
241.014145 3.884372 
241.034561 4.102008 
241.075378 4.148106 
241.195267 4.067351 
241.202362 4.017316 
241.252121 4.398724 
241.273453 4.061061 
241.317902 3.860258 
241.377472 4.716122 
241.429947 3.988628 
241.46376 4.360018 
241.471771 3.927852 
241.489563 3.634039 
241.55188 4.424086 
241.585709 4.073182 
241.698837 3.943987 
241.729141 3.87449 
241.800461 4.218532 
241.845047 3.709073 
241.866455 4.194624 
241.952118 4.185032 
242.052109 4.827585 
242.086044 5.172668 
242.211151 5.093235 
242.218307 3.661177 
242.229034 4.296028 
242.270157 8.291141 
242.302353 4.137044 
242.348877 4.061053 
242.379303 3.774681 
242.409729 3.942923 
242.449112 4.036263 
242.46344 4.274601 
242.475082 5.162929 
242.501938 3.991635 
242.530609 4.344137 
242.622894 4.402227 
242.636337 11.090674 
242.666809 4.121533 
242.682053 4.069875 
242.703568 3.801298 
242.789673 3.741766 
242.81749 4.534329 
242.845306 4.005362 
242.863251 3.877934 
242.891083 3.819222 
242.902756 4.822813 
242.909927 5.238734 
242.915314 4.092904 
243.057236 5.23069 
243.059036 3.9015 
243.095886 3.919919 
243.133636 278.058807 
243.145325 4.507196 
243.250565 3.917007 
243.460327 4.348126 
243.512589 4.271477 
243.519791 4.785433 
243.537827 4.431527 
243.59642 3.992807 
243.706451 4.246062 
243.710068 4.248231 
243.733521 4.237212 
243.768723 4.790349 
243.787674 4.000593 
243.922226 3.889954 
243.947525 3.940475 
244.005371 3.947549 
244.02887 4.33153 
244.051468 3.991438 
244.06955 3.995906 
244.107544 3.971644 
244.264984 5.41528 
244.31842 4.042126 
244.322937 4.9193 
244.332001 3.892951 
244.379105 7.961363 
244.389069 3.574185 
244.445251 3.881733 
244.544067 3.767041 
244.575821 4.420287 
244.603943 4.058636 
244.635696 8.320979 
244.672897 5.071829 
244.740082 3.921576 
244.752792 3.913662 
244.784576 3.844286 
244.830902 4.503354 
244.837265 6.532881 
244.9245 4.001907 
245.041809 4.364797 
245.051819 4.516193 
245.310379 3.71641 
245.318573 3.735533 
245.378723 4.171833 
245.417923 4.043738 
245.423401 4.203218 
245.468994 4.712711 
245.553833 3.990031 
245.559311 3.890634 
245.574829 4.368046 
245.601303 4.031537 
245.674332 4.032238 
245.705383 3.918646 
245.711777 4.24442 
245.793091 4.164643 
245.813202 4.079042 
245.865295 3.946959 
245.867126 3.980449 
245.868958 3.820949 
245.901871 4.133183 
245.932968 4.015133 
245.95401 4.652563 
245.964981 4.10163 
245.970474 4.131675 
245.991516 4.088949 
246.002502 3.802689 
246.052826 4.716345 
246.085785 7.11735 
246.104095 5.29372 
246.170944 4.170553 
246.181015 4.927449 
246.243317 3.982818 
246.250656 3.710763 
246.295563 4.805721 
246.301971 3.781872 
246.305649 4.184515 
246.414764 4.219293 
246.451462 4.067762 
246.536819 4.726844 
246.546005 4.120891 
246.560684 4.350072 
246.661713 3.982221 
246.667221 4.368109 
246.703064 4.278627 
246.709488 3.80048 
246.777512 3.955593 
246.840042 3.817597 
246.841873 4.432555 
246.847397 8.545467 
246.853836 4.639754 
246.893387 3.944619 
246.961487 4.136352 
246.98909 4.442541 
247.013947 4.002415 
247.045258 5.544889 
247.069199 4.118727 
247.121704 4.023039 
247.223999 4.610929 
247.375244 4.016603 
247.39093 3.803175 
247.405701 3.750948 
247.41124 3.725546 
247.434311 4.914102 
247.503555 4.009804 
247.545105 4.228486 
247.559891 3.900269 
247.575592 4.379011 
247.646744 3.969803 
247.704971 4.03097 
247.728088 4.722929 
247.739182 4.018922 
247.775253 4.516243 
247.77803 3.97513 
247.779877 3.872893 
247.813171 4.665532 
247.897385 4.195367 
247.937195 4.248789 
247.958481 3.845296 
247.974228 3.949629 
247.995529 4.227747 
248.002945 3.957028 
248.031647 4.344776 
248.064087 4.474738 
248.098358 4.249267 
248.147491 4.415989 
248.196625 3.834981 
248.202194 3.986922 
248.213318 4.772982 
248.240219 6.684125 
248.250412 7.779461 
248.340424 4.103658 
248.510345 7.694511 
248.527069 3.806243 
248.632095 3.717557 
248.663712 4.038466 
248.682312 4.343702 
248.721375 4.251827 
248.779984 3.921935 
248.836761 4.486769 
248.874939 3.807934 
248.892624 3.9358 
248.920563 4.448435 
249.121857 3.818259 
249.248718 4.456921 
249.265518 4.717096 
249.321518 4.4069 
249.35701 5.244642 
249.369141 3.781106 
249.397156 4.426225 
249.437332 5.044574 
249.464432 4.019697 
249.482178 4.025568 
249.528915 3.985926 
249.533585 4.310445 
249.546677 4.010649 
249.565369 4.511568 
249.591553 4.091597 
249.605576 4.212326 
249.681351 4.562819 
249.736557 4.010095 
249.763702 3.667884 
249.774933 4.18436 
249.853592 5.311509 
249.860138 3.810879 
249.877945 3.821159 
249.882629 4.176238 
249.905106 4.56052 
249.917282 3.902458 
249.933212 4.487214 
249.973511 3.472547 
250.128235 4.244587 
250.161072 4.052148 
250.178894 8.496856 
250.195786 4.221062 
250.207062 3.851882 
250.227707 4.465695 
250.288727 4.678293 
250.303757 8.820833 
250.339447 4.580711 
250.346954 4.536364 
250.353531 7.058087 
250.386414 4.034681 
250.500153 4.145055 
250.572556 4.018402 
250.601715 4.265091 
250.627121 4.519844 
250.63559 3.816111 
250.681702 4.407358 
250.685471 3.707999 
250.797516 4.282606 
250.876663 4.156229 
250.982239 4.550594 
251.057693 4.319416 
251.069946 7.197712 
251.114304 3.645579 
251.143555 3.796407 
251.170929 4.740067 
251.182251 4.265918 
251.193588 5.376778 
251.285187 4.146357 
251.293701 8.133299 
251.342819 3.758513 
251.408981 4.547107 
251.420334 4.446679 
251.477066 4.975165 
251.532867 3.889425 
251.561264 8.877419 
251.565994 4.126106 
251.586807 4.110075 
251.814087 4.14166 
251.818817 3.997667 
251.833984 3.965289 
251.864319 4.022799 
251.876633 4.393815 
251.88327 4.713374 
251.890854 3.928388 
251.894653 4.484854 
251.914566 4.428232 
251.920258 4.07129 
251.925934 3.784817 
251.968613 4.514996 
251.979996 10.266483 
251.982849 11.06277 
251.986633 5.460877 
251.989487 5.897245 
251.992325 6.419971 
252.068237 5.278743 
252.128036 4.560833 
252.245804 4.52745 
252.278122 4.11684 
252.432129 3.840699 
252.468277 3.688729 
252.482544 4.464047 
252.715805 4.666656 
252.767258 4.776926 
252.807281 4.049935 
252.836838 3.821317 
252.874985 5.188237 
252.945557 4.153039 
253.044815 4.034287 
253.119278 7.579098 
253.320908 3.966506 
253.36586 5.240476 
253.396469 4.233531 
253.458649 3.900937 
253.494064 4.473531 
253.534271 5.055586 
253.541931 4.072018 
253.547668 4.409722 
253.670258 6.623835 
253.701889 4.921621 
253.71051 4.12149 
253.717224 3.953506 
253.732559 4.06748 
253.738312 3.910098 
253.791992 4.012018 
253.826508 4.411468 
253.845688 4.763251 
253.965622 3.878187 
254.068359 7.764091 
254.074112 4.036649 
254.098129 4.215751 
254.224014 4.50787 
254.246124 4.281381 
254.324005 3.97611 
254.365372 4.238246 
254.460648 4.025157 
254.531891 3.749633 
254.688934 4.165771 
254.738098 4.340457 
254.760284 5.128988 
254.779572 4.249312 
254.959045 4.092825 
255.161911 3.980369 
255.172546 4.633238 
255.225708 4.682206 
255.242157 3.816022 
255.256653 3.723172 
255.491837 3.722785 
255.57515 4.122944 
255.624573 3.777301 
255.663345 4.151423 
255.673996 3.668804 
255.736069 3.795133 
255.768066 4.773612 
255.814636 3.842823 
255.876755 3.611073 
255.88063 3.948229 
255.901016 4.71514 
255.905869 4.344782 
255.924316 4.203992 
255.986465 4.171409 
256.03894 3.873101 
256.092377 8.202188 
256.334534 6.850733 
256.393921 4.343046 
256.478638 4.36193 
256.485474 4.34551 
256.53418 3.669523 
256.587769 4.043079 
256.778931 3.808724 
256.846283 3.974426 
256.907776 4.313173 
256.919495 3.884654 
257.002533 4.382442 
257.133514 4.476524 
257.177521 3.808927 
257.207825 3.879444 
257.238159 4.689114 
257.299805 3.54356 
257.311554 4.442778 
257.338959 4.725715 
257.43103 3.868678 
257.458435 4.436426 
257.50647 3.797365 
257.525085 3.816989 
257.559387 4.213556 
257.591736 4.625456 
257.697662 3.884986 
257.713348 4.209641 
257.781067 4.542547 
257.787933 7.813126 
257.80954 4.33099 
257.932281 4.508457 
258.071838 4.382318 
258.085602 4.450468 
258.1633 4.060009 
258.17804 4.04746 
258.188873 4.007475 
258.221344 4.522573 
258.299103 4.0516 
258.325684 4.190021 
258.41629 3.937934 
258.446838 3.799721 
258.582855 3.939157 
258.629211 5.149328 
258.651886 4.286511 
258.657806 3.765716 
258.674591 4.551087 
258.741699 4.792593 
258.778229 4.263995 
258.826599 3.811386 
258.898712 3.803505 
258.912537 4.045959 
258.962921 4.496621 
259.047943 4.688909 
259.056824 3.785946 
259.067719 5.127902 
259.087494 3.894486 
259.097382 8.790763 
259.102325 3.68926 
259.110229 10.139422 
259.148804 11.165425 
259.158722 4.433843 
259.185425 8.78067 
259.189392 7.655253 
259.197296 4.044666 
259.205231 6.934564 
259.249756 4.935206 
259.259644 4.539526 
259.278473 7.050018 
259.2854 4.677688 
259.293335 4.478649 
259.302246 12.728289 
259.317078 4.808328 
259.346802 13.794226 
259.351746 30.50845 
259.358673 5.05166 
259.365631 11.055613 
259.421112 3.952491 
259.458771 4.636954 
259.481567 3.894951 
259.489471 4.50557 
259.507324 4.738243 
259.647156 4.258657 
259.760315 4.285046 
259.766266 3.783958 
259.773224 4.247312 
259.821869 4.240656 
259.836792 4.452641 
259.940125 5.711256 
260.011688 4.370765 
260.067383 4.214745 
260.136017 4.045344 
260.145966 4.018261 
260.169861 3.682758 
260.201691 4.02733 
260.210663 6.834205 
260.244507 7.187816 
260.331146 4.327622 
260.375977 3.992656 
260.450714 4.631158 
260.467651 4.699195 
260.556396 3.924329 
260.571381 3.854647 
260.590332 3.711275 
260.598297 6.009519 
260.644196 4.732258 
260.656189 4.981054 
260.773987 4.852777 
260.794952 4.056326 
260.846893 4.077266 
260.876862 4.900124 
260.888855 3.84218 
260.890869 4.056713 
260.928833 4.062617 
261.056824 4.182789 
261.137878 4.566601 
261.369202 4.683924 
261.376221 3.631204 
261.397247 5.149436 
261.411285 4.344213 
261.454407 3.830258 
261.479462 4.318606 
261.510559 4.167436 
261.527588 3.965607 
261.562714 4.453742 
261.636963 3.90638 
261.725311 3.90812 
261.757446 4.897311 
261.76947 7.528304 
261.77652 4.177055 
261.81369 4.367384 
261.945343 4.128071 
261.968475 4.032378 
261.985565 3.824807 
261.991577 4.234109 
262.145538 4.088634 
262.164642 3.573906 
262.170685 3.752929 
262.17572 3.914279 
262.185791 3.895765 
262.196869 3.946898 
262.258301 3.682425 
262.271393 4.555165 
262.28952 3.955125 
262.629333 3.978045 
262.6586 4.279004 
262.663666 4.488935 
262.685852 4.185951 
262.921265 4.383976 
263.009247 4.458473 
263.024414 4.006974 
263.074005 4.46733 
263.09729 4.064455 
263.185333 4.395495 
263.190399 9.308343 
263.233948 4.255234 
263.249146 3.912893 
263.293732 4.081861 
263.315002 14.178718 
263.322083 19.952229 
263.344391 4.458007 
263.356537 6.497694 
263.366699 8.04697 
263.38089 15.573261 
263.386963 10.077662 
263.399109 20.031622 
263.406219 38.673481 
263.411285 33.438564 
263.421417 17.946545 
263.435608 5.143559 
263.556335 4.455522 
263.561401 3.83856 
263.692352 4.22776 
263.732971 3.690533 
263.764465 5.019558 
263.789856 4.120229 
263.812225 4.48947 
263.824402 3.946265 
263.875214 4.028755 
263.883362 4.685554 
263.968781 7.433809 
264.141754 4.584038 
264.203857 3.601753 
264.244598 4.217256 
264.250732 4.025346 
264.356689 3.976275 
264.369965 3.715885 
264.496399 4.338432 
264.617828 4.190536 
264.739349 4.293536 
264.777161 3.812064 
264.815979 4.278703 
264.824158 3.903445 
264.966278 4.594376 
265.012299 3.897066 
265.046082 4.196812 
265.051178 3.812581 
265.100311 4.203635 
265.130005 4.164028 
265.142303 6.30852 
265.267242 4.843812 
265.322571 4.3275 
265.344116 4.342989 
265.355377 4.344512 
265.393311 3.880781 
265.400482 5.081744 
265.458954 4.448159 
265.501007 3.674084 
265.525635 4.034738 
265.560516 3.915083 
265.60672 3.694454 
265.645721 4.161596 
265.720703 4.358713 
265.76178 9.89148 
265.861481 3.923067 
265.898499 3.935222 
265.906708 5.410264 
266.033234 4.533961 
266.102203 5.067025 
266.128967 3.97449 
266.350464 3.702839 
266.395813 3.950118 
266.474213 3.954352 
266.486572 3.848743 
266.580475 4.617367 
266.600098 4.484427 
266.658936 4.073186 
266.708527 4.049484 
266.742615 10.220744 
266.800476 4.554573 
266.84079 3.960982 
266.84491 4.333463 
266.852173 3.807293 
266.898682 4.396229 
266.962799 3.66157 
266.984528 3.706246 
266.992798 3.801664 
267.011444 4.165145 
267.132538 3.854544 
267.167725 4.215053 
267.203979 3.972839 
267.277557 3.687408 
267.304504 5.098116 
267.335571 4.867955 
267.351135 4.75968 
267.390533 3.822551 
267.414398 4.492381 
267.436157 4.384758 
267.520203 3.946457 
267.535767 4.251126 
267.577271 4.144942 
267.590759 8.207667 
267.753815 4.019762 
267.774597 4.424468 
267.846313 4.182323 
267.85672 4.594427 
267.892059 4.007866 
267.944061 4.158801 
267.995026 3.952317 
268.039764 3.643424 
268.072052 4.103196 
268.093903 6.781149 
268.098053 4.258395 
268.118896 3.91339 
268.223022 3.973729 
268.261566 4.361588 
268.383545 3.839408 
268.489929 3.936376 
268.52121 3.897749 
268.569214 4.092999 
268.591156 4.022336 
268.632904 4.183893 
268.667358 3.713752 
268.702881 4.497927 
268.718536 3.782824 
268.809448 4.372114 
268.876343 4.711425 
268.923401 4.035312 
268.938049 4.299974 
269.026978 6.549353 
269.073029 4.012111 
269.097107 5.247345 
269.17041 5.17576 
269.17981 3.705112 
269.213348 4.441085 
269.305542 7.969307 
269.317078 4.321966 
269.43869 3.857247 
269.523682 3.913307 
269.563568 3.879277 
269.572998 3.92733 
269.634949 4.117605 
269.662231 4.21964 
269.887115 3.683917 
269.924957 4.322644 
269.990173 4.03155 
270.068054 6.395792 
270.1091 4.347174 
270.116486 3.82786 
270.176483 5.265132 
270.194397 4.210162 
270.2966 4.01269 
270.338745 4.439608 
270.410461 3.945202 
270.442078 3.835621 
270.454742 4.015722 
270.52121 3.676815 
270.525421 3.937099 
270.579254 8.018884 
270.642578 6.338253 
270.689056 4.1325 
270.775665 4.008616 
270.809509 4.882421 
270.819 3.886063 
270.884552 3.666907 
271.006165 6.743979 
271.089783 5.438057 
271.134247 3.936203 
271.221069 4.840884 
271.238037 4.578866 
271.256042 6.095675 
271.34613 4.691663 
271.47229 4.320309 
271.64209 6.849936 
271.655914 3.855727 
271.66864 3.795184 
271.755737 3.832118 
271.804626 4.610342 
271.865204 3.707353 
271.875824 4.445486 
271.894958 8.644773 
271.911987 4.167017 
272.004517 3.598066 
272.124756 3.790531 
272.140747 4.04904 
272.157776 3.640043 
272.173737 9.888236 
272.187592 3.87923 
272.319672 4.108605 
272.413483 4.559825 
272.468933 4.361686 
272.541473 3.813994 
272.563904 3.979634 
272.619385 3.601274 
272.637543 4.113845 
272.648224 4.283124 
272.665314 4.558893 
272.734711 4.057831 
272.747528 4.636953 
272.762482 3.764534 
273.090759 5.166394 
273.126068 4.304754 
273.178528 4.198977 
273.203156 7.194171 
273.225647 4.534477 
273.235291 3.965684 
273.261017 4.448959 
273.338135 4.610801 
273.364929 4.316457 
273.386383 3.771436 
273.396027 4.012074 
273.446411 4.328622 
273.552612 4.129535 
273.610565 3.702273 
273.858673 3.870276 
273.966156 4.533996 
273.972626 4.460214 
274.042542 4.056286 
274.141541 4.009002 
274.270752 4.295286 
274.356964 5.704451 
274.384979 4.153351 
274.394684 3.917789 
274.458282 4.193649 
274.463684 4.402606 
274.558594 4.434906 
274.58017 3.588984 
274.629822 3.710024 
274.636292 4.189078 
274.667603 3.85308 
274.906311 3.648574 
274.941986 4.174357 
274.975494 4.631447 
274.997131 3.833814 
275.010101 3.658665 
275.031738 4.324896 
275.117218 4.329596 
275.165924 4.007208 
275.273132 3.69584 
275.377136 4.260489 
275.391205 8.157806 
275.458405 3.911904 
275.55603 4.242926 
275.592896 4.22835 
275.951294 3.888333 
276.000214 3.916326 
276.144897 3.770393 
276.161224 4.288907 
276.167755 4.559869 
276.269012 3.865894 
276.278809 4.258433 
276.286438 9.004465 
276.360504 3.869728 
276.431335 6.456432 
276.477112 4.725741 
276.492371 3.956841 
276.553436 4.327147 
276.603638 3.970411 
276.68219 3.975866 
276.695282 4.208695 
276.955231 4.179997 
276.97821 4.542768 
276.989136 3.596551 
277.086456 4.938401 
277.097382 4.504865 
277.117096 4.092643 
277.149902 3.918959 
277.163025 4.065414 
277.24295 5.767139 
277.276886 5.173138 
277.366669 3.823365 
277.374359 3.840079 
277.394073 3.693619 
277.407227 4.314712 
277.438995 4.557238 
277.477356 4.074554 
277.517914 6.969875 
277.593597 4.099874 
277.629791 3.896638 
277.77356 3.640502 
277.781219 4.075056 
277.838348 4.422121 
277.854797 4.357484 
277.934998 4.153831 
277.967987 4.762141 
277.980072 4.084816 
278.01413 6.855866 
278.055908 4.518414 
278.066925 4.036234 
278.173615 4.342351 
278.218719 4.923774 
278.258362 8.071437 
278.305695 4.238597 
278.328796 3.987534 
278.460999 4.116878 
278.511688 4.803013 
278.578949 4.300356 
278.841553 3.777609 
278.849304 5.154777 
278.860321 3.880264 
278.908936 4.161897 
278.986267 5.091911 
279.020538 4.520322 
279.049255 3.972893 
279.063629 4.087182 
279.094604 3.729813 
279.11673 3.87403 
279.154327 4.542762 
279.159851 4.603084 
279.272705 3.755531 
279.342438 4.535723 
279.37677 4.079713 
279.445435 4.234383 
279.572876 4.229318 
279.641632 4.151371 
279.651611 3.729963 
279.674896 3.614252 
279.68045 4.867917 
279.752563 8.145796 
279.758118 4.858782 
279.761444 4.527492 
279.835815 4.047726 
279.891327 4.154517 
279.981293 4.210115 
280.03241 4.256781 
280.153564 4.077123 
280.218079 3.828158 
280.248108 3.817356 
280.372772 4.98209 
280.379456 4.236847 
280.526459 4.974548 
280.561005 4.225615 
280.586639 4.815711 
280.768402 4.563097 
280.83313 3.966881 
280.868866 4.431252 
280.881134 4.005871 
280.923553 4.618741 
281.00061 4.250799 
281.059845 4.483834 
281.122406 3.908154 
281.167145 3.925485 
281.252136 4.703455 
281.287933 3.883176 
281.362885 3.83379 
281.403198 4.307058 
281.453583 4.393191 
281.460297 4.425613 
281.568939 4.133116 
281.576782 4.394408 
281.638428 4.389875 
281.678802 4.446174 
281.688873 3.909593 
281.712433 5.499778 
281.740448 4.803256 
281.77298 3.988723 
281.834686 4.267588 
281.891907 4.203866 
281.928955 4.719831 
281.996338 3.846909 
282.035645 3.844877 
282.042389 4.179014 
282.048004 4.138662 
282.139008 3.707481 
282.153625 4.293892 
282.236816 3.999002 
282.388672 4.381932 
282.42807 4.43465 
282.459595 4.770776 
282.523773 4.264798 
282.531647 4.850018 
282.630768 3.833053 
282.656708 4.556925 
282.682617 4.591413 
282.725464 3.917419 
282.826935 4.023013 
282.845001 6.982217 
282.944275 4.197458 
283.014282 4.722027 
283.087677 4.480487 
283.188232 8.208035 
283.257202 4.101178 
283.345398 4.345079 
283.351044 3.813012 
283.361237 6.782756 
283.379333 7.154305 
283.493622 3.923789 
283.516266 4.39054 
283.530975 4.110343 
283.560425 4.647299 
283.603455 4.225052 
283.627258 9.022765 
283.724701 4.119091 
283.730347 4.16605 
283.804047 3.802843 
283.853943 4.109792 
283.860748 4.340033 
283.876617 3.980736 
284.063873 4.408491 
284.072937 4.012882 
284.244476 4.052119 
284.393402 4.029049 
284.444611 4.480905 
284.450287 4.979248 
284.463928 4.781898 
284.539062 4.046999 
284.567505 4.156538 
284.613037 4.350037 
284.681396 3.965976 
284.687073 3.940892 
284.79303 5.045751 
284.84433 6.818285 
284.924164 3.67499 
284.941284 5.173715 
285.067932 4.096189 
285.103302 4.313346 
285.147827 8.211846 
285.218658 4.40862 
285.255219 4.697986 
285.265503 3.710762 
285.274628 3.928631 
285.298645 3.764312 
285.315765 4.505239 
285.366058 4.300941 
285.374084 3.99392 
285.431244 3.9418 
285.531891 4.072062 
285.628052 3.855698 
285.645203 4.315697 
285.648651 4.972511 
285.796387 3.993986 
285.844513 3.841166 
285.854828 3.764272 
285.876617 8.527553 
285.941956 4.06482 
285.956879 4.719346 
286.009644 4.121196 
286.078461 4.407256 
286.12323 4.115129 
286.200134 3.937214 
286.311554 3.77315 
286.41037 3.844595 
286.574829 3.775919 
286.661133 3.5814 
286.734802 4.525509 
286.818878 4.365485 
286.929504 4.480902 
287.003296 3.865815 
287.069031 8.320292 
287.154388 4.887461 
287.184387 4.064277 
287.238647 4.087603 
287.261749 4.073079 
287.349518 5.528548 
287.362213 3.828515 
287.446564 4.377357 
287.492798 4.771393 
287.502045 7.054805 
287.525177 4.010982 
287.530945 3.838452 
287.682465 4.469341 
287.691742 4.730791 
287.734558 3.905928 
287.748444 4.165123 
287.806335 3.99686 
287.82486 4.557558 
287.846863 4.670654 
287.873505 4.645594 
287.88855 3.909336 
287.944183 4.370871 
287.95343 3.978209 
287.973145 3.617352 
287.978943 4.445164 
288.051971 3.825583 
288.101837 4.746349 
288.178375 5.000485 
288.188812 5.293284 
288.223633 3.76758 
288.273529 4.062538 
288.303711 4.073783 
288.309509 3.543541 
288.405914 4.063306 
288.626709 4.010016 
288.717438 4.000588 
288.75235 4.126619 
288.773285 3.98911 
288.865234 5.29771 
288.868744 4.03539 
288.899017 5.811475 
288.950256 5.711164 
289.055115 4.214605 
289.071442 4.184161 
289.147217 3.904258 
289.219513 3.806041 
289.230011 4.296612 
289.321014 4.143858 
289.337372 4.339362 
289.382874 4.381312 
289.412079 4.667039 
289.513672 3.709402 
289.683136 4.161015 
289.693665 4.160049 
289.72876 4.380874 
289.753326 4.292469 
289.763855 4.911095 
289.772034 4.301125 
289.79895 4.01488 
289.969818 4.545671 
290.001434 4.190157 
290.086945 4.834588 
290.123291 4.809235 
290.153748 4.221649 
290.187744 4.128765 
290.221741 3.88439 
290.235809 3.792759 
290.267487 4.08831 
290.309692 4.682369 
290.348419 4.216235 
290.385956 7.441976 
290.429382 4.490874 
290.443481 3.972049 
290.449341 4.242881 
290.498657 4.874923 
290.578522 4.329845 
290.586731 3.898839 
290.610229 4.875046 
290.624329 3.778964 
290.679565 4.46507 
290.770081 6.295719 
290.78537 4.279404 
290.845337 3.900941 
290.882996 5.380777 
290.902985 7.178886 
290.917114 4.005832 
290.933594 5.849774 
290.939484 3.849379 
291.012451 3.875513 
291.093689 3.800557 
291.126678 3.940811 
291.154968 3.86174 
291.177338 6.140704 
291.186768 4.325389 
291.358887 4.741012 
291.404877 3.784105 
291.482758 4.185583 
291.521698 4.409589 
291.626801 3.733386 
291.645691 4.459227 
291.669312 3.863083 
291.681122 4.357131 
291.704773 4.151055 
291.88562 4.302247 
291.917542 3.816169 
292.06781 3.938548 
292.093872 3.991714 
292.100952 4.549886 
292.127014 5.040787 
292.131744 4.31114 
292.192139 4.231766 
292.305878 8.576795 
292.320099 3.771703 
292.359222 4.152096 
292.490875 8.478334 
292.53714 4.550855 
292.569183 4.002322 
292.635651 5.098753 
292.660583 4.194416 
292.687897 4.599753 
292.692627 3.783972 
292.782898 4.041755 
292.844696 8.765397 
292.860138 3.903841 
293.040894 4.445911 
293.063477 4.184229 
293.214661 3.966011 
293.222992 3.731278 
293.27182 4.263535 
293.282532 5.895276 
293.367126 5.631024 
293.398102 3.892958 
293.482727 4.722246 
293.532806 3.952712 
293.667633 4.367476 
293.680756 3.888729 
293.720154 4.139459 
293.739258 4.056581 
293.75119 3.842733 
293.910065 4.24034 
294.030762 4.946332 
294.138428 3.990414 
294.155151 4.823614 
294.217377 4.403391 
294.225769 4.817825 
294.242523 3.750795 
294.490448 4.285909 
294.541992 3.738759 
294.556366 4.092505 
294.568359 4.096292 
294.81311 3.900685 
295.125458 4.733096 
295.143494 4.284431 
295.153107 4.498245 
295.238525 3.674275 
295.250549 4.085607 
295.291443 4.065217 
295.45639 5.16222 
295.504578 3.785352 
295.537079 3.724521 
295.543121 4.209707 
295.615417 4.602468 
295.652802 4.472244 
295.725128 3.946778 
295.732361 4.134892 
295.777008 6.156226 
295.792694 4.439708 
295.825256 4.539949 
295.880768 3.655675 
295.91217 8.105357 
295.965271 4.237443 
295.991852 3.845337 
296.01239 4.577808 
296.131989 3.968104 
296.144073 4.022247 
296.192413 4.262624 
296.249237 4.231586 
296.258911 4.501295 
296.304871 3.805646 
296.314545 4.850024 
296.323029 4.327714 
296.382294 4.437037 
296.46701 4.464489 
296.505768 4.664747 
296.563904 4.620711 
296.643829 4.435131 
296.734741 4.371402 
296.739594 4.053872 
296.749268 4.35882 
296.758972 3.883572 
296.765045 4.563439 
296.864471 4.352236 
296.885101 4.37692 
296.909363 4.061059 
296.914215 4.282651 
297.034363 4.159186 
297.073212 7.253905 
297.155823 4.742578 
297.192261 7.80573 
297.259094 4.011004 
297.277313 3.893354 
297.450012 4.190953 
297.468262 3.553157 
297.587524 8.966818 
297.627716 4.06055 
297.721497 4.456294 
297.78363 4.382204 
297.829956 3.84448 
297.854309 3.976223 
297.9104 4.049754 
297.978699 3.863953 
298.000671 4.064713 
298.015289 4.403504 
298.152008 4.359434 
298.216705 5.854454 
298.254578 4.100724 
298.261902 5.281257 
298.342529 4.035869 
298.461121 3.964852 
298.519836 4.847 
298.54306 3.932334 
298.567535 7.673321 
298.578552 3.90918 
298.660522 4.253568 
298.731537 5.670548 
298.756042 4.637772 
298.771942 4.213105 
298.785431 4.146829 
298.796448 4.367136 
298.907928 3.758318 
298.994965 3.898942 
299.077118 4.710927 
299.085724 4.247875 
299.196136 4.372552 
299.250153 4.04516 
299.327515 4.089799 
299.359436 5.10743 
299.393829 3.986438 
299.430695 3.752557 
299.476166 4.1753 
299.605255 5.579237 
299.872314 4.009983 
299.912964 5.387017 
299.957306 4.174942 
299.967163 4.221313 
300.029999 4.155827 
300.113831 4.494254 
300.144653 4.619773 
300.159454 3.898281 
300.185333 4.372633 
300.19397 3.740821 
300.205078 4.493511 
300.251953 4.145088 
300.259369 4.30099 
300.416138 7.738741 
300.428467 3.787845 
300.439575 4.722166 
300.519867 4.2814 
300.662018 4.136398 
300.666962 4.51084 
300.713928 4.263187 
300.79187 4.45518 
300.91684 4.149094 
300.931702 5.113265 
301.062988 4.18453 
301.136078 4.078965 
301.193085 4.856652 
301.222839 8.888861 
301.312134 8.133302 
301.360504 3.964488 
301.385315 3.848341 
301.466003 6.847671 
301.549164 3.740552 
301.621216 3.953746 
301.664703 3.687376 
301.713165 3.874975 
301.735535 4.124401 
301.784027 4.520275 
301.801422 5.286048 
301.843689 4.480276 
301.864838 3.741079 
301.914612 3.908081 
301.938232 9.784043 
301.968109 7.456624 
302.046509 7.396113 
302.09259 6.608117 
302.096313 8.986952 
302.105042 6.991789 
302.108765 4.609979 
302.11499 14.910554 
302.124969 5.514439 
302.129944 10.402459 
302.137421 4.595443 
302.142395 4.98478 
302.164825 5.059566 
302.20343 4.382966 
302.250793 3.952953 
302.270721 3.839215 
302.285675 4.691717 
302.293152 3.809849 
302.303131 4.364392 
302.364227 3.993474 
302.384155 4.757022 
302.412842 4.178726 
302.437805 4.404738 
302.52887 3.983577 
302.552582 4.102971 
302.647461 4.345315 
302.654938 4.423182 
302.712372 4.181816 
302.76236 4.191165 
302.771088 3.748611 
302.943573 4.233355 
302.968597 4.599658 
303.049896 4.12085 
303.064911 4.136432 
303.161285 4.427577 
303.325317 4.270866 
303.424316 3.642169 
303.493286 3.794928 
303.495789 3.754004 
303.499542 3.934682 
303.67392 8.513986 
303.696503 4.923013 
303.720337 3.758541 
303.750458 3.970532 
303.78186 4.365467 
303.827057 3.892066 
303.894897 4.082211 
303.925049 5.90485 
303.946411 4.040222 
303.989136 4.600877 
304.146332 4.831833 
304.22937 3.793727 
304.235657 3.942609 
304.263336 4.567048 
304.291016 4.232275 
304.312439 5.60045 
304.348938 4.701438 
304.414429 4.802972 
304.517731 4.139447 
304.547974 4.1229 
304.560577 4.260499 
304.582031 4.544605 
304.638763 4.409786 
304.657654 4.420959 
304.715698 4.524951 
304.758575 4.34916 
304.791382 3.99251 
304.797699 3.849509 
304.824188 4.687253 
304.835541 3.782258 
304.93277 3.982406 
305.030029 4.147488 
305.103302 3.561428 
305.136169 3.839677 
305.150085 4.168013 
305.165253 3.826452 
305.18927 3.998435 
305.256287 3.997999 
305.273987 4.574508 
305.308167 4.618463 
305.370148 3.952495 
305.376495 4.200729 
305.400543 4.102739 
305.438507 3.974036 
305.446106 8.307037 
305.499268 4.715856 
305.665222 4.213677 
305.748901 4.140409 
305.761566 6.012373 
305.803406 4.249512 
305.818634 9.648797 
305.863037 4.666376 
305.916321 3.771807 
306.041962 3.911204 
306.045776 3.707296 
306.077515 5.8197 
306.154999 4.070821 
306.172791 3.904796 
306.219788 4.111379 
306.257935 3.884022 
306.321503 6.920888 
306.437225 4.842236 
306.444855 4.497136 
306.527557 4.241455 
306.644684 3.595349 
306.723663 5.009055 
306.733826 4.721123 
306.791168 4.754127 
306.807739 4.107584 
306.819214 4.231066 
306.874023 4.239557 
306.937775 4.006351 
306.955627 4.743932 
307.062805 4.069962 
307.103638 4.10032 
307.173828 7.069777 
307.297699 4.64924 
307.406342 3.712147 
307.538025 3.800447 
307.544403 4.336219 
307.600708 6.85218 
307.636536 3.740956 
307.95282 3.855941 
308.138733 3.789156 
308.267059 3.947529 
308.304291 4.122626 
308.310699 4.107959 
308.326111 4.07382 
308.35437 4.324576 
308.532928 5.633215 
308.601044 3.946458 
308.630615 4.509345 
308.637054 4.118249 
308.774689 3.872544 
308.972931 4.975596 
308.984528 4.67352 
309.005127 4.27552 
309.090179 4.258565 
309.167511 4.166693 
309.199738 3.880306 
309.207489 4.404597 
309.216492 3.92676 
309.29776 4.374702 
309.388062 4.088758 
309.433258 8.02779 
309.592072 3.864646 
309.687683 7.298867 
309.722595 4.567721 
309.816986 5.0925 
309.826019 5.804341 
309.902344 3.952266 
309.974823 4.692238 
309.987762 7.211257 
309.998108 4.310822 
310.139252 3.996568 
310.250671 4.077311 
310.261047 3.751712 
310.485352 4.01507 
310.51651 7.052691 
310.537262 4.25385 
310.564514 4.041611 
310.639832 5.684288 
310.669678 4.114984 
310.735931 3.816587 
310.83078 4.025288 
310.855469 3.711313 
310.902252 3.77282 
311.10907 4.702007 
311.11557 3.97093 
311.15332 4.43037 
311.183258 4.134797 
311.325195 4.275385 
311.336914 4.134384 
311.407288 8.733024 
311.516785 3.831006 
311.549377 4.26635 
311.639374 3.661667 
311.656342 4.295188 
311.699402 3.982024 
311.70462 3.975218 
311.853455 3.823383 
311.948822 3.989107 
311.993256 4.605223 
312.09259 8.237112 
312.100433 4.88832 
312.143585 3.966391 
312.150146 5.035195 
312.156677 4.730804 
312.191986 4.344243 
312.299286 4.347866 
312.35556 4.710167 
312.386993 4.210377 
312.431519 3.915523 
312.440674 4.611176 
312.542877 4.000566 
312.563843 4.30172 
312.740814 4.299802 
312.873322 4.108928 
312.907471 4.355548 
312.948151 4.254158 
312.954712 4.038616 
312.975739 3.955071 
313.075531 3.930593 
313.121521 3.937809 
313.138611 3.960745 
313.260864 4.048934 
313.280579 3.997228 
313.300293 4.459529 
313.380554 7.326102 
313.400269 4.731148 
313.471344 4.714633 
313.483185 4.007513 
313.654358 5.053893 
313.720245 3.697627 
313.811188 4.280207 
313.826996 5.97904 
313.863922 3.965194 
313.896881 4.564876 
313.916687 4.690626 
313.956238 4.26306 
313.96814 4.244043 
314.009033 4.291352 
314.039368 4.072595 
314.052582 4.402011 
314.263855 4.342889 
314.274445 4.014506 
314.29953 4.177919 
314.431702 3.907526 
314.448914 4.311578 
314.462128 4.536961 
314.521637 4.15412 
314.58252 4.381701 
314.594421 8.113242 
314.865845 4.469148 
314.901642 3.845321 
315.073975 5.129236 
315.095215 4.385702 
315.253113 4.052242 
315.282318 5.475423 
315.286285 4.219438 
315.28894 4.191388 
315.351349 3.967374 
315.389862 4.257423 
315.429718 4.153789 
315.456299 4.296551 
315.485535 4.460793 
315.510773 4.02323 
315.647705 4.071346 
315.657043 4.143925 
315.662354 4.10574 
315.712891 3.586867 
315.832672 4.012532 
315.84198 4.334482 
315.908539 4.135637 
315.92453 4.235888 
316.092377 4.339867 
316.124359 3.831512 
316.151031 4.509427 
316.211029 5.108608 
316.273712 4.464904 
316.311066 4.086616 
316.331085 9.547335 
316.415131 7.603549 
316.492584 3.732212 
316.501923 4.112457 
316.515289 4.288393 
316.578064 5.10747 
316.623474 6.88529 
316.678253 4.175759 
316.830658 4.860734 
317.027344 3.728329 
317.055481 4.693736 
317.117065 4.190022 
317.159912 3.828357 
317.213501 3.84514 
317.247009 4.003978 
317.461517 4.128828 
317.602417 4.754151 
317.841461 3.809456 
317.918091 4.091986 
318.031036 4.17382 
318.049866 4.228389 
318.150787 4.007654 
318.255768 4.165863 
318.387756 4.070296 
318.397186 4.218269 
318.455139 3.818202 
318.650635 4.160649 
318.718109 4.926551 
318.732941 4.542921 
318.824738 4.230793 
318.859833 5.266259 
318.897644 4.875873 
318.986786 4.070128 
319.084076 6.071575 
319.163849 5.034453 
319.188202 4.412636 
319.232819 8.964833 
319.414154 4.510527 
319.438538 4.508752 
319.487274 4.20189 
319.511658 4.897456 
319.560425 3.908361 
319.602417 4.559351 
319.709473 4.481253 
319.836945 4.116469 
319.923798 4.754411 
319.955017 4.969118 
319.963135 3.932876 
320.172272 5.281707 
320.233429 4.621171 
320.29187 3.899088 
320.310883 4.028265 
320.414246 5.402951 
320.429199 4.797235 
320.47818 4.117177 
320.636047 4.281407 
320.695984 3.954349 
320.785889 4.04318 
320.847198 4.057022 
320.893555 4.368988 
320.94809 4.580007 
320.964447 3.952017 
320.980804 4.378127 
321.047638 5.382421 
321.238708 4.010316 
321.402618 4.172485 
321.438171 4.155248 
321.494202 4.252696 
321.610413 3.964183 
321.621368 4.562932 
321.674713 4.460998 
321.717133 4.489288 
321.725342 5.488875 
321.771881 3.974019 
321.791046 4.043528 
321.804749 4.256341 
321.867737 3.779034 
321.921143 4.275969 
321.929352 4.212258 
321.941681 4.068599 
321.980042 3.844754 
322.085571 4.130665 
322.096527 4.4713 
322.217194 4.235558 
322.262482 5.059564 
322.285797 4.618118 
322.420319 4.607276 
322.582367 10.386729 
322.679962 3.836277 
322.873871 4.222365 
322.882111 7.699364 
322.931641 3.782983 
322.992218 4.560148 
323.007355 4.274749 
323.12854 3.935585 
323.157471 4.143243 
323.25531 4.349555 
323.285614 4.059018 
323.377991 4.452533 
323.398682 3.964432 
323.431793 4.468534 
323.506287 4.034625 
323.609802 4.134091 
323.659515 4.284719 
323.678864 7.127276 
323.705078 4.376275 
323.884705 4.614854 
323.897156 4.238877 
323.917877 4.523757 
324.038208 4.06551 
324.133667 4.151129 
324.154419 8.234133 
324.182129 3.920096 
324.280426 4.633844 
324.299805 4.177603 
324.316437 4.078657 
324.355225 4.25954 
324.37323 4.033796 
324.40094 4.502028 
324.475769 4.21272 
324.489624 5.280567 
324.510437 4.41975 
324.527069 9.284658 
324.570038 4.537075 
324.644928 4.75471 
324.726807 4.189096 
324.847565 4.423064 
324.862823 3.942841 
324.90033 4.338276 
324.98645 4.059337 
325.040649 4.520808 
325.128204 4.778598 
325.182434 3.761152 
325.522003 4.48874 
325.533173 4.109479 
325.547089 4.810806 
325.574951 4.944895 
325.676666 4.31141 
326.012848 5.269266 
326.029602 4.429801 
326.191589 4.117085 
326.222321 4.071139 
326.328552 7.992314 
326.448822 3.8973 
326.485168 4.121846 
326.508972 4.742561 
326.696533 4.356986 
326.774963 4.497488 
326.830994 4.246091 
326.833801 4.527171 
326.836609 4.523434 
326.866028 4.36578 
327.006226 4.956061 
327.073547 3.778793 
327.194214 3.887401 
327.421722 4.201184 
327.587585 5.022042 
327.642426 4.592945 
327.660706 4.647102 
327.743713 3.89456 
327.771851 4.074339 
327.788727 4.086831 
327.805634 8.296699 
327.833771 4.224149 
327.878815 4.343584 
327.894318 4.518791 
327.999939 4.490794 
328.138031 6.227858 
328.146484 4.013044 
328.187378 4.238142 
328.197266 4.20166 
328.321381 11.08462 
328.345367 4.276362 
328.365112 4.097487 
328.492157 5.20847 
328.557098 4.171432 
328.559937 4.384675 
328.562744 4.309797 
328.592407 7.551831 
328.699799 4.241784 
328.713928 3.847131 
328.726654 3.800193 
328.80014 4.159009 
328.845398 4.538127 
328.899139 3.890965 
328.931702 4.079584 
328.976959 4.123127 
328.988281 3.962143 
329.026489 3.949617 
329.037811 4.370687 
329.16098 4.040624 
329.170898 4.812446 
329.187897 4.338303 
329.291321 4.34912 
329.352264 3.900131 
329.448669 4.714931 
329.45578 4.488558 
329.503998 9.076365 
329.51535 3.581595 
329.587677 4.174992 
329.626007 4.174392 
329.773651 3.784721 
329.854614 4.115852 
329.867401 4.682876 
329.985352 5.032123 
329.9953 4.42008 
330.010956 5.276144 
330.070679 3.934878 
330.271271 4.116078 
330.392303 4.568403 
330.459259 4.345022 
330.479187 4.284506 
330.563263 4.833805 
330.588928 4.496671 
330.658783 3.820301 
330.714417 4.043297 
330.794281 4.162123 
330.864197 3.851419 
330.877045 4.128384 
330.918457 4.174032 
331.025543 4.635831 
331.225586 7.972276 
331.374329 8.494116 
331.450165 5.542525 
331.591858 3.765027 
331.656311 6.109775 
331.833984 4.405818 
331.844025 4.431089 
331.851196 4.338397 
331.917145 4.593741 
331.928619 4.295454 
331.978821 3.993626 
332.050568 5.548293 
332.161072 4.379031 
332.29895 7.559185 
332.329102 5.038051 
332.656921 3.86287 
332.717377 4.093002 
332.738953 5.159513 
332.848358 4.130893 
332.898773 4.475232 
332.939117 5.306828 
332.983795 4.847665 
332.999634 3.83668 
333.060181 4.189585 
333.135132 9.477929 
333.195709 4.413153 
333.218781 3.891803 
333.227448 3.915659 
333.262054 4.373578 
333.345764 4.322483 
333.397736 4.819011 
333.420837 4.061283 
333.480042 4.283085 
333.539246 4.720578 
333.546478 4.032549 
333.562347 4.284601 
333.646179 9.300987 
333.708313 4.203225 
333.735809 3.969311 
333.766174 4.131707 
333.805206 4.096661 
333.819672 4.31497 
333.837036 4.274196 
333.884766 4.278342 
333.907928 3.908602 
333.928162 4.248628 
334.126526 4.950061 
334.156921 3.936828 
334.206207 4.390962 
334.31778 4.621417 
334.345337 4.206717 
334.40332 4.214943 
334.423645 9.459421 
334.500519 4.205796 
334.529541 4.031236 
334.612244 4.636131 
334.634033 4.021489 
334.740021 4.067046 
334.777802 9.159624 
334.840271 4.239654 
334.96817 4.511818 
334.973999 3.949947 
335.029236 4.585241 
335.081604 4.271376 
335.106323 3.719485 
335.152893 4.588186 
335.200897 4.351925 
335.206726 4.062743 
335.280975 3.999923 
335.334839 4.303642 
335.461578 4.675992 
335.509674 4.355499 
335.633575 3.992474 
335.759003 3.976502 
335.885986 4.444026 
335.909332 4.053835 
335.970673 3.864027 
336.042236 4.202347 
336.191315 4.694069 
336.251251 4.455918 
336.305359 4.150135 
336.463379 4.584645 
336.517517 4.312623 
336.565857 4.091758 
336.602448 4.295405 
336.611237 4.638328 
336.813446 4.041151 
336.899963 3.912375 
336.902893 3.804675 
336.905823 3.962304 
336.976227 4.18494 
336.99234 4.50506 
337.05838 4.234034 
337.140564 3.806774 
337.253632 4.429845 
337.332977 4.135158 
337.341797 4.779194 
337.407928 4.513141 
337.499054 6.597703 
337.59613 4.035992 
337.625549 4.214811 
337.653503 4.424626 
337.669678 3.827094 
337.678528 4.616171 
337.707947 4.566345 
337.724152 3.876123 
337.735931 6.651821 
337.986267 5.078247 
338.042297 5.041513 
338.054077 8.969271 
338.092407 9.154178 
338.207428 4.250771 
338.256104 3.984655 
338.377106 4.543088 
338.422882 5.210475 
338.430267 4.542159 
338.671051 4.86699 
338.83075 4.995982 
338.949097 4.32007 
339.034943 4.417476 
339.12674 4.92066 
339.134155 4.633748 
339.144531 5.006292 
339.255646 4.438511 
339.273407 5.597986 
339.311951 4.608487 
339.421661 4.266192 
339.45282 4.019424 
339.50769 4.486272 
339.651642 4.230411 
339.700623 4.187704 
339.782318 4.217421 
340.034943 3.95304 
340.049835 3.935847 
340.17923 3.803957 
340.222382 4.104036 
340.280426 3.959667 
340.42041 4.674071 
340.438293 3.922436 
340.488922 4.006992 
340.532135 4.450387 
340.675262 5.139335 
340.699127 4.634059 
340.745361 3.990393 
340.781158 4.71679 
340.819946 4.404621 
340.906494 4.027248 
340.987122 3.762866 
341.055817 4.217123 
341.140991 3.795123 
341.167877 5.064298 
341.232147 4.679912 
341.321869 4.241115 
341.498383 4.114017 
341.505859 4.3622 
341.670563 4.828161 
341.73645 3.756505 
341.75296 4.478166 
341.784424 4.393103 
341.868347 4.246056 
341.919312 4.713316 
341.953796 4.172593 
341.992798 4.942815 
342.13681 4.090748 
342.217865 5.06915 
342.259918 4.70981 
342.335022 5.353317 
342.378571 5.764771 
342.453705 4.748655 
342.492798 4.514094 
342.647675 4.842846 
342.67926 5.474891 
342.691284 4.760242 
342.76651 4.360115 
342.802643 4.59176 
342.838776 4.583308 
342.915558 4.698373 
342.923096 4.5597 
342.930603 4.106188 
342.974304 7.9125 
343.00293 4.583295 
343.031555 4.176517 
343.118958 4.316666 
343.216949 4.714442 
343.235046 4.644274 
343.317993 4.23731 
343.330048 3.966793 
343.408508 4.002417 
343.487 4.306366 
343.668243 4.622971 
343.678833 3.910713 
343.699982 4.526512 
343.840546 4.640496 
343.864746 3.991893 
343.926758 4.134282 
343.991791 4.397997 
344.008453 4.508297 
344.026611 4.39352 
344.049286 7.006663 
344.1492 3.971139 
344.176453 4.404613 
344.202209 4.253932 
344.229462 3.940582 
344.344604 4.162922 
344.353699 4.664234 
344.408264 3.916547 
344.458282 4.180285 
344.470398 4.483628 
344.524994 6.780511 
344.572021 4.480946 
344.619049 4.552591 
344.647858 4.926037 
344.667603 4.775197 
344.68277 4.677263 
344.795105 5.236739 
344.962158 4.936376 
345.021423 4.68784 
345.114166 4.905587 
345.203888 4.859076 
345.278412 5.074942 
345.419983 4.25032 
345.485443 4.121883 
345.553986 4.356328 
345.595123 4.676334 
345.709412 4.466011 
345.744476 4.57018 
345.817657 3.823092 
346.109131 4.73124 
346.182434 4.24996 
346.21759 4.704433 
346.252716 4.488856 
346.303162 4.804724 
346.439209 5.623837 
346.504974 5.023594 
346.607483 3.89562 
346.687073 4.149063 
346.69931 4.030022 
346.785065 4.062458 
346.866241 4.378276 
347.014893 4.032835 
347.255707 4.795546 
347.321686 4.073837 
347.435333 4.238273 
347.547455 4.494704 
347.636597 4.430506 
347.647339 4.414732 
347.667328 4.755437 
347.67041 4.376499 
347.673492 4.430567 
347.753448 4.087695 
347.801117 5.7042 
347.839569 3.778531 
347.948853 4.195589 
348.011963 4.398712 
348.101257 4.143703 
348.162872 3.816776 
348.26767 4.145006 
348.316986 4.364883 
348.622437 4.18554 
348.661041 3.895947 
348.71817 4.160071 
348.767578 4.363319 
348.817017 4.949409 
348.977753 3.96854 
349.064362 4.173892 
349.361481 4.606786 
349.406403 4.231715 
349.412598 4.20659 
349.521027 4.524857 
349.556671 4.951047 
349.576843 4.82663 
349.669861 4.189715 
349.753601 7.949691 
349.877716 3.833832 
349.93515 8.024867 
350.003479 4.362377 
350.037628 4.74258 
350.051605 3.976595 
350.095123 4.19023 
350.207001 4.376741 
350.217865 4.113027 
350.242737 4.703998 
350.250519 4.507205 
350.270721 4.218818 
350.294037 4.455928 
350.547607 4.028074 
350.641022 4.085409 
350.686157 4.701233 
350.731323 9.186083 
350.760925 4.098011 
350.787415 4.192461 
350.796783 4.67829 
350.927704 9.338281 
350.971344 4.7622 
351.027496 4.754902 
351.206909 4.334248 
351.33963 4.636428 
351.430237 5.096656 
351.473969 4.612517 
351.517731 4.132646 
351.544312 4.428712 
351.58963 6.873841 
351.613098 4.131787 
351.695984 3.944649 
351.714752 4.284652 
351.724121 4.91727 
351.742889 4.161059 
351.756989 3.968413 
351.828949 4.510002 
351.877472 4.036938 
352.00589 3.963931 
352.085754 4.02081 
352.123383 4.561754 
352.167236 4.013511 
352.300507 4.265802 
352.473053 3.898698 
352.520142 4.958441 
352.523285 4.865543 
352.526428 4.049685 
352.606506 4.727644 
352.652039 4.095989 
352.82486 4.905639 
352.835846 5.057915 
352.944336 4.100113 
353.004089 5.170789 
353.071716 8.059494 
353.170868 3.540402 
353.202362 3.866603 
353.248016 4.505964 
353.25116 5.094567 
353.290527 4.348383 
353.328308 4.487453 
353.619873 4.735589 
353.678223 4.250704 
353.755524 4.16658 
353.780792 4.368336 
353.828125 4.638613 
353.914948 4.052853 
353.933899 4.899781 
354.008118 4.173931 
354.162994 4.403337 
354.170898 4.617201 
354.262573 4.729706 
354.430267 4.123739 
354.504639 4.358141 
354.623383 4.023488 
354.677246 4.159321 
354.699402 3.982814 
354.729523 3.969558 
354.772308 11.329885 
354.876923 4.00768 
354.900696 4.290839 
355.119598 3.65695 
355.152924 4.586669 
355.183075 4.278415 
355.208496 8.344822 
355.230713 6.264383 
355.284698 4.114356 
355.306946 4.3583 
355.321228 7.087273 
355.394318 4.680292 
355.475372 4.157246 
355.494446 4.58981 
355.527802 5.76776 
355.540527 4.160569 
355.682068 4.4283 
355.793457 4.671481 
355.881012 4.487746 
355.911255 6.345155 
355.952667 4.21398 
356.056213 4.089946 
356.072144 3.903707 
356.118347 4.086197 
356.209198 4.31485 
356.282562 7.451987 
356.365509 4.652965 
356.429321 4.502869 
356.437317 3.999424 
356.45166 4.637913 
356.520294 4.9734 
356.529877 7.896312 
356.561798 8.316401 
356.595337 4.493993 
356.606537 4.127937 
356.884552 4.420946 
356.93573 4.166072 
356.961334 4.133598 
356.994904 4.202413 
357.162933 4.155097 
357.182129 3.947034 
357.233368 5.34292 
357.388733 4.169433 
357.512146 4.282563 
357.537781 4.508534 
357.678925 8.375064 
357.818512 4.345557 
357.83136 4.235017 
357.876312 4.58588 
357.88916 4.536242 
357.938934 4.209247 
358.035309 4.134478 
358.130127 5.146053 
358.163879 6.729039 
358.239441 3.946532 
358.273224 4.507672 
358.389038 4.563718 
358.426056 4.573303 
358.4888 14.234003 
358.506531 5.211839 
358.509735 4.880025 
358.53067 24.215433 
358.54837 4.109652 
358.558044 4.870604 
358.570923 5.368782 
358.574127 4.709019 
358.577362 4.410031 
358.593475 4.880127 
358.712646 8.862164 
358.749725 5.124978 
358.859314 7.777608 
358.933502 4.19334 
358.957672 4.489013 
358.975433 4.150279 
358.996399 4.447477 
359.006073 6.560153 
359.143219 4.610359 
359.183594 3.964111 
359.252991 4.405478 
359.267548 4.440614 
359.290161 4.142162 
359.369293 4.403296 
359.416168 4.293571 
359.62793 4.191073 
359.862549 4.89846 
359.961334 4.626851 
359.996979 4.047795 
360.061768 6.906269 
360.124969 4.52332 
360.158997 4.123527 
360.171967 4.838525 
360.201141 4.380584 
360.222229 4.540071 
360.280609 4.608144 
360.303314 4.215913 
360.485016 5.582922 
360.489899 4.606673 
360.493134 4.507612 
360.535339 4.529091 
360.626282 4.231873 
360.795258 4.027745 
360.905792 4.601847 
360.922058 4.375434 
360.925293 5.544603 
361.004974 4.306313 
361.063568 4.611714 
361.091217 4.866491 
361.265381 4.487628 
361.343567 4.331292 
361.390808 4.547847 
361.460876 4.476079 
361.47229 4.311172 
361.636963 4.47412 
361.837646 4.055302 
361.855591 4.136634 
361.935577 5.269611 
361.943756 4.368741 
362.045013 4.738495 
362.187195 4.405792 
362.282013 4.35423 
362.308197 4.482982 
362.3638 7.345273 
362.427612 4.687444 
362.535614 4.793278 
362.552002 4.237472 
362.584717 5.643358 
362.602753 4.109323 
362.720673 4.826795 
362.907501 4.357365 
362.956696 4.614288 
362.977997 3.893137 
363.017365 9.723429 
363.135498 5.03854 
363.174896 4.15258 
363.222473 5.496644 
363.237274 4.756159 
363.258606 4.31438 
363.473785 4.643038 
363.600372 7.609488 
363.634888 4.795372 
363.802673 4.2738 
363.850403 4.280798 
363.880035 5.203142 
363.906372 4.148591 
363.91626 4.299251 
363.927765 5.272376 
364.046356 4.315026 
364.146851 4.461136 
364.17981 4.624449 
364.277069 4.307306 
364.290253 7.500527 
364.347992 4.525085 
364.47995 5.052092 
364.499756 4.154968 
364.549286 4.939372 
364.683014 4.115188 
364.70282 4.536909 
364.7276 4.254036 
364.749084 4.838362 
364.778809 7.307842 
364.8284 8.760839 
365.033386 5.581676 
365.195526 7.687833 
365.240234 4.594337 
365.283264 4.563787 
365.405823 4.312849 
365.56488 6.548603 
365.680939 4.301648 
365.68924 4.592088 
365.727386 4.841611 
365.851807 3.906775 
366.014496 4.486661 
366.049377 4.771414 
366.059326 4.352561 
366.097534 4.616771 
366.360138 4.371405 
366.390076 4.928971 
366.40506 4.118525 
366.496552 4.070551 
366.791229 3.914795 
367.096283 4.314913 
367.12796 4.169074 
367.223083 4.529599 
367.25647 4.123244 
367.396698 4.825275 
367.451813 3.881993 
367.530334 5.169081 
367.538696 4.451601 
367.89151 4.715573 
367.903229 4.619495 
367.919983 4.373351 
367.988586 4.179989 
367.991943 3.725114 
367.996979 5.309653 
368.144348 4.868237 
368.176178 4.542135 
368.213013 4.134594 
368.285095 4.54374 
368.300171 4.457686 
368.313568 4.509924 
368.338715 4.645561 
368.689362 4.100414 
368.749786 4.571812 
368.884186 4.272205 
369.101013 5.720664 
369.122864 4.171688 
369.141388 8.627004 
369.203613 4.201645 
369.235596 7.13837 
369.328156 4.695924 
369.414001 4.037203 
369.48642 4.706794 
369.550415 4.506722 
369.572327 4.059316 
369.599274 4.592068 
369.772919 3.985372 
369.848816 4.350408 
369.960144 7.909661 
369.97702 3.900965 
369.988831 4.569819 
370.049622 4.33753 
370.074921 3.959316 
370.152618 4.108494 
370.277618 4.305292 
370.370575 4.270414 
370.460175 4.916799 
370.495667 4.216003 
370.539642 3.690597 
370.558258 4.284381 
370.612396 6.511974 
370.827393 4.76188 
370.847687 4.227972 
371.186646 4.325253 
371.22226 4.817149 
371.315582 4.436357 
371.459839 7.59139 
372.037781 4.49224 
372.122864 5.076468 
372.197784 4.264491 
372.243774 4.516366 
372.369843 3.838254 
372.390289 4.346615 
372.461884 3.944224 
372.70575 4.52053 
372.874756 4.130736 
372.886688 4.122146 
372.996002 5.327392 
373.031891 4.137694 
373.324219 4.654643 
373.390961 4.578709 
373.502197 4.208202 
373.512482 4.509857 
373.783081 4.433343 
373.942535 3.72746 
373.949371 4.581324 
374.000824 3.943969 
374.088318 4.188059 
374.174133 4.649327 
374.223907 4.261506 
374.330383 4.526599 
374.364746 5.005046 
374.393951 4.110939 
374.440338 4.259181 
374.59845 4.607141 
374.653473 4.817304 
374.665527 4.209208 
375.075165 5.102218 
375.128571 4.431849 
375.231995 4.921002 
375.326813 5.118268 
375.364746 4.465014 
375.404419 4.132803 
375.52002 4.097336 
375.539001 4.26422 
375.556244 4.444338 
375.595947 5.20739 
375.633942 4.106634 
375.673645 4.206613 
375.689178 8.057442 
375.742737 4.212579 
375.753082 5.113163 
375.770355 4.306863 
375.785919 4.721368 
376.072845 4.508915 
376.21991 3.995719 
376.242401 4.350748 
376.297791 4.953555 
376.370514 4.253726 
376.391296 8.360105 
376.573181 4.785604 
376.661591 4.53513 
376.684113 4.122487 
376.75174 4.216129 
376.841949 4.532621 
377.206512 4.310224 
377.239532 8.826484 
377.355988 4.817876 
377.472473 4.254678 
377.496826 4.239764 
377.5177 4.20706 
377.590759 4.112521 
377.683014 4.527749 
377.719543 4.307294 
377.874542 4.435158 
377.891968 4.396173 
377.912872 4.122911 
377.933777 4.638508 
378.087158 4.414148 
378.179565 4.613242 
378.191772 8.576737 
378.291229 6.382373 
378.315643 5.964005 
378.395935 4.230993 
378.406403 4.542227 
378.579285 4.139824 
378.595001 4.380517 
378.69809 4.420005 
378.754028 4.454624 
378.802979 4.476175 
378.862427 4.728233 
378.932404 4.131722 
379.035614 4.37083 
379.077637 4.443749 
379.210693 4.078326 
379.259735 4.359077 
379.271973 4.476578 
379.357819 7.549696 
379.377106 4.03858 
379.740112 9.70726 
379.796265 4.431426 
379.83313 3.90136 
379.957794 4.620774 
380.124725 4.309887 
380.182709 4.678916 
380.314606 4.205905 
380.393768 6.201506 
380.483521 4.279548 
380.527527 4.896826 
380.823425 4.479446 
380.855164 4.926894 
380.858673 4.195667 
380.862213 4.25792 
380.888641 4.717774 
380.964447 4.402232 
381.036774 4.333093 
381.066742 4.476204 
381.098511 4.166231 
381.12851 3.747746 
381.132019 4.36709 
381.137329 4.620067 
381.237915 5.026794 
381.274994 4.139931 
381.354462 4.429918 
381.384491 4.215302 
381.488708 4.441891 
381.508148 4.729301 
381.518768 4.196207 
381.522308 5.071714 
381.525818 5.154513 
381.539978 4.803497 
381.543518 4.442378 
381.547028 3.914862 
381.594757 4.480475 
381.661957 3.974075 
381.684937 4.730956 
381.695557 4.207498 
381.842377 4.496429 
381.923767 4.354867 
381.960938 4.16875 
382.106171 4.723685 
382.143372 4.259285 
382.162842 18.217232 
382.345398 6.472147 
382.464203 3.948014 
382.474854 5.360273 
382.620361 4.094163 
382.707336 4.019106 
382.970245 4.710966 
383.02002 4.286672 
383.130249 4.503892 
383.204956 4.50822 
383.34198 4.48926 
383.402496 4.347368 
383.443451 4.843662 
383.537842 4.439287 
383.573486 4.506517 
383.580597 4.954893 
383.701782 3.904462 
383.76059 4.41171 
383.781982 4.747438 
383.808746 4.913289 
383.817657 4.291209 
383.899689 4.402624 
383.997833 4.781896 
384.001404 5.53331 
384.004974 4.745199 
384.054932 4.440788 
384.167419 4.717592 
384.208496 4.361808 
384.249573 4.519089 
384.347839 4.597317 
384.35141 5.455405 
384.385345 4.746013 
384.530151 4.395473 
384.580231 4.594863 
384.667877 4.912878 
384.685791 3.945777 
384.775269 4.520198 
384.796722 4.827329 
384.905945 4.294397 
385.02597 4.615868 
385.074341 6.340869 
385.094055 4.680807 
385.126312 5.169438 
385.149628 4.236073 
385.201599 4.484728 
385.284088 5.286271 
385.29126 8.718369 
385.409668 4.222814 
385.49939 4.203519 
385.517334 4.132018 
385.641235 4.954775 
385.669983 3.922226 
385.702301 4.117137 
385.747223 4.579912 
385.766998 4.869051 
385.842468 4.694372 
385.88739 4.67562 
385.934143 4.244171 
385.977295 4.773126 
386.088806 6.94515 
386.112213 4.758903 
386.216583 4.419285 
386.299408 4.94606 
386.403839 4.481848 
386.425476 4.935042 
386.445282 5.222806 
386.589447 8.340223 
386.767975 4.376935 
386.948395 4.63623 
387.026031 4.071246 
387.082031 4.701997 
387.123566 4.66738 
387.269928 4.711401 
387.293427 5.933411 
387.391022 4.170903 
387.477844 4.876606 
387.508606 4.164918 
387.526672 4.34327 
387.653351 5.829692 
387.729401 4.067572 
387.747498 3.742627 
387.758362 4.669579 
387.843475 4.977071 
387.921387 5.014751 
388.102631 4.52834 
388.160645 4.139362 
388.205994 4.37422 
388.216888 4.276851 
388.300354 4.56303 
388.311218 4.271319 
388.371124 4.721048 
388.374756 4.339076 
388.378387 4.154788 
388.559967 5.075309 
388.569031 4.391572 
388.672607 4.804143 
388.763458 3.982121 
388.779816 4.608836 
388.81073 9.054457 
388.865295 4.336852 
388.910767 4.760206 
388.921661 4.284081 
388.934387 3.971063 
388.956238 4.599769 
389.014435 6.524755 
389.289337 4.760145 
389.323944 4.41388 
389.331238 6.104897 
389.524414 4.009295 
389.584595 4.499459 
389.648438 4.234822 
389.779785 4.428416 
389.995209 4.63325 
390.013489 4.431154 
390.028107 4.223055 
390.088379 4.416843 
390.141388 5.091991 
390.159668 4.433405 
390.283966 4.243805 
390.386383 4.48949 
390.448578 4.969182 
390.487 4.256341 
390.510803 5.023006 
390.692047 4.889324 
390.801941 4.217967 
390.845917 4.099036 
391.001709 5.868016 
391.005371 5.196519 
391.009033 4.383678 
391.038391 4.551645 
391.049377 4.069616 
391.18512 4.694908 
391.21817 4.342122 
391.276886 4.441532 
391.572571 4.998486 
391.589111 3.989511 
391.701233 4.659754 
391.80603 4.643656 
391.921936 4.689594 
391.931122 4.599219 
392.017639 3.92355 
392.140991 4.585131 
392.356537 5.560816 
392.507721 9.132313 
392.553802 4.011179 
392.74939 4.560553 
392.784485 4.357088 
392.804779 3.989974 
393.007935 4.410982 
393.174286 5.147254 
393.227905 4.915421 
393.270447 4.237854 
393.294495 7.970746 
393.312988 4.600616 
393.42215 4.485761 
393.485077 3.844701 
393.510986 5.709507 
393.546173 5.361505 
393.640594 4.944748 
393.651703 4.45669 
393.681366 4.833977 
393.692474 4.50437 
393.933411 4.533222 
393.950104 4.203743 
393.964935 4.662684 
393.979767 4.292869 
394.039124 4.359708 
394.159698 4.617475 
394.217255 5.102031 
394.269226 4.173707 
394.293365 4.559094 
394.328644 4.175213 
394.343506 4.313393 
394.389923 4.730597 
394.653809 9.775914 
394.698425 4.725459 
394.774689 4.101489 
394.821198 4.452683 
394.839813 4.282758 
395.009186 4.471553 
395.072479 5.284066 
395.081787 4.77028 
395.26062 3.993105 
395.30722 4.220847 
395.327728 3.883625 
395.385529 4.044782 
395.564575 4.631766 
395.657867 4.130435 
395.725067 4.181659 
395.753082 4.299573 
395.848297 3.92682 
395.868866 4.861193 
395.876312 4.948708 
395.887543 7.440764 
395.954803 4.080227 
396.035156 4.566062 
396.070648 4.477471 
396.108063 4.076689 
396.248291 4.885587 
396.321259 4.532967 
396.448517 4.922197 
396.5047 5.088361 
396.517792 3.743679 
396.69574 3.922322 
396.83255 4.951173 
396.866302 4.385416 
396.900055 4.278665 
396.993835 4.450686 
397.117676 11.624082 
397.15332 6.755193 
397.256592 4.540731 
397.314789 4.046769 
397.410583 10.641678 
397.521484 4.302395 
397.536499 4.247931 
397.562836 4.592932 
397.730194 4.227514 
397.750885 4.945651 
397.841187 4.430987 
397.895782 4.766291 
397.995544 4.069721 
398.13681 4.5307 
398.20462 4.544951 
398.421417 5.100729 
398.474243 5.242362 
398.553467 4.309162 
398.617645 4.92155 
398.655396 4.257776 
398.702576 11.667073 
398.723358 4.254064 
398.842346 4.703368 
398.870667 4.08682 
399.038849 4.504602 
399.05777 5.166118 
399.180664 4.215318 
399.207153 9.573093 
399.280945 4.086984 
399.299866 4.251598 
399.30365 3.930374 
399.307434 4.213451 
399.523224 4.398724 
399.689941 4.576956 
399.729736 4.547809 
399.765747 4.040902 
399.809357 3.805922 
399.835876 4.70064 
399.909851 4.357706 
399.978119 4.243453 
400.035034 5.225273 
400.044525 3.956624 
400.088165 3.956883 
400.179291 4.665858 
400.268524 4.213999 
400.369202 4.52386 
400.386292 4.858784 
400.612488 4.474524 
400.633392 4.043933 
400.738007 4.92387 
400.951172 4.212747 
401.023529 4.238426 
401.059723 4.350719 
401.320801 7.280631 
401.326508 5.364904 
401.465729 4.619025 
401.566864 4.057831 
401.624115 4.228077 
401.639374 5.410223 
401.832245 4.527305 
401.845612 4.592567 
402.04245 4.725459 
402.055847 4.761334 
402.084503 4.342222 
402.174408 4.413971 
402.292999 4.211614 
402.367645 4.700205 
402.390625 3.969886 
402.446136 5.618055 
402.503571 5.447573 
402.543793 4.730021 
402.612762 4.740679 
402.65683 4.731632 
402.698975 8.565043 
402.77948 5.24287 
402.869598 4.469388 
402.873444 5.406704 
402.877258 4.722697 
402.988525 4.638008 
403.000031 3.995205 
403.101746 4.511988 
403.18811 4.623414 
403.214996 4.028293 
403.301422 9.347366 
403.439728 4.137415 
403.553131 11.422779 
403.620453 4.826375 
403.633911 4.067929 
403.778168 4.567834 
403.787781 4.507348 
404.053467 4.210668 
404.090057 4.370016 
404.165192 8.865282 
404.194092 8.209414 
404.344452 5.28365 
404.423523 4.237657 
404.508392 5.924776 
404.545074 4.672142 
404.608734 3.745695 
404.701416 4.430874 
404.826935 4.443023 
404.838531 4.502061 
404.848175 4.610315 
404.908081 5.18525 
405.082031 5.033369 
405.140045 4.270188 
405.143921 3.994318 
405.147766 4.146971 
405.213531 4.055988 
405.300598 4.356553 
405.331573 4.190631 
405.350922 4.532723 
405.362518 11.211751 
405.368317 11.267854 
405.372192 9.239792 
405.379944 4.954543 
405.38382 4.22821 
405.397369 6.206007 
405.451569 5.609311 
405.602631 4.291439 
405.724701 4.935505 
405.740204 4.017824 
405.809998 4.123282 
405.821625 4.614634 
405.841003 4.560649 
405.932159 4.1534 
405.961243 5.735637 
406.005859 3.969396 
406.01944 3.887041 
406.023315 4.495819 
406.027191 4.379573 
406.110657 4.51681 
406.133942 4.607517 
406.137817 4.543728 
406.141693 4.025671 
406.444672 4.240003 
406.50882 3.846383 
406.563232 5.015054 
406.57489 4.136098 
406.588501 4.274059 
406.615723 5.067822 
406.629333 4.270218 
406.642944 4.078447 
406.709076 4.932268 
406.82193 4.243678 
406.882263 4.048533 
406.913391 5.240827 
407.030212 4.892123 
407.104218 4.413573 
407.273743 4.369439 
407.355621 7.460918 
407.439484 4.690879 
407.449219 4.797931 
407.484344 4.880924 
407.654114 4.772954 
407.691193 4.64796 
407.73999 9.098363 
407.800537 4.491635 
407.855225 4.565665 
407.868896 4.629623 
407.892334 4.757278 
408.00177 7.627533 
408.050629 4.606983 
408.099487 4.329988 
408.191406 4.124393 
408.203125 4.753692 
408.220734 4.593507 
408.291168 4.224872 
408.387054 4.969834 
408.441864 4.344621 
408.482971 4.110013 
408.547577 4.685623 
408.598511 4.163321 
408.73761 4.552905 
408.770935 4.986042 
408.817963 8.526624 
408.833649 8.126122 
408.866974 14.161034 
408.910126 5.037715 
408.929718 11.774489 
408.943451 5.508735 
408.959137 6.484296 
408.97287 5.179299 
408.988556 4.931144 
409.035645 4.594122 
409.078796 9.496288 
409.239746 4.953692 
409.306519 3.831904 
409.351685 4.553358 
409.436157 8.920385 
409.447937 4.39008 
409.50296 4.522327 
409.524567 4.675027 
409.53833 5.883767 
409.807739 8.794687 
409.817566 4.014805 
409.856934 4.755509 
409.949432 4.127631 
409.967133 4.39444 
409.99469 4.350268 
410.032104 4.299214 
410.073456 4.471235 
410.09314 4.663388 
410.146332 4.527361 
410.166016 4.42348 
410.203461 4.745036 
410.250763 4.551266 
410.274384 4.639311 
410.325653 5.25666 
410.583984 5.060238 
410.599762 4.137886 
410.609619 4.713998 
410.735931 7.802246 
410.745819 4.286387 
410.775421 8.383269 
410.990723 4.749326 
411.032227 4.098961 
411.069763 5.323119 
411.105347 4.78185 
411.117188 4.50109 
411.142914 4.879476 
411.281342 4.251733 
411.291229 4.082363 
411.350555 5.056065 
411.532654 4.442891 
411.65741 5.093959 
411.691071 4.385832 
411.70694 4.560527 
411.928894 4.779236 
412.153046 4.796647 
412.164948 4.496954 
412.369415 4.81372 
412.603851 11.568133 
412.743011 4.653771 
412.774811 5.244229 
412.816589 4.557934 
412.846436 7.261045 
413.001648 4.524627 
413.01358 4.358586 
413.121094 5.269095 
413.174866 4.691223 
413.306335 4.673893 
413.497711 4.164707 
413.569489 4.681757 
413.699158 5.017178 
413.771027 4.734082 
413.818909 4.909358 
413.856842 4.752523 
413.89679 4.896791 
414.044586 5.04976 
414.112549 4.709229 
414.206482 4.40795 
414.232483 4.654883 
414.52652 4.340666 
414.778839 4.35249 
414.830933 4.097716 
414.846954 4.349973 
415.073486 4.976171 
415.167755 4.604118 
415.225922 4.381874 
415.320251 4.921484 
415.378479 4.473104 
415.420624 7.416931 
415.452759 4.140558 
415.476868 4.665565 
415.740082 4.300643 
415.806427 4.695896 
415.870758 5.216773 
416.122284 4.52661 
416.424408 5.20874 
416.488892 5.306098 
416.755096 4.348142 
416.765198 4.67845 
416.829773 4.243389 
416.910492 4.644761 
417.017517 4.018077 
417.098297 4.407225 
417.108398 4.751575 
417.156891 7.990978 
417.191254 5.008216 
417.417664 4.456952 
417.462158 4.964832 
417.474304 5.04514 
417.537018 7.826236 
417.593689 5.083232 
417.709045 4.268717 
418.016968 4.772829 
418.136566 4.997259 
418.233917 4.847722 
418.252167 4.78923 
418.317078 4.430155 
418.371857 4.645958 
418.473358 5.353576 
418.735352 7.786743 
418.826813 4.878488 
418.924408 4.609294 
418.97525 4.4442 
419.040344 4.856792 
419.060669 5.039077 
419.156311 4.455103 
419.17868 4.562817 
419.451538 4.017244 
419.628845 4.167284 
419.639038 4.521022 
419.718567 4.474665 
419.769531 4.664172 
419.810333 4.122317 
419.832764 5.33954 
419.938873 4.678901 
420.12262 4.213179 
420.410706 4.18248 
420.529297 4.42487 
420.594727 4.532421 
420.63974 4.65909 
420.67453 8.548298 
420.785034 7.102448 
420.975464 4.249356 
421.299286 4.557387 
421.336212 4.563084 
421.393646 4.332847 
421.479828 4.446421 
421.516754 5.098692 
421.586548 4.777644 
421.633759 4.787417 
421.662506 5.304217 
421.754913 4.465279 
421.767242 4.385687 
421.898743 7.093639 
421.915192 4.199712 
421.933685 9.3543 
422.326538 4.327426 
422.349182 4.828841 
422.359467 4.902418 
422.367706 4.240266 
422.511841 4.424398 
422.548889 5.004773 
422.676636 5.524593 
422.69519 4.496655 
422.72403 4.474404 
422.744659 4.147825 
422.845673 5.473884 
422.849792 6.00775 
422.880737 5.356595 
422.959106 5.313819 
423.049896 4.31676 
423.076721 4.457974 
423.101471 5.243723 
423.254242 4.106854 
423.322418 4.685143 
423.471161 5.014797 
423.535217 5.089743 
423.677887 4.71508 
423.76062 4.122034 
423.930328 4.70005 
424.164307 4.337239 
424.296936 4.322923 
424.452423 5.166265 
424.462799 5.094066 
424.562347 4.641669 
424.655731 4.387733 
424.672333 4.765155 
424.701385 4.88875 
424.769897 4.533096 
424.960968 6.07666 
425.166718 4.949887 
425.347626 4.489487 
425.385071 5.504834 
425.432953 4.628802 
425.537018 5.259871 
425.578644 4.458054 
425.643188 5.196632 
425.722351 4.96143 
425.861938 4.131344 
426.049591 4.900695 
426.082947 5.659249 
426.187256 4.560648 
426.197693 4.398318 
426.220642 4.48529 
426.224823 6.06979 
426.229004 4.67283 
426.36676 8.872637 
426.456543 4.089586 
426.51712 8.664248 
426.686371 4.14606 
426.899658 4.424129 
426.991699 4.525137 
427.136108 4.817759 
427.154938 5.950961 
427.251282 4.128885 
427.261749 4.970226 
427.332977 5.047618 
427.471252 5.000432 
427.553009 9.149565 
427.638977 4.800915 
427.762756 4.868403 
427.903351 5.103247 
428.07132 8.55785 
428.434937 5.118945 
428.548523 5.050467 
428.771606 4.554521 
428.836884 4.771618 
428.881134 4.478743 
428.994873 4.667758 
429.112915 4.412549 
429.129761 4.520503 
429.266846 4.427631 
429.292145 4.217972 
429.361755 4.220661 
429.37442 4.969691 
429.456726 5.600583 
429.547485 5.081464 
429.621399 8.806129 
429.716431 4.758187 
429.735443 4.514062 
429.900269 4.468564 
429.91507 4.315215 
430.014465 4.430355 
430.075775 5.009413 
430.403809 5.148888 
430.569031 4.646284 
430.573273 4.173615 
430.577515 4.134801 
430.605042 4.281443 
430.800079 4.514799 
430.823395 4.267182 
430.842499 8.756829 
430.85733 4.027897 
431.027039 4.557327 
431.194763 4.845185 
431.411407 4.497343 
431.666534 4.708231 
431.713318 5.209523 
431.809052 4.48293 
431.823975 4.245916 
431.906952 5.106874 
432.009155 5.083108 
432.18808 4.192548 
432.266937 4.890579 
432.286102 4.143439 
432.407623 4.213793 
432.477997 4.228948 
432.51001 3.988236 
432.574005 4.656822 
432.723389 4.317842 
432.821594 4.557607 
432.900635 4.932121 
432.986084 4.223454 
433.092926 4.189106 
433.197693 4.598907 
433.347412 4.195507 
433.495056 4.656919 
433.557129 4.490525 
433.580688 5.242485 
433.59137 4.314545 
433.792725 4.466619 
434.107849 4.442099 
434.142181 4.567686 
434.36322 4.996996 
434.442657 4.913915 
434.62738 5.179254 
434.640289 4.686489 
434.728394 8.220352 
434.747742 4.36992 
434.848816 4.880521 
434.87677 4.489588 
435.044556 4.372781 
435.057465 4.586213 
435.1651 4.887656 
435.322296 9.345116 
435.516205 4.681669 
435.563629 4.092103 
435.621826 4.728344 
435.641235 4.526706 
435.68222 4.414827 
435.742615 4.349719 
435.774963 7.807 
435.865601 4.846254 
435.891479 4.452495 
435.895813 4.886154 
435.900116 4.518925 
435.954071 4.310374 
436.275879 4.322484 
436.332092 4.211794 
436.358032 4.663604 
436.487762 7.423331 
436.662964 4.553266 
436.678131 5.141907 
436.701935 8.005925 
436.721405 4.429347 
437.000732 4.295244 
437.132935 4.051064 
437.145935 4.927335 
437.260834 4.784125 
437.343231 4.880814 
437.362762 4.964253 
437.54718 4.388544 
437.644867 4.121721 
437.67746 4.380993 
437.805603 5.513097 
437.829498 4.475694 
437.949005 5.048047 
438.003357 4.114274 
438.109894 4.998431 
438.162079 4.714125 
438.170776 5.752889 
438.205597 4.967698 
438.340485 4.78016 
438.344849 5.404776 
438.349182 4.56501 
438.516846 9.532208 
438.579987 5.940433 
438.599609 4.542649 
438.693268 4.001493 
438.70636 5.47326 
438.710724 6.846734 
438.715057 5.303065 
438.867645 5.564411 
439.03775 4.518408 
439.070496 6.547256 
439.122864 4.484087 
439.221069 4.122951 
439.349884 5.275427 
439.360809 5.933985 
439.40451 4.611765 
439.498444 5.956845 
439.738892 4.217657 
439.749817 4.717671 
439.942322 5.828399 
439.99704 4.379086 
440.099945 4.609384 
440.132782 4.318809 
440.170013 5.483219 
440.191925 4.227857 
440.347443 4.440961 
440.411011 7.97186 
440.560089 6.057709 
440.577637 4.659818 
440.665375 5.508972 
440.680725 4.352602 
440.893616 4.291373 
441.012177 4.421381 
441.023163 4.703562 
441.102264 4.516846 
441.33963 4.826433 
441.394592 4.323158 
441.418793 10.955321 
441.62561 4.725884 
441.6586 5.174134 
441.856781 4.427735 
441.931671 5.000914 
441.980164 4.168604 
442.09256 4.724976 
442.103577 5.052 
442.119019 4.466146 
442.273376 4.397557 
442.337341 4.768839 
442.447693 6.1065 
442.595581 4.461707 
442.761261 6.462092 
442.951324 4.599995 
443.165833 4.646596 
443.223358 4.898052 
443.32962 8.927279 
443.362823 4.335532 
443.458038 4.461733 
443.579865 4.165399 
443.66626 4.429862 
443.723907 4.359238 
444.465179 4.510762 
444.551849 4.568742 
444.576294 9.178967 
444.64743 5.183445 
444.807587 4.410521 
444.88324 4.665751 
445.039032 4.092669 
445.054626 4.30436 
445.357605 5.455619 
445.70105 4.258713 
445.850586 4.335078 
446.275085 4.817789 
446.453979 9.903641 
446.592712 8.700992 
446.641968 4.547753 
446.671051 4.717383 
446.762878 4.384149 
446.856934 4.226525 
446.86142 4.668532 
446.865906 4.500288 
446.906219 5.316386 
446.964478 4.418192 
447.00705 8.567779 
447.240234 5.065683 
447.276123 4.739072 
447.377106 4.484738 
447.547699 4.001629 
447.62854 4.457222 
447.754333 4.707224 
448.033081 4.59997 
448.055573 4.385124 
448.109558 4.33854 
448.195038 4.304778 
448.215302 4.288062 
448.323334 4.546053 
448.334595 9.077338 
448.384125 4.469298 
448.422394 4.235107 
448.435913 4.216178 
448.512482 5.240909 
448.589081 4.732958 
448.622894 4.546103 
448.654449 4.785635 
448.66571 3.990413 
448.760376 4.53662 
448.787445 4.6642 
448.825775 4.597418 
449.019745 4.792414 
449.055847 4.539803 
449.152924 4.191684 
449.39682 4.088296 
449.437469 4.427026 
449.582123 4.086219 
449.758514 5.006357 
449.839966 8.315063 
449.896515 4.160799 
450.002899 4.762074 
450.10025 8.542231 
450.190857 4.22655 
450.338135 4.331285 
450.43335 4.38111 
450.483215 4.683122 
450.544434 9.190038 
450.576202 4.78666 
450.614746 5.051236 
450.62384 6.028104 
450.707764 4.185782 
450.730469 4.250682 
450.832611 4.548252 
451.052887 5.114631 
451.096039 4.195016 
451.107422 5.075337 
451.177856 4.768308 
451.193756 4.231885 
451.257416 9.756247 
451.341522 4.428211 
451.37793 4.415469 
451.557648 4.145128 
451.687378 4.672504 
451.735168 5.35396 
451.755676 5.324466 
451.773895 8.656729 
451.78299 4.165481 
451.81488 4.292073 
451.860443 4.248271 
451.951569 4.435905 
452.070068 4.269454 
452.104279 10.074406 
452.298096 4.157466 
452.416748 4.20086 
452.549133 4.435669 
452.891785 5.046827 
453.056396 7.852653 
453.070129 8.715814 
453.385895 5.093698 
453.413361 4.323867 
453.422516 5.219455 
453.427094 4.68227 
453.431671 4.358043 
453.456879 4.907822 
453.4729 4.356033 
453.59201 6.031376 
453.626373 4.194443 
453.73407 5.026408 
453.756989 4.605843 
453.791382 5.563937 
453.83725 4.623321 
453.94043 4.692937 
453.977142 4.378363 
454.10791 4.707097 
454.188232 4.490706 
454.436249 5.335921 
454.479919 4.447762 
454.728149 4.321182 
454.852356 4.831863 
454.967407 9.638333 
455.119354 4.995028 
455.255219 4.815489 
455.409607 5.124913 
455.47876 4.443777 
455.538696 4.623776 
455.709351 5.053958 
455.771667 4.824029 
455.803955 4.538517 
455.84552 4.286926 
455.903229 4.104546 
455.95401 4.359997 
455.974792 4.28288 
456.03714 4.70291 
456.062531 4.495497 
456.115662 8.816856 
456.145691 4.153485 
456.175751 4.524053 
456.20578 4.503921 
456.226562 4.659813 
456.668274 4.393178 
456.828003 4.532851 
456.8396 4.74439 
456.913696 4.092874 
456.929901 4.47604 
456.948456 4.442368 
457.022583 5.440861 
457.080505 4.179505 
457.085144 3.988887 
457.089783 4.453014 
457.094421 4.329492 
457.09906 3.760757 
457.210327 3.731024 
457.23349 4.473484 
457.314667 4.645566 
457.342499 4.752929 
457.374969 3.909084 
457.416718 4.598465 
457.507202 4.373492 
457.583801 4.891034 
457.737061 4.360126 
457.962402 4.857139 
458.060028 4.185094 
458.078644 4.915411 
458.127472 8.196072 
458.150726 4.386004 
458.30426 4.495249 
458.418274 4.383924 
458.448547 4.481766 
458.513733 4.748644 
458.683746 4.429132 
458.71402 4.099406 
458.779266 4.630747 
458.839874 4.461287 
458.951782 4.524732 
459.019409 4.678543 
459.334412 4.66789 
459.453491 4.336416 
459.537598 5.23435 
459.617035 4.435162 
459.956055 4.854037 
460.06366 4.473052 
460.166656 3.774349 
460.325867 4.251232 
460.38913 4.478731 
460.616455 4.945817 
460.628174 8.396995 
460.689117 4.860495 
460.707886 4.648386 
460.806396 4.226893 
460.827515 5.544836 
461.043427 4.14024 
461.085693 4.492918 
461.149078 4.387607 
461.174927 4.21808 
461.278259 4.15371 
461.282959 4.655818 
461.287659 4.32604 
461.353455 4.62044 
461.365204 4.515795 
461.482727 4.277082 
461.567383 4.409046 
461.593262 4.510117 
461.62619 4.533247 
462.075775 4.420528 
462.111084 7.913976 
462.217133 4.627988 
462.235992 4.973606 
462.287842 4.330194 
462.398651 8.32281 
462.441101 4.249293 
462.467041 3.993035 
462.589691 5.375733 
462.679382 4.438586 
462.769073 4.850178 
462.787964 4.479352 
462.823364 4.35457 
463.019409 4.261292 
463.05722 4.150105 
463.196686 5.490499 
463.236877 4.583755 
463.258148 4.697264 
463.29126 4.174454 
463.364563 4.407169 
463.383484 5.301793 
463.400055 4.338559 
463.471039 6.844334 
463.511261 4.544365 
463.613037 4.727007 
463.676971 4.389431 
463.785889 4.25779 
464.075012 5.915874 
464.108185 4.299002 
464.174591 4.247331 
464.243378 4.35005 
464.276581 4.709287 
464.369141 3.991786 
464.487793 4.791148 
464.670654 4.23298 
464.917786 4.293805 
465.077118 3.921679 
465.117554 4.44489 
465.391235 5.236899 
465.634186 4.820797 
465.798645 4.261048 
465.894012 4.976974 
465.92981 8.763186 
466.328369 4.382163 
466.548157 4.679623 
466.562469 3.981906 
466.660492 4.441692 
466.82547 4.365776 
466.882904 4.574848 
466.98819 4.232439 
467.019287 4.624718 
467.447998 4.196784 
467.651794 4.150371 
467.675781 4.657189 
467.982941 4.43753 
468.006958 3.977834 
468.170258 4.546158 
468.295197 4.961332 
468.46106 4.202804 
468.482727 4.320854 
468.55246 8.707143 
468.752167 4.837646 
468.778625 5.224599 
468.795471 4.279109 
468.858063 4.575236 
468.886963 7.536904 
469.02182 4.318205 
469.154358 5.068896 
469.204956 4.47454 
469.238708 4.482739 
469.35202 4.174031 
469.412292 4.519609 
469.593262 4.629016 
469.689789 4.33048 
469.863647 4.178679 
469.926453 5.463914 
469.979614 7.931149 
470.114929 5.109042 
470.301117 4.131175 
470.436615 4.90789 
470.477753 5.148705 
470.482574 4.525315 
470.487427 4.825354 
470.649628 4.873791 
470.753754 4.313661 
470.775543 4.329331 
470.787659 5.115351 
470.935455 8.004609 
471.056671 5.185636 
471.170654 4.049659 
471.197327 8.805808 
471.291931 3.880024 
471.362305 5.148571 
471.410858 4.204606 
471.41571 5.066652 
471.420563 4.51652 
471.432709 4.42257 
471.47641 7.660468 
471.49826 20.301384 
471.515259 8.027549 
471.529816 19.051182 
471.546814 19.439768 
471.566223 12.528668 
471.575958 21.400341 
471.592957 26.639526 
471.624512 17.232822 
471.636658 7.163959 
471.984222 4.485721 
472.0961 4.907454 
472.283447 4.283405 
472.3078 4.423547 
472.332123 4.68785 
472.346741 4.204761 
472.597595 13.221218 
472.617096 4.701767 
472.636597 4.563252 
472.673126 3.970238 
472.687775 4.481494 
472.785248 4.90249 
472.834015 4.977695 
472.865723 4.800227 
472.924255 4.516986 
472.990112 4.571091 
473.014496 4.244699 
473.043793 4.503893 
473.090149 4.411372 
473.141388 4.132861 
473.168243 4.797966 
473.239044 4.740672 
473.304962 4.541438 
473.322052 4.577481 
473.351349 4.159884 
473.395325 8.301739 
473.458832 4.948536 
473.463715 4.577849 
473.468597 4.612457 
473.559021 4.443964 
473.59079 4.359168 
473.654358 7.134666 
473.830414 3.92109 
474.072662 4.572201 
474.153442 4.685778 
474.327332 4.426443 
474.420441 4.499918 
474.469452 4.160899 
474.486603 4.834857 
474.523376 4.41398 
474.550354 4.257025 
474.655792 4.305961 
474.717102 5.877294 
474.871674 8.462262 
474.989471 6.53846 
475.080322 4.263261 
475.10733 4.489816 
475.237518 4.668663 
475.276825 4.583675 
475.31369 4.638891 
475.330902 4.560765 
475.397278 4.756873 
475.581665 4.658741 
475.739136 4.397821 
475.842499 4.308184 
476.05426 4.291519 
476.09613 4.255408 
476.113373 4.316858 
476.224274 5.297127 
476.317932 4.416242 
476.42395 4.236811 
476.895325 4.487083 
476.996613 6.559873 
477.023804 4.804084 
477.053436 4.519897 
477.268494 4.907736 
477.421814 5.346544 
477.46637 4.570776 
477.656921 4.887204 
477.671783 4.858712 
477.696533 4.494333 
477.825317 4.322678 
478.078064 4.799633 
478.184692 4.469021 
478.281403 4.568478 
478.306213 4.727712 
478.363281 4.596234 
478.579224 4.484463 
478.63385 4.424397 
478.673584 4.874631 
478.713318 4.505636 
478.777893 4.422125 
478.999084 4.430397 
479.036377 7.600809 
479.178131 4.365476 
479.324951 4.141197 
479.342346 4.40406 
479.429474 4.604779 
479.912811 4.718148 
479.9552 4.689951 
479.965149 4.675663 
479.990112 4.637203 
480.069916 5.262087 
480.127289 4.571924 
480.239594 6.07744 
480.381866 4.29462 
480.489258 4.701096 
480.50174 4.699137 
480.589172 4.746872 
480.614166 8.531629 
480.706635 4.729661 
480.749115 4.742253 
480.901642 4.318827 
480.926666 4.755922 
481.184387 4.154883 
481.221924 10.120989 
481.399719 4.645519 
481.457336 4.857607 
481.482391 4.363843 
481.507446 6.19071 
481.517456 4.3091 
481.522491 4.341084 
481.901062 5.260256 
482.02652 5.092307 
482.076721 4.413394 
482.152039 4.603153 
482.280121 5.228823 
482.325317 4.507392 
482.378082 7.883348 
482.400696 4.303288 
482.476074 4.675913 
482.521332 5.209833 
482.561554 4.33867 
482.777832 4.60161 
482.782837 5.006337 
482.787872 4.797748 
482.83316 9.139034 
482.853302 4.386972 
483.140259 4.290837 
483.208282 5.274741 
483.331726 4.631974 
483.520782 4.195948 
483.540955 4.390407 
483.616608 4.882312 
483.755341 6.364278 
483.896667 4.729376 
484.05069 4.969121 
484.187103 4.442145 
484.23764 4.483099 
484.38678 4.652484 
484.510681 5.47878 
484.745972 6.170247 
484.890259 4.88145 
484.905457 4.412964 
485.171448 4.328522 
485.186676 4.711998 
485.20694 4.850494 
485.28299 4.968821 
485.701569 4.102845 
485.74472 5.117776 
486.28595 4.455854 
486.484375 4.784766 
486.522522 4.189206 
486.555634 4.352799 
486.766937 4.237941 
486.845886 4.569702 
486.929962 4.099576 
487.159393 4.937593 
487.491058 5.025316 
487.503815 4.664227 
487.58551 4.202732 
488.06076 4.664555 
488.209106 4.64907 
488.308868 4.405681 
488.411255 4.165873 
488.503418 5.564564 
488.562317 4.552418 
488.593048 4.254717 
488.628906 4.076255 
488.659637 5.052051 
488.664764 4.88688 
488.669891 4.660868 
488.785187 4.627111 
488.851837 4.35345 
488.864655 4.55064 
489.033875 4.672327 
489.131348 4.744071 
489.254486 9.327396 
489.352051 5.11121 
489.585724 9.473281 
489.716766 4.84753 
489.81189 3.996206 
489.981598 4.885041 
490.197723 4.189484 
490.244049 4.636601 
490.274933 4.729055 
490.35733 4.906384 
490.383087 5.098396 
490.434601 5.704854 
490.483551 3.968093 
490.59433 4.057131 
490.790222 4.23386 
491.138519 5.96051 
491.332153 4.410907 
491.74826 9.038253 
491.862061 4.028266 
491.877563 4.079454 
491.90863 5.216866 
491.926727 11.949119 
491.996613 4.375208 
492.087189 4.658646 
492.110504 4.848922 
492.170044 5.018372 
492.198517 4.254336 
492.234772 4.497355 
492.263275 4.262389 
492.276215 5.467325 
492.281403 5.523152 
492.286591 5.215704 
492.315094 5.006195 
492.359131 4.213464 
492.439453 4.052035 
492.530151 4.529149 
492.579407 4.375891 
492.597565 5.176869 
492.67276 4.765198 
492.693512 4.668935 
492.709076 6.643294 
492.742798 4.659941 
493.147675 9.504678 
493.246399 4.337331 
493.261963 4.836204 
493.280151 13.549932 
493.306152 15.185327 
493.329529 18.795574 
493.339935 17.454203 
493.35553 14.358439 
493.384094 12.629171 
493.43869 4.331088 
493.456879 4.788998 
493.527069 5.943092 
493.560883 8.872971 
493.581696 12.625173 
493.605072 8.673167 
493.625885 4.961563 
493.638885 4.218919 
493.662292 4.396154 
493.68573 8.880643 
493.701324 18.726749 
493.722137 13.333803 
493.740356 4.073641 
493.758575 10.233224 
493.776764 8.871236 
493.808014 6.951646 
493.841827 5.809191 
493.86264 4.646772 
493.878265 8.444588 
493.89389 6.915742 
493.943359 8.534234 
493.982391 7.52063 
494.026672 14.233877 
494.044891 37.966743 
494.057922 19.084391 
494.076141 6.264272 
494.104797 45.772476 
494.130859 57.261295 
494.146484 31.27191 
494.169922 19.543962 
494.190765 17.002914 
494.229858 5.962625 
494.242859 8.773199 
494.331482 8.738301 
494.352325 8.227515 
494.375793 8.835148 
494.417511 10.671617 
494.443573 11.13985 
494.461823 9.704318 
494.47226 14.592331 
494.485291 16.956177 
494.50354 10.977057 
494.52179 8.941091 
494.542664 21.163754 
494.558319 24.957848 
494.587006 16.683708 
494.610474 8.838647 
494.623535 9.801041 
494.649628 7.424549 
494.65744 5.903283 
494.696594 9.726957 
494.748779 8.326831 
494.769653 3.725408 
494.902771 4.329609 
494.936737 4.196646 
495.085602 11.658274 
495.103882 4.376808 
495.153534 5.394184 
495.197937 9.472073 
495.292053 5.391465 
495.312958 8.479253 
495.370483 4.36064 
495.485535 4.782332 
495.50647 8.103644 
495.52478 8.967504 
495.535248 6.598458 
495.590179 4.274701 
495.7341 4.723165 
495.778625 4.424359 
495.838837 4.474355 
495.899048 4.207875 
495.917389 4.960349 
495.967163 9.150102 
496.022156 8.404928 
496.053589 4.286657 
496.069336 4.098145 
496.103394 5.997188 
496.132202 18.903673 
496.16629 4.212259 
496.179382 8.608928 
496.208221 15.795094 
496.276398 8.566344 
496.310455 6.161943 
496.326202 8.862172 
496.352417 9.372641 
496.373413 9.356903 
496.38913 7.055889 
496.402252 23.025248 
496.425873 19.255779 
496.446838 26.104557 
496.457336 36.946339 
496.480957 65.626434 
496.501953 89.359993 
496.525543 72.56176 
496.546539 120.997131 
496.562286 102.73539 
496.57016 106.680344 
496.591156 93.279053 
496.606903 138.676453 
496.625275 95.495445 
496.630524 96.893913 
496.638397 104.547173 
496.669891 48.038429 
496.690887 39.492065 
496.706635 27.422058 
496.727661 15.377562 
496.743408 8.754393 
496.764404 12.307948 
496.774902 9.029679 
496.801178 4.997741 
496.822174 4.511673 
496.835297 4.593649 
496.853699 9.20485 
496.866821 6.622774 
496.898346 3.88879 
496.924622 13.036993 
496.932495 9.833547 
496.948242 7.151803 
496.953522 6.438081 
496.971893 22.006428 
497.003418 9.510196 
497.058624 8.751248 
497.076996 14.834991 
497.132202 21.091473 
497.140106 22.207298 
497.163757 25.012257 
497.184784 40.631691 
497.203186 37.368271 
497.21106 40.908531 
497.216339 44.719456 
497.237366 46.769127 
497.247894 50.006775 
497.282074 70.814819 
497.329407 43.177837 
497.345184 50.107143 
497.360962 64.620224 
497.379395 88.096619 
497.395172 85.128769 
497.41095 108.834969 
497.432007 94.521828 
497.44516 85.547729 
497.455688 82.103104 
497.474091 146.497467 
497.497772 121.113586 
497.516205 102.974228 
497.539886 121.222198 
497.563568 75.374702 
497.579376 73.239296 
497.603058 57.030388 
497.632019 22.26108 
497.653076 43.726212 
497.666229 57.553879 
497.684662 46.577644 
497.710999 43.770779 
497.724182 62.786217 
497.747864 47.934055 
497.763672 57.728466 
497.787384 54.231071 
497.803192 49.198761 
497.834778 22.020988 
497.853241 21.110291 
497.882202 9.393752 
497.90329 10.697409 
497.937531 8.293103 
497.966522 4.389143 
498.006042 4.519267 
498.02713 7.590442 
498.066681 5.206766 
498.11676 8.505831 
498.140503 4.316752 
498.177399 4.467836 
498.330383 4.95753 
498.36203 10.909525 
498.459686 4.782318 
498.483429 6.433215 
498.509827 10.851193 
498.538849 6.38802 
498.623352 5.696947 
498.647125 7.37983 
498.665588 8.895375 
498.681427 5.224324 
498.723694 4.154012 
498.734253 4.690686 
498.760681 4.010485 
498.781799 16.330067 
498.810883 4.555177 
498.816162 4.118578 
498.821442 4.574756 
498.839935 4.638142 
498.879578 8.475378 
498.90863 17.013708 
498.950928 43.539333 
498.958862 41.742485 
498.993225 32.057133 
499.009064 53.710354 
499.027588 21.974384 
499.064606 16.531368 
499.080444 23.764631 
499.096313 33.26926 
499.112183 47.691322 
499.128052 31.7113 
499.1492 29.663553 
499.17038 34.264244 
499.199463 86.12365 
499.217987 103.824333 
499.236481 133.453903 
499.255005 125.699493 
499.281464 108.8396 
499.307922 126.704346 
499.337036 151.826096 
499.35025 134.580017 
499.384674 272.918732 
499.411133 424.900818 
499.432312 525.539795 
499.448181 507.776947 
499.477295 498.869598 
499.49585 535.417847 
499.511719 382.03833 
499.530243 309.222107 
499.548798 242.537674 
499.575256 256.505707 
499.591156 241.359619 
499.60968 281.17392 
499.636169 238.886215 
499.649414 172.057358 
499.673248 189.675781 
499.686493 172.045151 
499.702393 234.51857 
499.720947 257.768097 
499.736847 219.855743 
499.755371 139.157913 
499.768616 86.171989 
499.797791 43.645084 
499.81369 31.592499 
499.82959 10.473677 
499.887878 4.730908 
499.932953 4.426729 
499.983307 4.963878 
500.004517 4.445405 
500.017792 4.641448 
500.023071 4.151957 
500.028381 4.455573 
500.044312 4.179378 
500.070801 5.200674 
500.118561 6.149557 
500.139771 4.764166 
500.1716 4.420685 
500.21405 5.355829 
500.24588 4.144256 
500.280396 4.659504 
500.296295 7.813037 
500.328156 4.100253 
500.397156 4.255563 
500.415741 5.022748 
500.474152 4.943221 
500.583038 4.176542 
500.638824 4.414336 
500.660065 8.837369 
500.86203 5.076774 
500.907227 4.608371 
500.923187 7.264461 
500.955078 5.670392 
501.00827 4.720517 
501.024231 8.624787 
501.096039 4.792072 
501.12265 4.137581 
501.149261 4.933527 
501.218445 5.484535 
501.23175 4.33582 
501.306244 4.250693 
501.348846 7.215314 
501.434052 14.043786 
501.455353 23.528345 
501.463348 21.248922 
501.487305 26.054022 
501.505951 6.409854 
501.527252 14.873815 
501.540588 15.957174 
501.548584 12.849629 
501.569885 8.037791 
501.585876 16.571045 
501.609833 15.239551 
501.628479 5.272289 
501.652466 17.455347 
501.687103 15.893904 
501.71109 5.879451 
501.719086 6.600569 
501.748413 8.165465 
501.753754 8.773499 
501.820374 8.029608 
501.863037 4.997868 
501.876373 9.102355 
502.12442 4.093124 
502.1698 4.264508 
502.356659 4.44707 
502.402039 4.592741 
502.546295 5.136743 
502.565002 4.786232 
502.615753 4.173561 
502.682556 4.6875 
502.70929 4.540787 
502.818909 4.268712 
502.824249 4.762069 
502.82959 4.43568 
502.909821 4.248877 
503.073029 4.380947 
503.099792 4.593457 
503.131897 4.800416 
503.461243 4.724962 
503.496063 4.985969 
503.742645 4.868645 
503.809692 3.861669 
503.87674 4.353213 
504.155823 4.548903 
504.461975 5.588169 
504.478119 3.996178 
504.679718 4.54001 
504.744232 4.867991 
504.935242 4.03002 
505.002502 5.093678 
505.325623 4.391959 
505.387573 4.060709 
505.45224 4.39212 
505.541199 3.929602 
505.689484 4.29414 
505.735321 4.364627 
505.770386 4.420987 
505.899902 4.806889 
505.929565 4.589878 
505.983551 4.365273 
506.075348 7.768255 
506.358948 4.360954 
506.602234 4.470424 
506.623871 8.401698 
506.653595 4.697113 
506.699585 4.097147 
506.962067 5.100052 
507.135345 3.987837 
507.33313 4.35078 
507.352081 5.312342 
507.509308 4.177227 
507.761566 9.977956 
507.775116 5.19111 
507.780548 5.171698 
507.78598 5.690693 
507.79953 9.726873 
507.829407 14.565869 
507.853821 20.621367 
507.880951 13.698599 
507.894531 11.789691 
507.92984 11.021146 
507.94339 8.650829 
507.967834 9.875879 
507.997711 12.700727 
508.024841 4.610878 
508.030273 4.449783 
508.035706 4.465894 
508.06015 17.045603 
508.098175 5.038421 
508.125336 18.622911 
508.152496 4.198855 
508.163361 5.368909 
508.204132 8.551314 
508.225861 6.202567 
508.27478 10.851449 
508.299225 5.531791 
508.326416 26.787594 
508.348145 23.230759 
508.682648 4.464683 
509.033783 3.999448 
509.336243 4.450987 
509.502563 4.465985 
509.568024 4.220999 
509.690826 4.090403 
509.824554 5.56077 
509.843658 4.290115 
509.933777 6.483088 
510.029358 4.34004 
510.04303 4.954203 
510.319031 4.097127 
510.442078 4.932185 
510.472168 3.973458 
510.491302 4.265363 
510.559692 4.231674 
510.600739 4.770952 
510.619904 4.401439 
510.753998 4.269567 
510.806 4.200168 
510.830658 4.072241 
510.866241 5.321473 
511.134705 4.686448 
511.203217 5.226418 
511.30191 3.813228 
511.381439 4.366128 
511.474701 4.277984 
511.502136 4.366011 
511.559753 9.548527 
511.595398 4.46332 
511.63382 4.140999 
511.751862 4.314581 
511.842468 5.333097 
511.875427 4.252985 
512.279419 4.796588 
512.295898 4.439226 
512.444397 4.726323 
512.84906 4.062771 
513.03363 3.986478 
513.141113 4.704732 
513.218323 4.10344 
513.403076 4.745052 
513.590759 4.645213 
513.615601 4.192794 
513.662537 5.023315 
513.786804 4.432061 
513.894531 4.501548 
513.944214 4.360353 
514.192993 4.330424 
514.215149 4.658706 
514.242798 4.744256 
514.314697 4.240595 
514.328491 4.259495 
514.394897 4.59149 
514.768616 4.177529 
514.804626 4.675204 
514.835083 3.944837 
514.882202 4.378474 
515.045715 4.29325 
515.187134 4.940115 
515.325806 4.896164 
515.450623 4.586364 
515.517273 4.351542 
515.656067 4.634867 
515.661621 4.358757 
515.694946 3.979726 
515.708862 4.432507 
515.839417 4.174075 
515.906067 4.395716 
516.042297 5.261852 
516.053406 4.27815 
516.103455 22.592127 
516.122925 13.965512 
516.161865 8.318903 
516.184082 4.350485 
516.19519 4.933411 
516.211914 4.099368 
516.2453 20.387568 
516.273071 43.587933 
516.303711 18.068911 
516.320374 4.179688 
516.345459 9.209639 
516.364929 4.720516 
516.387207 4.421856 
516.406677 4.847579 
516.476257 4.158982 
516.545837 4.368855 
516.562561 4.056409 
516.654419 4.410717 
516.721252 4.150466 
516.737976 4.261304 
516.960938 4.642394 
516.991577 4.823496 
517.167236 4.502407 
517.231384 4.460407 
517.295593 7.256286 
517.334656 4.466262 
517.396057 4.77788 
517.407166 4.309429 
517.446289 5.054139 
517.714355 4.322647 
517.736694 4.267508 
517.812134 4.793764 
517.828918 4.28636 
518.128052 4.503451 
518.147583 4.806167 
518.447021 7.970662 
518.959717 4.050484 
519.094299 8.275274 
519.133606 4.601906 
519.47876 4.168219 
519.520874 5.359694 
519.557373 4.122054 
519.599548 4.885667 
519.768066 8.836368 
519.843994 4.779779 
519.874878 4.324593 
520.032349 4.490979 
520.147705 4.2256 
520.21521 9.146175 
520.237732 4.751643 
520.260254 4.249943 
520.294006 4.521979 
520.445984 4.725321 
520.505127 5.992004 
520.561462 6.362903 
520.645996 4.459924 
520.67981 4.035877 
520.769958 4.286812 
520.78125 5.541826 
520.927795 4.241911 
521.308655 4.825249 
521.449829 4.373603 
521.466797 4.029035 
521.639099 5.051162 
521.647583 4.588333 
521.653198 4.42021 
521.749268 4.080334 
521.802979 3.93613 
521.84259 4.020153 
522.119751 3.913285 
522.24707 4.822886 
522.351807 4.171467 
522.374451 4.291968 
522.462219 4.870571 
522.516052 5.162155 
522.686035 4.707661 
522.853271 4.773672 
522.858948 4.797998 
522.864624 4.571739 
523.057495 4.093497 
523.074524 5.060254 
523.187988 11.890097 
523.44635 4.059046 
523.611084 4.876338 
523.702026 4.67412 
523.838501 4.972209 
523.929504 4.764997 
524.213989 4.837343 
524.299377 4.488009 
524.319336 4.392579 
524.552856 4.48929 
524.78656 4.043739 
524.937744 4.464896 
525.011902 7.773011 
525.145996 4.729012 
525.263 4.203215 
525.277283 4.289885 
525.405762 4.083648 
525.505737 8.419438 
525.55719 4.588848 
525.611511 4.41834 
525.657227 5.010222 
525.900208 8.575086 
525.940247 5.22187 
526.006042 4.424226 
526.020386 4.584072 
526.063293 4.471267 
526.177795 4.42803 
526.237854 4.102516 
526.283691 3.896383 
526.444092 4.106548 
526.469849 4.034641 
526.598755 4.814303 
526.690491 4.115528 
526.842468 4.000333 
526.931335 5.611013 
526.960022 4.78623 
527.175293 4.910539 
527.399231 8.640693 
527.519897 4.223919 
527.56012 4.327264 
527.741211 4.558751 
528.040344 4.22265 
528.143921 4.105999 
528.31958 4.200927 
528.512573 4.148449 
528.524109 4.640348 
528.604797 4.118133 
528.872925 4.536484 
528.96521 4.961246 
529.025818 4.16822 
529.031616 4.38354 
529.037354 4.124481 
529.089294 3.797971 
529.288513 4.176494 
529.378052 4.383839 
529.539856 4.010862 
529.574524 4.351788 
529.727722 4.726508 
529.808716 7.251501 
529.852051 4.244984 
529.866516 5.69065 
530.13855 4.091466 
530.164612 4.779148 
530.208008 4.244914 
530.263 3.933195 
530.375977 4.136715 
530.410767 4.283412 
530.428101 4.627159 
530.564331 4.852072 
530.604858 4.326876 
530.662842 4.100757 
530.900635 4.503147 
530.935486 5.470249 
531.086365 4.661817 
531.211182 4.140651 
531.484253 4.587468 
531.522034 7.187192 
531.597595 5.046822 
531.61792 4.019897 
531.798218 4.26562 
532.054199 3.998359 
532.100769 7.932849 
532.196838 4.533504 
532.700928 5.233948 
532.846741 3.958782 
533.202759 4.630646 
533.302063 7.576762 
533.468567 4.162929 
533.503662 5.050666 
533.588379 4.783915 
533.643921 4.622149 
533.658569 4.307753 
533.930542 4.468507 
533.953979 5.156693 
534.041748 4.359635 
534.059326 6.298802 
534.246643 4.890431 
534.346252 4.587656 
534.422424 4.50318 
534.527893 4.49995 
534.66272 4.606354 
534.692078 4.715394 
534.862183 4.330622 
534.88855 4.535491 
534.944336 4.653336 
535.046997 5.143155 
535.15564 4.535976 
535.281921 4.531436 
535.320068 5.214619 
535.472839 9.006375 
535.516907 5.67351 
535.625671 4.48083 
535.640381 4.680687 
535.728577 4.433959 
535.778564 4.485821 
535.858032 4.185994 
535.958008 4.905895 
535.978638 4.168919 
536.111084 3.983046 
536.364319 9.695052 
536.405579 4.553268 
536.535217 4.262865 
536.647217 4.793216 
536.779907 4.181338 
536.818298 4.977893 
537.075012 4.800407 
537.086792 4.170882 
537.207825 4.404502 
537.243286 4.661039 
537.346619 13.001987 
537.408691 4.763031 
537.467773 3.899908 
537.645142 4.258503 
537.840271 4.089756 
538.106628 4.076438 
538.142151 3.977829 
538.346436 4.11114 
538.598328 4.089939 
538.636902 7.482103 
538.708008 4.318762 
538.91864 4.084108 
538.936401 4.607353 
539.18573 4.075601 
539.206543 4.443173 
539.257019 4.637311 
539.313416 8.473007 
539.524353 4.159578 
539.554077 4.372251 
539.565979 4.498337 
539.628418 4.976805 
539.658142 4.196281 
539.71167 4.751057 
539.934753 3.844688 
540.029968 4.271512 
540.500488 4.40466 
540.518372 4.550561 
540.634583 8.37508 
540.765808 4.348021 
540.956726 4.304018 
541.183533 4.430167 
541.234314 9.481442 
541.246277 4.952866 
541.494202 4.917677 
541.553955 3.837069 
541.640625 4.437108 
541.924744 4.142416 
542.256958 4.284256 
542.295898 4.34942 
542.331848 8.04739 
542.367798 5.200842 
542.436707 4.674313 
542.544556 4.479414 
542.850403 4.185563 
542.895386 4.919964 
542.937378 5.036131 
543.066406 4.177594 
543.102417 4.033165 
543.447754 4.709448 
543.637085 4.872184 
544.028076 4.389369 
544.317078 3.745541 
544.422485 9.971776 
544.449585 4.855724 
544.663574 4.601093 
544.73291 4.59781 
544.772095 6.857967 
544.81134 4.050041 
544.868591 7.052424 
544.901794 7.419633 
545.001343 4.288579 
545.257935 4.448654 
545.345459 4.483435 
545.439148 4.471694 
545.608337 4.425764 
545.889526 3.677132 
545.974182 4.421696 
546.089172 4.545726 
546.186035 4.529721 
546.225403 4.41236 
546.289001 5.149126 
546.3526 4.023094 
546.410095 3.975113 
546.528259 4.370456 
546.5495 4.09634 
546.691956 4.839129 
546.704041 4.105229 
546.710144 4.313179 
546.716187 4.553411 
546.743469 4.434176 
546.970947 4.779411 
547.028564 7.496678 
547.104431 5.507221 
547.149963 4.069725 
547.1651 4.964359 
547.283508 4.718876 
547.487 4.36479 
547.547791 4.197321 
547.572083 4.875921 
547.629822 4.623526 
547.684509 4.045452 
547.721008 4.609238 
547.949036 4.629856 
548.049438 4.458017 
548.125549 4.287863 
548.177246 4.406686 
548.280762 4.966572 
548.311218 4.905756 
548.375183 4.314531 
548.524414 4.323459 
548.609741 4.107242 
548.719421 4.982631 
548.807861 4.672579 
548.874939 4.745405 
549.015259 4.629137 
549.08844 4.336088 
549.15863 4.722285 
549.198303 4.147879 
549.283813 4.32958 
549.332642 4.510581 
549.375427 4.246631 
549.451721 4.005456 
549.732849 4.586835 
549.940735 10.156816 
550.179382 3.943962 
550.252869 4.858479 
550.292664 3.975123 
550.546814 4.670281 
550.61731 4.053174 
550.773621 4.396924 
550.841064 4.341412 
551.427063 3.969367 
551.45166 7.025454 
551.479309 5.367595 
551.596008 5.010181 
551.666687 4.341006 
551.780396 4.374923 
551.909546 7.298047 
551.961792 4.446905 
551.983337 4.067547 
552.004883 3.906845 
552.183289 4.308712 
552.254089 4.065942 
552.377197 4.152716 
552.411072 4.6448 
552.552734 4.934626 
552.632812 9.584332 
552.69751 4.062667 
552.722168 4.360442 
553.005798 4.749198 
553.098328 5.523256 
553.289612 6.688531 
553.567505 11.617939 
553.836304 4.391602 
553.867249 4.579929 
553.916687 5.117379 
553.984741 5.899106 
554.015625 4.506938 
554.096069 8.695852 
554.114624 4.134978 
554.142456 4.464703 
554.29718 4.738656 
554.37146 4.503303 
554.424072 4.564271 
554.45813 7.515602 
554.761658 5.10916 
554.953857 4.319765 
555.049988 6.428603 
555.155396 4.287862 
555.400574 8.150278 
555.509216 4.399321 
555.913086 4.690287 
556.077881 4.592686 
556.597534 4.295414 
556.70343 4.616875 
556.734558 4.417786 
556.915283 5.265515 
556.940247 4.815923 
557.024414 6.122702 
557.049377 4.677022 
557.607849 4.550623 
557.820251 5.2123 
557.970276 4.52118 
558.167236 4.918855 
558.379944 5.122839 
558.658569 4.981413 
558.862122 5.247969 
558.956116 7.435529 
558.974976 4.67223 
559.131714 11.295033 
559.423401 9.347459 
559.445374 4.912162 
559.517517 4.666795 
559.702759 8.876075 
559.815796 4.312071 
559.866089 8.460033 
559.928894 4.682547 
560.098633 5.168795 
560.199219 8.583612 
560.605103 4.977666 
560.683777 4.356925 
560.753052 4.282928 
560.78772 4.420378 
560.929443 4.766691 
560.948364 5.028463 
561.042908 4.19858 
561.096436 5.604379 
561.26355 4.955714 
561.395996 304.013947 
END IONS

