BEGIN IONS
TITLE=Scan Number: 1841
PEPMASS=495.28
CHARGE=1+
COMPOUNDNAME=Rakicidin D
LIBRARYQUALITY=3
SMILES=CN(CC(N[C@@H]([C@@H](C(N)=O)O)C(OC([C@H](C)CCCCCC)[C@H](C)C(N1)=O)=O)=O)C(/C=C/C1=C)=O
INCHIKEY=CIRMNTDTIYXVDA-HQWXCZLASA-N
INCHI=InChI=1S/C24H38N4O7/c1-6-7-8-9-10-14(2)21-16(4)23(33)26-15(3)11-12-18(30)28(5)13-17(29)27-19(24(34)35-21)20(31)22(25)32/h11-12,14,16,19-21,31H,3,6-10,13H2,1-2,4-5H3,(H2,25,32)(H,26,33)(H,27,29)/b12-11+/t14-,16+,19+,20+,21?/m1/s1
MSLEVEL=2
SOURCE_INSTRUMENT=LC-ESI-qTof
FILENAME=f.thomast/Rakicidins/RakD_40eV.mzML;
SEQ=*..*
NOTES=
IONMODE=Positive
ORGANISM=GNPS-LIBRARY
NAME=Rakicidin D M+H
SPECTRUMID=CCMSLIB00000839185
ACTIVATION=CID
INSTRUMENT=ion trap
SCANS=1841
45.394936 116.0 
45.483505 100.0 
51.336884 108.0 
53.746067 88.0 
53.766197 84.0 
54.988091 120.0 
55.054054 168.0 
57.339359 88.0 
58.027439 128.0 
58.310112 128.0 
59.028084 140.0 
60.042496 216.0 
60.397949 64.0 
62.008743 148.0 
63.35791 156.0 
63.839581 164.0 
65.023285 128.0 
65.508072 84.0 
67.055061 120.0 
68.010689 96.0 
68.051468 308.0 
68.331268 116.0 
69.032249 208.0 
69.051254 164.0 
69.070053 1832.0 
70.027122 340.0 
70.034088 120.0 
70.070648 328.0 
71.048615 336.0 
71.058418 144.0 
71.085999 460.0 
71.437614 124.0 
72.082153 104.0 
73.03093 100.0 
73.067238 256.0 
74.328712 108.0 
74.950493 60.0 
79.053329 128.0 
79.651627 160.0 
80.048668 736.0 
81.069611 344.0 
82.06424 416.0 
82.405251 172.0 
83.049866 116.0 
83.05986 140.0 
83.084961 1516.0 
83.494705 204.0 
83.525169 208.0 
84.042984 344.0 
84.08799 156.0 
84.474144 160.0 
84.95787 132.0 
85.066345 160.0 
85.098038 124.0 
86.058578 88.0 
86.093132 144.0 
86.621605 140.0 
87.054688 180.0 
89.073586 228.0 
89.114349 96.0 
90.053719 116.0 
91.055771 192.0 
91.796417 108.0 
91.815193 144.0 
92.844017 64.0 
92.919594 124.0 
92.982002 72.0 
93.069511 352.0 
93.087715 208.0 
94.028938 452.0 
94.065681 516.0 
94.129501 104.0 
95.073601 124.0 
95.085449 848.0 
95.395081 196.0 
95.548378 136.0 
95.6903 76.0 
96.044678 4000.0 
96.070465 128.0 
96.081787 148.0 
96.601707 76.0 
97.028107 112.0 
97.04966 184.0 
97.064362 1428.0 
97.100815 2572.0 
97.122765 164.0 
97.171097 108.0 
97.331619 84.0 
97.374191 72.0 
98.03318 184.0 
98.060402 64.0 
98.070091 124.0 
98.103699 248.0 
98.741226 84.0 
99.023949 132.0 
99.055382 1392.0 
99.081413 132.0 
100.05793 84.0 
100.437874 88.0 
101.072823 156.0 
103.049431 1404.0 
103.126411 88.0 
103.15229 116.0 
103.471214 80.0 
104.034943 340.0 
104.050476 108.0 
105.03894 160.0 
105.065094 100.0 
105.582321 56.0 
106.027962 120.0 
106.062408 100.0 
107.085403 932.0 
108.042419 356.0 
108.082428 228.0 
108.796066 136.0 
109.075249 296.0 
109.101334 420.0 
110.05938 168.0 
110.083694 200.0 
110.103592 88.0 
111.080971 1216.0 
111.089874 604.0 
111.118103 440.0 
111.458916 132.0 
112.080177 456.0 
112.094185 120.0 
112.116173 112.0 
112.923264 84.0 
113.034378 120.0 
113.068298 212.0 
114.018845 160.0 
114.053398 212.0 
115.58947 80.0 
116.696831 160.0 
117.038155 112.0 
117.06575 76.0 
119.060081 120.0 
120.614296 92.0 
120.773705 120.0 
121.07589 1460.0 
121.098808 404.0 
121.849319 96.0 
122.023132 988.0 
122.035545 112.0 
122.061485 492.0 
122.085342 228.0 
122.111366 132.0 
123.021027 108.0 
123.044945 124.0 
123.090935 1536.0 
123.116348 640.0 
124.006104 92.0 
124.037697 100.0 
124.078156 148.0 
124.095291 204.0 
124.120697 248.0 
125.071846 116.0 
125.095627 396.0 
125.133255 116.0 
126.052956 100.0 
126.093712 92.0 
126.786079 136.0 
127.046799 68.0 
127.062248 112.0 
127.099823 120.0 
127.290031 96.0 
128.034821 156.0 
128.96814 100.0 
129.066483 340.0 
129.9767 92.0 
131.045273 132.0 
131.082199 376.0 
133.034973 128.0 
133.096039 180.0 
134.058945 200.0 
135.073853 104.0 
135.089798 128.0 
135.116257 316.0 
136.073196 132.0 
136.126556 100.0 
136.616623 84.0 
137.070602 700.0 
137.089172 140.0 
137.125916 124.0 
137.135086 216.0 
137.194855 64.0 
137.312027 56.0 
137.477509 84.0 
138.101318 96.0 
138.135086 108.0 
139.051422 120.0 
139.061615 144.0 
139.086273 376.0 
140.034851 780.0 
140.070755 248.0 
140.094894 168.0 
141.026154 432.0 
141.038101 252.0 
141.063171 284.0 
141.083099 116.0 
141.1064 100.0 
145.070602 108.0 
145.304489 204.0 
146.064285 132.0 
146.099854 108.0 
147.050858 196.0 
148.073135 136.0 
148.110947 144.0 
148.245697 76.0 
148.950851 136.0 
149.055191 3660.0 
149.069412 3424.0 
149.123245 80.0 
149.132812 120.0 
150.055283 688.0 
150.075333 440.0 
150.106659 136.0 
150.128311 96.0 
151.056274 204.0 
151.086517 96.0 
151.107803 120.0 
151.147812 104.0 
152.068344 604.0 
152.10817 108.0 
153.06395 260.0 
153.081253 88.0 
153.090988 52.0 
153.130585 272.0 
153.162949 552.0 
153.197739 76.0 
153.48671 76.0 
153.958405 64.0 
154.064026 248.0 
154.175003 116.0 
155.043045 112.0 
157.060257 864.0 
158.063431 96.0 
158.093033 92.0 
159.040741 352.0 
159.058563 96.0 
159.791458 112.0 
160.041916 136.0 
160.084106 100.0 
161.130356 132.0 
162.087662 96.0 
162.10762 112.0 
162.970169 88.0 
163.052582 100.0 
163.084839 96.0 
163.146957 516.0 
164.066315 260.0 
164.088577 152.0 
164.149597 84.0 
164.158951 84.0 
165.02951 112.0 
165.065857 532.0 
165.087311 236.0 
165.128113 116.0 
165.162964 108.0 
165.427719 68.0 
165.836578 52.0 
166.028503 140.0 
166.068909 204.0 
166.084076 216.0 
166.096756 100.0 
166.106888 72.0 
166.129608 104.0 
166.364792 64.0 
166.524155 84.0 
166.66333 132.0 
166.957199 52.0 
167.041077 368.0 
167.081146 3092.0 
167.253769 72.0 
168.080475 268.0 
168.085251 180.0 
168.137451 128.0 
169.05629 144.0 
169.082138 164.0 
169.298981 100.0 
169.352554 128.0 
170.03978 56.0 
171.039078 388.0 
171.074387 104.0 
171.102615 80.0 
171.42598 68.0 
172.073532 256.0 
173.08342 124.0 
174.08847 260.0 
174.124725 84.0 
174.873306 176.0 
175.072021 240.0 
175.08606 104.0 
175.096848 100.0 
175.657394 80.0 
176.081284 88.0 
176.112518 76.0 
176.860168 124.0 
177.061035 108.0 
178.084717 160.0 
178.119446 80.0 
179.081223 120.0 
179.096985 92.0 
179.112701 132.0 
179.123215 112.0 
179.140503 148.0 
179.730011 88.0 
179.853546 192.0 
180.079803 140.0 
180.098236 120.0 
180.111359 224.0 
180.891251 116.0 
181.062729 108.0 
181.097031 100.0 
181.115509 92.0 
181.136642 84.0 
181.158585 7916.0 
181.199966 100.0 
181.408615 52.0 
181.493088 112.0 
181.68605 56.0 
182.057816 112.0 
182.162613 1332.0 
183.168198 92.0 
184.070023 164.0 
185.054413 320.0 
186.12706 100.0 
187.088745 116.0 
187.614883 52.0 
188.077133 88.0 
188.120178 76.0 
189.162521 68.0 
190.061691 104.0 
190.080582 156.0 
190.121185 80.0 
191.08371 120.0 
191.106689 80.0 
191.133804 72.0 
191.17984 160.0 
192.032227 92.0 
192.052048 104.0 
192.094727 92.0 
192.108337 76.0 
192.268723 88.0 
193.030823 92.0 
193.062393 640.0 
193.142548 104.0 
194.072983 112.0 
194.089539 132.0 
194.117722 108.0 
194.160385 176.0 
195.03772 288.0 
195.076889 92.0 
196.11911 60.0 
197.084152 168.0 
198.185272 340.0 
199.464386 144.0 
200.088074 76.0 
202.040039 124.0 
202.080887 868.0 
202.118134 80.0 
203.064697 196.0 
203.079025 200.0 
203.14537 92.0 
203.184479 124.0 
204.068298 148.0 
204.082809 68.0 
204.183624 116.0 
204.242523 60.0 
205.129044 116.0 
205.193665 84.0 
205.348221 56.0 
206.097641 116.0 
206.118866 100.0 
207.070053 152.0 
207.086761 200.0 
207.190125 76.0 
208.009476 128.0 
208.034973 80.0 
208.107635 708.0 
209.09166 348.0 
209.116791 144.0 
210.096344 60.0 
210.6026 64.0 
211.032547 56.0 
211.068771 172.0 
212.062134 132.0 
213.1716 104.0 
215.022354 84.0 
215.177643 96.0 
216.073181 108.0 
217.057251 112.0 
217.1931 68.0 
217.979889 76.0 
218.005875 184.0 
218.089981 84.0 
219.078445 104.0 
220.092056 1284.0 
220.118912 80.0 
220.171265 100.0 
220.206177 108.0 
221.057281 124.0 
221.097763 228.0 
221.170456 92.0 
221.444656 120.0 
221.990707 96.0 
222.049164 88.0 
222.06366 316.0 
222.093002 88.0 
222.610535 144.0 
223.035629 112.0 
223.09938 192.0 
224.107544 112.0 
224.201813 716.0 
225.051498 132.0 
225.098526 220.0 
225.116226 128.0 
225.199982 108.0 
226.085266 124.0 
226.105927 100.0 
226.203232 120.0 
230.074463 128.0 
232.077713 84.0 
232.164368 72.0 
232.212982 320.0 
232.230042 148.0 
233.0616 84.0 
233.211304 92.0 
234.082703 96.0 
234.095612 68.0 
234.191238 132.0 
235.075104 124.0 
235.107803 96.0 
235.122772 180.0 
236.106216 112.0 
236.122192 100.0 
236.526138 124.0 
238.087967 76.0 
238.160538 144.0 
238.218109 76.0 
239.223969 124.0 
240.028427 108.0 
240.190353 128.0 
240.910339 68.0 
240.943817 68.0 
241.050339 96.0 
241.181305 76.0 
241.205627 116.0 
244.018768 128.0 
244.067719 264.0 
245.079819 132.0 
247.153351 116.0 
247.230438 100.0 
248.032776 104.0 
248.201828 688.0 
249.199661 188.0 
249.232498 128.0 
249.892349 128.0 
250.174576 72.0 
250.202454 108.0 
250.216492 96.0 
251.025131 108.0 
251.109039 100.0 
252.026581 92.0 
252.096268 1380.0 
252.160507 64.0 
252.19426 856.0 
252.222733 108.0 
252.437744 52.0 
252.665237 52.0 
253.096619 136.0 
253.131454 88.0 
253.198181 176.0 
254.567123 56.0 
257.78421 96.0 
258.083466 52.0 
258.186157 152.0 
258.338654 88.0 
258.994659 92.0 
259.139832 128.0 
259.184052 92.0 
260.217468 72.0 
261.0849 112.0 
261.103912 100.0 
261.202118 136.0 
261.214844 100.0 
262.082581 368.0 
262.195129 76.0 
262.213898 96.0 
263.065765 228.0 
263.088043 204.0 
263.110352 132.0 
263.24707 96.0 
264.059113 128.0 
264.097382 120.0 
266.169678 120.0 
266.217682 108.0 
267.476593 156.0 
268.128021 168.0 
268.166595 116.0 
269.163055 96.0 
270.199982 96.0 
271.119446 124.0 
271.174316 148.0 
271.966095 96.0 
272.127838 80.0 
272.160187 84.0 
272.198975 104.0 
273.17041 152.0 
275.056732 172.0 
275.08609 80.0 
275.219421 116.0 
275.243347 104.0 
275.336578 100.0 
275.994263 96.0 
276.196625 1624.0 
276.346252 76.0 
276.620117 108.0 
277.148743 108.0 
277.202637 428.0 
277.266235 164.0 
277.641968 60.0 
278.219147 188.0 
278.917725 96.0 
279.108795 676.0 
279.128845 120.0 
280.055298 112.0 
280.093262 556.0 
280.945312 188.0 
280.97171 72.0 
281.078522 300.0 
281.091034 168.0 
282.106842 108.0 
284.073303 112.0 
284.185699 108.0 
285.211426 100.0 
287.03244 172.0 
287.507721 168.0 
288.136566 104.0 
289.126099 60.0 
289.224609 84.0 
289.256195 52.0 
290.127258 92.0 
291.239258 260.0 
291.250854 140.0 
292.087921 88.0 
292.138153 128.0 
294.957092 80.0 
295.017639 160.0 
295.128876 96.0 
295.604065 96.0 
296.420593 64.0 
296.552185 148.0 
297.117584 704.0 
297.867371 72.0 
298.084015 84.0 
298.104156 212.0 
298.123077 208.0 
298.138062 248.0 
299.117493 124.0 
299.13443 140.0 
301.203583 88.0 
302.072052 80.0 
303.033966 80.0 
303.23999 700.0 
304.011047 88.0 
304.123871 104.0 
304.195709 100.0 
304.245544 244.0 
305.25351 72.0 
305.668152 124.0 
306.059143 116.0 
306.100342 92.0 
308.196747 96.0 
308.23465 80.0 
308.889069 148.0 
309.0849 120.0 
309.253143 208.0 
309.270447 100.0 
309.496002 112.0 
311.206085 88.0 
311.233765 76.0 
312.177124 80.0 
312.196259 84.0 
313.115112 112.0 
313.191467 92.0 
315.085724 80.0 
315.806641 104.0 
316.102966 88.0 
316.605194 104.0 
317.062531 52.0 
318.037384 128.0 
318.404694 140.0 
319.231049 116.0 
319.246765 108.0 
319.350189 124.0 
321.104797 124.0 
322.938202 112.0 
323.008759 60.0 
323.089722 164.0 
324.084564 88.0 
324.607178 148.0 
324.851074 96.0 
326.160126 92.0 
328.125122 76.0 
328.146423 96.0 
329.202332 144.0 
330.819672 64.0 
331.215637 104.0 
331.533325 140.0 
332.244293 108.0 
333.023956 104.0 
333.09198 88.0 
333.24588 100.0 
335.160217 124.0 
336.885681 120.0 
339.211334 64.0 
340.1763 80.0 
341.088348 92.0 
341.229614 80.0 
341.254974 88.0 
342.121307 104.0 
343.072266 108.0 
344.330139 120.0 
344.89444 88.0 
345.105774 56.0 
345.338867 108.0 
345.995209 64.0 
346.922241 132.0 
347.231964 208.0 
348.238312 220.0 
348.571503 124.0 
348.820557 84.0 
349.065948 96.0 
351.275024 132.0 
354.132935 104.0 
358.994843 116.0 
362.115204 148.0 
363.071228 76.0 
363.235657 68.0 
365.267914 80.0 
367.163025 80.0 
370.258301 56.0 
370.813202 52.0 
374.891235 112.0 
375.107788 60.0 
376.83017 112.0 
377.031921 148.0 
377.233765 144.0 
378.167542 92.0 
379.117645 120.0 
380.149323 92.0 
380.168427 96.0 
380.642761 68.0 
381.147919 88.0 
385.216858 108.0 
386.812012 68.0 
387.151367 132.0 
387.857849 108.0 
390.275452 52.0 
391.155273 92.0 
391.822632 104.0 
395.273315 88.0 
397.068665 176.0 
397.123535 64.0 
398.238037 76.0 
399.087646 96.0 
399.134644 112.0 
400.240234 96.0 
401.040924 120.0 
405.123627 168.0 
406.115021 116.0 
406.255707 120.0 
407.23822 60.0 
409.21521 128.0 
415.16333 84.0 
416.250824 112.0 
417.259705 80.0 
419.180542 188.0 
420.241333 60.0 
421.178467 84.0 
422.015961 100.0 
422.09256 72.0 
422.181061 148.0 
424.077057 76.0 
424.182037 88.0 
425.244934 84.0 
427.16214 64.0 
431.862 96.0 
432.485809 60.0 
433.191559 92.0 
434.261566 96.0 
434.286072 92.0 
434.302429 92.0 
437.22937 76.0 
438.813568 100.0 
439.16687 116.0 
439.343628 100.0 
439.837067 72.0 
440.853455 96.0 
441.055298 64.0 
441.854584 76.0 
443.104462 76.0 
443.158112 84.0 
446.143555 160.0 
449.139282 80.0 
450.15802 92.0 
451.298828 68.0 
451.957275 72.0 
456.131622 88.0 
456.332703 80.0 
456.961243 108.0 
457.120544 108.0 
459.160461 112.0 
460.249451 116.0 
461.24707 96.0 
464.176697 80.0 
464.40271 116.0 
467.255341 132.0 
473.259979 88.0 
475.195099 144.0 
475.220093 124.0 
475.254303 116.0 
476.212494 60.0 
477.287231 60.0 
478.277435 52.0 
479.277191 52.0 
483.045258 92.0 
493.15274 100.0 
493.313873 92.0 
497.154327 52.0 
497.176117 72.0 
497.246094 64.0 
497.289764 84.0 
501.918427 96.0 
555.089539 88.0 
583.11908 64.0 
594.960266 88.0 
688.638245 64.0 
950.632996 80.0 
END IONS

