BEGIN IONS
TITLE=Scan Number: 2861
PEPMASS=621.41998
CHARGE=1+
COMPOUNDNAME=Rakicidin B
LIBRARYQUALITY=3
SMILES=CN(CC(N[C@@H]([C@@H](C(N)=O)O)C(OC([C@H](C)CCCCCCCCCCCCC(C)C)[C@H](C)C(N1)=O)=O)=O)C(/C=C/C1=C)=O
INCHIKEY=AKYUFOZFLOQQQL-ATABALJVSA-N
INCHI=InChI=1S/C33H56N4O7/c1-22(2)17-15-13-11-9-7-8-10-12-14-16-18-23(3)30-25(5)32(42)35-24(4)19-20-27(39)37(6)21-26(38)36-28(33(43)44-30)29(40)31(34)41/h19-20,22-23,25,28-30,40H,4,7-18,21H2,1-3,5-6H3,(H2,34,41)(H,35,42)(H,36,38)/b20-19+/t23-,25+,28+,29+,30?/m1/s1
MSLEVEL=2
SOURCE_INSTRUMENT=LC-ESI-qTof
FILENAME=f.thomast/Rakicidins/RakB_40eV.mzML;
SEQ=*..*
NOTES=
IONMODE=Positive
ORGANISM=GNPS-LIBRARY
NAME=Rakicidin B M+H
SPECTRUMID=CCMSLIB00000839186
ACTIVATION=CID
INSTRUMENT=ion trap
SCANS=2861
46.317661 132.0 
46.391094 136.0 
46.423153 172.0 
46.621124 76.0 
47.732304 180.0 
47.888245 108.0 
48.252613 204.0 
48.785355 64.0 
49.578854 184.0 
49.634106 124.0 
50.331478 60.0 
50.872704 196.0 
51.429508 120.0 
51.877705 68.0 
52.456993 108.0 
52.688763 88.0 
53.428677 116.0 
53.531921 200.0 
53.836536 132.0 
54.617775 120.0 
54.685913 120.0 
54.767155 104.0 
54.929817 96.0 
55.893261 52.0 
56.21772 104.0 
56.29274 76.0 
57.071423 288.0 
57.078182 188.0 
57.444729 84.0 
57.752785 200.0 
58.062881 116.0 
58.182793 124.0 
58.537846 104.0 
58.627899 112.0 
59.011395 264.0 
59.509586 96.0 
59.876244 84.0 
60.043896 484.0 
60.081253 176.0 
60.300362 64.0 
61.607819 128.0 
63.005577 80.0 
63.524979 104.0 
64.181541 152.0 
64.6884 228.0 
64.854134 128.0 
64.978951 136.0 
65.01532 100.0 
65.03904 104.0 
65.152954 140.0 
65.754265 60.0 
66.034393 312.0 
66.385468 80.0 
66.502159 88.0 
66.607742 104.0 
66.657356 128.0 
66.750252 132.0 
66.884926 52.0 
67.03093 112.0 
67.054398 864.0 
67.151405 96.0 
67.4925 168.0 
67.574699 100.0 
67.637596 60.0 
67.713394 136.0 
67.921722 124.0 
68.01226 120.0 
68.048462 488.0 
68.070496 100.0 
68.208084 136.0 
68.542137 88.0 
68.626579 104.0 
68.685066 132.0 
68.855812 188.0 
68.914421 116.0 
68.9991 108.0 
69.005615 108.0 
69.033325 760.0 
69.069504 6412.0 
69.209404 56.0 
69.24527 176.0 
69.402023 128.0 
69.843826 104.0 
70.029472 424.0 
70.057045 100.0 
70.072472 412.0 
70.804207 84.0 
71.046577 340.0 
71.057899 112.0 
71.066818 88.0 
71.084641 2244.0 
71.152817 64.0 
71.877495 144.0 
71.944016 144.0 
72.045731 124.0 
72.081085 152.0 
72.100464 104.0 
72.190399 124.0 
72.298767 60.0 
72.422203 68.0 
72.519012 124.0 
72.666054 84.0 
73.034271 116.0 
73.06443 176.0 
73.076172 132.0 
73.573242 64.0 
74.067734 136.0 
74.679092 116.0 
74.801155 128.0 
75.043884 136.0 
75.63623 124.0 
75.810287 116.0 
76.037552 112.0 
77.277161 184.0 
78.032387 152.0 
78.046219 80.0 
78.238121 140.0 
78.585922 112.0 
78.951439 52.0 
79.028107 100.0 
79.054649 564.0 
79.791779 56.0 
79.981049 144.0 
80.023148 116.0 
80.049095 1236.0 
80.168831 72.0 
80.435944 60.0 
80.611923 52.0 
80.631256 140.0 
81.006775 116.0 
81.031967 96.0 
81.051628 208.0 
81.069046 3208.0 
81.510582 92.0 
81.700119 120.0 
82.024704 124.0 
82.063835 340.0 
82.073326 252.0 
82.252296 152.0 
82.369743 80.0 
82.469437 96.0 
83.049202 364.0 
83.057419 132.0 
83.08506 6088.0 
83.228027 108.0 
83.695602 160.0 
83.754837 100.0 
83.882294 132.0 
84.044243 620.0 
84.087593 564.0 
84.537338 88.0 
84.596855 80.0 
84.898315 148.0 
85.040176 128.0 
85.063705 564.0 
85.077309 88.0 
85.100113 2960.0 
85.15873 84.0 
85.211205 124.0 
85.261894 124.0 
85.294487 136.0 
86.02314 448.0 
86.067032 112.0 
86.103828 252.0 
86.382782 128.0 
86.579742 112.0 
86.760475 128.0 
86.961533 80.0 
87.044044 144.0 
87.05481 116.0 
87.129845 128.0 
87.142654 124.0 
87.527504 136.0 
87.578903 72.0 
87.705574 100.0 
88.038208 248.0 
88.452812 100.0 
89.060097 1536.0 
89.070663 392.0 
89.522301 84.0 
89.570549 132.0 
90.055977 500.0 
90.072395 168.0 
90.318237 120.0 
91.055283 168.0 
91.711967 120.0 
91.844658 96.0 
92.046562 88.0 
92.063492 100.0 
92.57032 100.0 
92.591072 112.0 
92.787407 144.0 
92.957489 128.0 
93.02935 144.0 
93.054886 176.0 
93.069824 784.0 
94.029266 240.0 
94.053505 140.0 
94.06575 5040.0 
94.097244 136.0 
94.35041 140.0 
94.852043 100.0 
95.029724 152.0 
95.046936 144.0 
95.060188 208.0 
95.086281 2812.0 
95.102402 84.0 
95.175079 100.0 
95.328201 76.0 
95.841995 96.0 
95.980255 144.0 
96.04451 18444.0 
96.061012 308.0 
96.083572 212.0 
96.095284 140.0 
96.185966 56.0 
96.199425 60.0 
96.578674 124.0 
96.759918 100.0 
97.005051 88.0 
97.0485 1388.0 
97.065269 1232.0 
97.082306 124.0 
97.100922 6188.0 
97.142632 60.0 
97.158577 120.0 
97.426559 64.0 
97.651215 76.0 
97.717117 64.0 
97.746178 108.0 
97.911018 168.0 
98.02166 136.0 
98.046913 104.0 
98.05822 484.0 
98.076035 120.0 
98.106148 312.0 
98.32869 52.0 
98.69651 136.0 
98.903145 88.0 
99.000648 204.0 
99.055138 7660.0 
99.07869 288.0 
99.086548 88.0 
99.100212 84.0 
99.115662 504.0 
99.234962 68.0 
99.446045 76.0 
99.559502 68.0 
99.667145 68.0 
100.040504 140.0 
100.058556 304.0 
100.074753 108.0 
100.121078 216.0 
100.333847 176.0 
100.723167 92.0 
100.953583 56.0 
101.072357 348.0 
101.08091 152.0 
101.099419 92.0 
101.168457 64.0 
101.826324 80.0 
101.834213 144.0 
102.073799 140.0 
102.19072 156.0 
102.297829 72.0 
102.979233 128.0 
103.019058 88.0 
103.049973 6088.0 
103.130569 52.0 
103.511246 132.0 
103.676941 52.0 
104.035416 400.0 
104.049294 228.0 
104.666138 96.0 
105.046051 104.0 
105.071907 296.0 
105.224121 68.0 
105.26635 100.0 
106.014114 92.0 
106.029831 324.0 
106.066605 140.0 
106.963165 156.0 
107.030113 112.0 
107.050377 212.0 
107.069138 204.0 
107.085579 1412.0 
107.188416 116.0 
107.501305 104.0 
107.871689 60.0 
108.044518 472.0 
108.061172 92.0 
108.081337 1108.0 
108.128441 124.0 
108.273293 64.0 
108.318153 136.0 
108.520294 160.0 
108.730827 96.0 
109.04187 84.0 
109.062347 80.0 
109.07798 652.0 
109.101242 2132.0 
109.589294 92.0 
109.694008 96.0 
109.815208 128.0 
109.950874 152.0 
110.061569 292.0 
110.083405 464.0 
110.104126 388.0 
110.257492 84.0 
110.372833 84.0 
110.463509 68.0 
110.523293 52.0 
110.851334 52.0 
111.080551 2756.0 
111.091187 2192.0 
111.117035 5820.0 
111.227386 100.0 
111.687012 64.0 
111.921288 132.0 
111.977303 148.0 
112.035439 80.0 
112.05825 124.0 
112.074806 944.0 
112.095917 224.0 
112.120529 652.0 
112.590317 88.0 
112.854713 140.0 
113.034538 400.0 
113.068588 156.0 
113.078827 160.0 
113.095001 232.0 
113.102745 160.0 
113.132309 588.0 
113.580841 124.0 
114.019768 308.0 
114.030624 104.0 
114.055534 240.0 
114.074585 164.0 
114.089127 124.0 
114.141647 80.0 
114.177254 112.0 
114.265282 100.0 
114.762627 96.0 
114.955986 72.0 
115.048393 280.0 
115.138939 196.0 
115.560181 120.0 
116.049736 116.0 
116.411293 120.0 
116.993858 128.0 
117.064156 264.0 
117.584282 88.0 
117.790596 208.0 
118.457756 56.0 
118.560226 52.0 
118.61998 128.0 
118.675537 80.0 
118.955513 200.0 
119.085114 172.0 
119.529411 160.0 
119.737518 52.0 
120.066002 160.0 
120.274536 116.0 
120.425133 100.0 
120.761086 76.0 
120.830025 148.0 
121.06443 272.0 
121.075897 6080.0 
121.101295 2064.0 
121.769547 92.0 
121.806328 112.0 
122.023727 2684.0 
122.061401 588.0 
122.080162 224.0 
122.099747 160.0 
122.105545 188.0 
122.165863 112.0 
122.217873 152.0 
122.515068 132.0 
122.612801 60.0 
122.773499 132.0 
122.901772 56.0 
122.966972 96.0 
123.029999 232.0 
123.038734 128.0 
123.053459 328.0 
123.071976 192.0 
123.091385 9736.0 
123.116814 1328.0 
123.154037 152.0 
123.271614 68.0 
123.332565 112.0 
123.689972 128.0 
123.7314 192.0 
124.002052 120.0 
124.05883 136.0 
124.076897 524.0 
124.096725 496.0 
124.120049 216.0 
124.384499 100.0 
124.447922 128.0 
124.550758 128.0 
124.581413 104.0 
124.63176 100.0 
125.071114 284.0 
125.096367 2104.0 
125.132256 2228.0 
125.484825 116.0 
125.520012 52.0 
125.783791 56.0 
126.021385 128.0 
126.054413 128.0 
126.072037 108.0 
126.080162 68.0 
126.099388 436.0 
126.138092 128.0 
126.859352 52.0 
127.047119 264.0 
127.082489 124.0 
127.093536 140.0 
127.112801 252.0 
127.147247 400.0 
127.688927 140.0 
127.786446 144.0 
128.035431 516.0 
128.048172 100.0 
128.069687 224.0 
128.076096 412.0 
128.107193 236.0 
128.154724 92.0 
129.025681 136.0 
129.065414 744.0 
129.093246 96.0 
129.548172 124.0 
130.001663 132.0 
130.068771 68.0 
130.091141 80.0 
130.328308 132.0 
130.556763 116.0 
130.637451 96.0 
131.044846 692.0 
131.062698 196.0 
131.081146 1908.0 
131.369125 164.0 
131.891098 140.0 
132.073624 64.0 
132.085571 244.0 
132.096161 76.0 
132.3423 136.0 
132.938156 100.0 
133.069336 92.0 
133.084885 1152.0 
133.103226 268.0 
133.823685 120.0 
133.921265 88.0 
134.058563 368.0 
134.075592 164.0 
134.086914 268.0 
134.432343 104.0 
134.659821 88.0 
135.053757 172.0 
135.076569 112.0 
135.092896 120.0 
135.117065 1504.0 
135.201965 76.0 
135.309158 84.0 
135.599014 76.0 
135.665207 156.0 
135.932587 120.0 
136.012619 120.0 
136.041321 100.0 
136.074631 1440.0 
136.117371 200.0 
136.154465 96.0 
136.422318 96.0 
136.892273 96.0 
136.949631 112.0 
137.044495 204.0 
137.070618 4148.0 
137.10733 316.0 
137.131958 1108.0 
137.174622 112.0 
137.204498 88.0 
137.296402 68.0 
137.452667 120.0 
138.055038 732.0 
138.074738 560.0 
138.08992 108.0 
138.134048 112.0 
138.646179 128.0 
139.04808 476.0 
139.085739 1452.0 
139.111252 984.0 
139.147552 848.0 
139.163071 176.0 
139.196274 112.0 
139.548172 128.0 
139.861099 72.0 
140.033417 1420.0 
140.048538 292.0 
140.069733 952.0 
140.084351 232.0 
140.111664 100.0 
140.564636 176.0 
140.91597 100.0 
141.027878 1272.0 
141.065201 460.0 
141.07431 220.0 
141.102234 144.0 
141.125519 176.0 
141.165146 400.0 
141.713211 136.0 
142.015594 220.0 
142.033936 128.0 
142.058914 156.0 
142.11972 92.0 
142.152451 76.0 
142.421448 108.0 
142.723526 72.0 
143.01181 92.0 
143.032944 64.0 
143.042297 108.0 
143.063431 72.0 
143.142181 252.0 
143.394318 116.0 
143.521164 76.0 
143.530533 136.0 
143.927902 56.0 
144.370499 108.0 
144.733627 60.0 
144.804352 148.0 
144.910568 136.0 
145.040436 124.0 
145.090042 124.0 
145.463501 124.0 
145.922745 52.0 
146.098038 140.0 
146.202362 108.0 
146.532135 112.0 
147.054825 132.0 
147.078781 244.0 
147.095276 100.0 
147.117874 88.0 
147.404617 120.0 
147.843033 100.0 
147.9599 96.0 
148.029068 108.0 
148.060089 112.0 
148.075027 276.0 
148.11496 160.0 
148.124527 104.0 
148.325073 100.0 
148.33461 152.0 
148.346558 128.0 
148.535324 108.0 
148.552048 100.0 
148.894028 108.0 
149.018509 68.0 
149.054962 27164.0 
149.069977 26104.0 
149.091324 244.0 
149.132416 1688.0 
149.229248 64.0 
149.250809 72.0 
149.265167 88.0 
149.325104 56.0 
149.334671 80.0 
149.399353 108.0 
149.411377 68.0 
149.912766 64.0 
149.955963 108.0 
150.056061 2436.0 
150.073135 2148.0 
150.136932 416.0 
150.234665 100.0 
150.289917 156.0 
150.338058 60.0 
150.922897 76.0 
151.036133 104.0 
151.058197 636.0 
151.08313 104.0 
151.103592 180.0 
151.113083 252.0 
151.146515 640.0 
151.267578 104.0 
151.291718 76.0 
152.013779 84.0 
152.069382 5556.0 
152.095963 168.0 
152.398438 108.0 
152.926666 72.0 
152.984848 112.0 
153.071732 616.0 
153.091568 188.0 
153.101715 184.0 
153.125412 388.0 
153.167679 396.0 
153.472778 104.0 
153.582138 80.0 
153.630722 128.0 
153.854431 88.0 
154.054764 216.0 
154.065445 160.0 
154.072739 260.0 
154.09285 244.0 
154.10997 60.0 
154.134277 120.0 
154.163513 92.0 
154.174881 152.0 
154.294983 144.0 
155.044617 192.0 
155.072998 184.0 
155.081604 108.0 
155.143875 80.0 
155.175339 104.0 
156.046448 188.0 
156.077881 332.0 
156.178802 84.0 
156.22049 68.0 
156.357758 92.0 
156.684036 128.0 
157.060852 4068.0 
157.155716 76.0 
157.5345 148.0 
157.931061 80.0 
158.05899 204.0 
158.069305 284.0 
158.088776 160.0 
158.757706 104.0 
159.03862 2284.0 
159.546875 140.0 
159.960815 120.0 
160.035233 104.0 
160.046417 176.0 
160.074905 144.0 
160.117126 88.0 
160.129517 112.0 
161.055084 436.0 
161.070312 284.0 
161.08136 88.0 
161.098755 124.0 
161.113708 92.0 
161.66925 136.0 
162.060974 84.0 
162.093399 156.0 
162.108398 116.0 
162.125885 88.0 
162.198288 116.0 
162.9534 152.0 
163.048569 96.0 
163.089279 556.0 
163.112228 124.0 
163.148163 828.0 
163.627502 112.0 
164.070236 820.0 
164.091812 136.0 
164.115707 156.0 
164.152145 244.0 
164.828751 124.0 
164.843842 148.0 
165.065109 3276.0 
165.090286 776.0 
165.105804 112.0 
165.124741 132.0 
165.16832 404.0 
165.241943 68.0 
165.433594 56.0 
165.592499 100.0 
165.877777 92.0 
166.034103 100.0 
166.07222 268.0 
166.096313 1140.0 
166.124298 64.0 
166.165115 132.0 
166.171967 172.0 
166.193665 60.0 
166.28215 68.0 
166.46933 64.0 
166.578125 92.0 
166.697098 92.0 
166.970505 100.0 
167.044617 712.0 
167.081375 24908.0 
167.141357 516.0 
167.176529 324.0 
167.224136 124.0 
167.262222 68.0 
167.309097 60.0 
167.34082 92.0 
167.510849 72.0 
167.644562 64.0 
167.680923 104.0 
167.807892 144.0 
167.907013 84.0 
167.988297 160.0 
168.043091 224.0 
168.08342 2476.0 
168.1129 88.0 
168.123032 184.0 
168.133255 76.0 
168.156128 88.0 
168.181534 120.0 
168.313828 100.0 
168.385101 60.0 
168.838318 120.0 
169.06131 1020.0 
169.085861 228.0 
169.108521 128.0 
169.123825 124.0 
169.14679 88.0 
169.158508 128.0 
169.195251 104.0 
169.264145 76.0 
169.310074 80.0 
169.371307 96.0 
169.511719 68.0 
170.06105 152.0 
170.09433 96.0 
170.952209 76.0 
171.038818 2448.0 
171.07016 92.0 
171.176682 140.0 
171.760803 100.0 
171.945938 60.0 
172.045303 236.0 
172.067673 124.0 
172.077026 184.0 
172.102768 136.0 
172.115646 108.0 
172.179962 128.0 
172.527542 84.0 
173.053391 132.0 
173.082062 164.0 
173.099838 96.0 
173.280472 144.0 
173.450912 96.0 
173.52063 132.0 
173.567123 140.0 
174.017014 56.0 
174.0858 980.0 
174.133408 104.0 
174.931351 92.0 
175.03418 112.0 
175.053238 156.0 
175.069519 872.0 
175.093933 176.0 
175.855927 84.0 
176.001556 144.0 
176.079575 228.0 
176.101166 196.0 
176.861191 56.0 
177.064636 88.0 
177.110031 344.0 
177.162003 732.0 
177.396179 116.0 
177.414505 64.0 
177.50592 80.0 
178.093765 436.0 
178.115173 108.0 
178.169312 228.0 
178.340332 96.0 
179.040131 80.0 
179.082489 344.0 
179.100601 100.0 
179.111099 92.0 
179.129471 100.0 
179.180695 564.0 
180.080734 124.0 
180.089844 172.0 
180.113342 288.0 
180.186111 108.0 
181.058487 96.0 
181.09671 436.0 
181.157578 152.0 
181.169373 52.0 
181.191116 192.0 
181.208893 144.0 
182.054596 880.0 
182.09848 164.0 
182.152557 96.0 
182.502121 68.0 
183.040588 128.0 
183.059097 120.0 
183.078934 172.0 
183.103943 116.0 
183.151703 140.0 
183.167694 52.0 
183.178284 80.0 
183.207458 108.0 
183.382706 84.0 
183.696198 84.0 
184.07016 696.0 
184.110352 136.0 
184.307983 140.0 
184.899536 64.0 
185.00882 164.0 
185.057236 1448.0 
185.088531 288.0 
185.809921 92.0 
186.056839 284.0 
186.07045 144.0 
186.398422 180.0 
186.711823 148.0 
187.053787 104.0 
187.087204 68.0 
188.035233 100.0 
188.064804 96.0 
188.080917 136.0 
188.102448 120.0 
188.438812 84.0 
188.912872 120.0 
189.066528 136.0 
189.162369 204.0 
189.571106 120.0 
189.773682 100.0 
190.061584 120.0 
190.098633 288.0 
190.122314 128.0 
191.037292 280.0 
191.049561 108.0 
191.079483 248.0 
191.102417 104.0 
191.121399 100.0 
191.180267 464.0 
191.292221 124.0 
192.082306 124.0 
192.10405 128.0 
192.120331 164.0 
192.142105 116.0 
192.185547 248.0 
192.248123 132.0 
192.433075 116.0 
192.88768 60.0 
193.059509 4204.0 
193.078766 252.0 
193.095566 96.0 
193.107162 196.0 
193.146469 92.0 
193.191986 352.0 
193.200165 384.0 
193.52272 164.0 
193.847519 108.0 
194.044159 112.0 
194.063522 888.0 
194.096069 92.0 
194.106979 132.0 
194.120102 144.0 
194.175293 128.0 
194.193329 68.0 
194.664734 128.0 
194.818008 100.0 
195.037415 112.0 
195.076996 104.0 
195.108246 112.0 
195.171173 276.0 
195.210281 156.0 
195.239761 96.0 
195.426117 112.0 
196.046143 144.0 
196.070892 84.0 
196.105865 340.0 
196.123016 168.0 
196.579224 84.0 
197.027679 52.0 
197.061035 92.0 
197.093719 88.0 
197.11142 108.0 
197.184586 76.0 
197.228607 128.0 
197.948074 124.0 
198.119217 68.0 
199.194382 92.0 
199.205429 108.0 
199.224777 160.0 
199.576508 84.0 
200.066315 100.0 
200.09491 88.0 
200.380692 128.0 
201.046722 132.0 
201.071259 172.0 
201.626266 112.0 
201.821289 52.0 
201.899231 128.0 
202.059753 172.0 
202.082169 10080.0 
202.1362 64.0 
202.289551 88.0 
202.306244 156.0 
202.381638 56.0 
202.54068 56.0 
202.789139 60.0 
203.032181 56.0 
203.066879 3300.0 
203.174683 76.0 
203.278107 88.0 
203.552216 84.0 
204.053284 140.0 
204.067474 224.0 
204.087982 176.0 
204.134583 76.0 
204.148499 240.0 
204.650436 92.0 
205.070831 112.0 
205.085464 140.0 
205.116379 104.0 
205.196838 452.0 
205.554718 144.0 
205.810699 84.0 
206.063934 120.0 
206.090881 420.0 
207.078537 252.0 
207.095535 128.0 
207.120468 200.0 
207.143539 80.0 
207.211823 504.0 
207.307281 80.0 
207.355255 104.0 
207.423019 132.0 
207.552948 132.0 
207.801666 108.0 
208.10611 1940.0 
208.132523 140.0 
208.177826 92.0 
208.21579 128.0 
208.245682 188.0 
208.449539 88.0 
208.542969 104.0 
209.061035 144.0 
209.09407 764.0 
209.111115 428.0 
209.138092 108.0 
209.160782 116.0 
209.190323 112.0 
209.211838 104.0 
209.22789 116.0 
209.24115 140.0 
210.072189 84.0 
210.08638 108.0 
210.111008 108.0 
210.120804 180.0 
210.188721 104.0 
211.067856 240.0 
211.093765 136.0 
211.15361 120.0 
211.200714 112.0 
211.450089 108.0 
211.601212 148.0 
211.783829 132.0 
212.065002 468.0 
212.080719 176.0 
212.1436 92.0 
212.555069 128.0 
213.053741 144.0 
213.195999 104.0 
213.210251 220.0 
213.548325 108.0 
214.055832 148.0 
214.110382 96.0 
214.256714 152.0 
215.256851 80.0 
215.671326 136.0 
215.93927 88.0 
216.071838 100.0 
216.510208 104.0 
217.055252 84.0 
217.062805 104.0 
217.102142 104.0 
217.402786 68.0 
217.425873 128.0 
217.865662 72.0 
217.877213 108.0 
218.086029 360.0 
218.097122 276.0 
218.149384 112.0 
218.265305 64.0 
218.320328 80.0 
218.557999 76.0 
218.618866 96.0 
218.659454 104.0 
218.688477 80.0 
218.700043 124.0 
218.908951 64.0 
218.926331 84.0 
219.013367 108.0 
219.079773 228.0 
219.095001 124.0 
219.146912 80.0 
219.207901 388.0 
219.312393 100.0 
219.448868 164.0 
219.614532 96.0 
219.652374 52.0 
219.820938 76.0 
220.092606 24488.0 
220.146683 88.0 
220.164078 192.0 
220.175827 56.0 
220.208771 168.0 
220.382462 64.0 
220.414444 100.0 
220.507629 80.0 
220.606628 108.0 
220.909622 152.0 
221.035019 84.0 
221.058533 232.0 
221.09639 3396.0 
221.137039 128.0 
221.19635 120.0 
221.22438 232.0 
221.527969 144.0 
221.61554 156.0 
221.67984 64.0 
221.936844 80.0 
222.054092 576.0 
222.096481 448.0 
222.194 80.0 
222.223206 100.0 
223.035385 240.0 
223.06076 200.0 
223.09639 192.0 
223.124527 88.0 
223.215683 168.0 
223.244629 104.0 
223.262253 64.0 
223.88678 88.0 
224.05986 196.0 
224.103088 1988.0 
224.162674 100.0 
224.20784 132.0 
224.288879 216.0 
224.615036 120.0 
225.086624 96.0 
225.106369 264.0 
225.125229 152.0 
225.179764 52.0 
225.219559 124.0 
225.235641 76.0 
225.559509 68.0 
225.718521 124.0 
226.083572 236.0 
226.222672 64.0 
226.499985 80.0 
226.963562 100.0 
227.066071 780.0 
227.108337 120.0 
227.131989 96.0 
227.164459 160.0 
227.232513 80.0 
227.569626 84.0 
228.07135 156.0 
228.134979 120.0 
228.65065 116.0 
229.143143 128.0 
229.353958 120.0 
230.072769 224.0 
230.260696 84.0 
230.43927 84.0 
231.070755 144.0 
231.133408 84.0 
231.219818 160.0 
232.270676 116.0 
232.578644 80.0 
233.10495 388.0 
233.19162 272.0 
233.224564 388.0 
233.232101 548.0 
233.38681 100.0 
233.404816 72.0 
233.96843 52.0 
234.090271 440.0 
234.184418 72.0 
234.198761 116.0 
234.228302 232.0 
234.373474 116.0 
234.658783 108.0 
234.806046 60.0 
234.842072 88.0 
234.938232 112.0 
235.068741 528.0 
235.080658 196.0 
235.094559 108.0 
235.116974 296.0 
235.190796 100.0 
235.20282 100.0 
235.23851 112.0 
235.296021 156.0 
235.599991 88.0 
235.958298 116.0 
236.101227 800.0 
236.127029 100.0 
236.256622 112.0 
236.612427 108.0 
237.082047 112.0 
237.104385 100.0 
237.216415 232.0 
237.234253 84.0 
237.253586 108.0 
237.666397 72.0 
237.887131 84.0 
238.079849 440.0 
238.198715 132.0 
238.225464 92.0 
239.046982 64.0 
239.065125 112.0 
239.171265 100.0 
240.060043 400.0 
240.082901 144.0 
240.100143 180.0 
240.139725 72.0 
240.154877 124.0 
240.328079 196.0 
241.044998 172.0 
241.060593 164.0 
241.134445 92.0 
241.58226 140.0 
242.109848 148.0 
242.128204 92.0 
243.074509 112.0 
243.35643 96.0 
244.075882 84.0 
244.097305 120.0 
244.164703 116.0 
245.054092 224.0 
246.071228 288.0 
246.098984 136.0 
246.603851 64.0 
247.223175 100.0 
247.237869 424.0 
248.243546 140.0 
249.12001 88.0 
249.215927 140.0 
249.259094 368.0 
249.435776 148.0 
250.251038 88.0 
250.269669 68.0 
250.54274 72.0 
250.610992 128.0 
250.694824 116.0 
250.843933 64.0 
250.943344 56.0 
251.04274 80.0 
251.092407 124.0 
251.114944 552.0 
251.237915 364.0 
251.265091 108.0 
251.29451 56.0 
251.496582 72.0 
251.588211 92.0 
251.617905 64.0 
252.069107 96.0 
252.097092 11944.0 
252.202988 116.0 
252.22171 76.0 
252.244019 96.0 
252.654816 64.0 
252.932312 68.0 
253.099792 1548.0 
253.132965 284.0 
253.222382 124.0 
253.234909 72.0 
254.074051 176.0 
254.100494 144.0 
254.111984 188.0 
254.127167 244.0 
254.209473 84.0 
254.284515 88.0 
254.606735 72.0 
254.916565 116.0 
255.135849 60.0 
255.15773 96.0 
255.238419 372.0 
256.09201 132.0 
256.117157 88.0 
256.471954 68.0 
256.987213 100.0 
258.022552 92.0 
258.070038 244.0 
259.07254 108.0 
259.085175 92.0 
259.173615 56.0 
259.612579 88.0 
260.210052 152.0 
261.071259 80.0 
261.095795 212.0 
261.264557 104.0 
261.895752 76.0 
262.029022 116.0 
262.08197 3428.0 
262.121124 76.0 
262.216309 136.0 
262.368835 72.0 
263.064301 464.0 
263.08609 464.0 
263.246246 68.0 
263.279327 136.0 
263.523071 152.0 
263.570892 76.0 
264.07547 180.0 
264.087189 232.0 
264.266113 92.0 
264.284668 84.0 
264.734192 112.0 
265.002258 108.0 
265.046967 108.0 
265.152313 116.0 
265.252899 168.0 
265.388641 144.0 
266.075958 132.0 
266.108032 56.0 
266.258392 72.0 
266.664886 116.0 
267.113403 104.0 
267.254456 100.0 
267.717926 108.0 
267.876709 124.0 
268.261993 144.0 
268.295898 244.0 
268.493317 128.0 
269.122955 396.0 
269.137177 180.0 
269.24469 288.0 
269.30835 124.0 
270.025024 128.0 
270.073303 204.0 
270.111969 244.0 
270.127808 104.0 
270.253906 92.0 
270.308716 72.0 
270.789307 96.0 
271.112122 88.0 
271.147644 72.0 
271.561127 76.0 
272.136597 140.0 
272.149567 116.0 
272.162506 116.0 
272.236908 120.0 
272.411682 88.0 
272.61554 192.0 
273.137115 168.0 
273.195526 88.0 
274.750244 160.0 
274.873871 60.0 
275.156769 104.0 
275.251129 88.0 
275.277069 164.0 
275.693726 120.0 
276.234528 104.0 
276.391022 76.0 
277.046661 136.0 
277.098907 120.0 
277.147888 100.0 
277.213806 412.0 
277.249054 160.0 
277.289551 112.0 
277.340576 64.0 
277.493011 76.0 
278.069275 104.0 
278.220612 240.0 
278.304779 88.0 
278.520752 96.0 
278.66803 100.0 
278.903778 108.0 
279.108734 3524.0 
279.159302 84.0 
279.214966 116.0 
279.302612 1228.0 
279.331512 160.0 
279.349365 96.0 
279.452423 56.0 
279.59201 64.0 
279.811707 84.0 
279.988861 108.0 
280.092621 5396.0 
280.198914 88.0 
280.221863 108.0 
280.308716 212.0 
280.333496 120.0 
280.665283 60.0 
281.075562 576.0 
281.079926 380.0 
281.098419 776.0 
281.312744 196.0 
281.388428 144.0 
281.67807 64.0 
281.918396 52.0 
282.07312 88.0 
282.087006 336.0 
282.104645 336.0 
282.283905 112.0 
283.170929 76.0 
283.213806 124.0 
283.260651 760.0 
284.062653 64.0 
284.079132 96.0 
284.181641 60.0 
284.269989 188.0 
285.392822 96.0 
285.6745 96.0 
285.923187 52.0 
286.125458 88.0 
286.244843 104.0 
286.284668 96.0 
286.394165 132.0 
286.995148 136.0 
287.038361 100.0 
287.274658 164.0 
287.400665 72.0 
287.786407 96.0 
288.122467 128.0 
288.135773 140.0 
288.275543 200.0 
288.468842 60.0 
288.548798 52.0 
288.9552 184.0 
289.1586 136.0 
289.242065 68.0 
289.289978 5940.0 
289.313599 268.0 
289.852631 144.0 
290.036377 60.0 
290.230072 76.0 
290.243378 132.0 
290.291718 1524.0 
291.015686 84.0 
291.065887 76.0 
291.266632 92.0 
291.289917 104.0 
291.302032 144.0 
292.124054 96.0 
292.263672 104.0 
292.311066 96.0 
292.341858 212.0 
292.513 80.0 
293.282623 184.0 
293.298309 100.0 
293.583923 60.0 
294.188904 176.0 
294.205811 96.0 
294.299988 104.0 
294.315552 144.0 
295.260315 104.0 
295.276428 88.0 
295.323547 120.0 
295.684265 108.0 
295.822571 92.0 
295.950806 56.0 
296.113739 172.0 
296.136292 120.0 
296.197052 96.0 
296.240936 96.0 
296.290833 284.0 
296.757568 92.0 
296.798126 100.0 
296.848816 80.0 
297.011078 52.0 
297.034668 92.0 
297.085358 80.0 
297.119049 22240.0 
297.237488 84.0 
297.281616 244.0 
297.362549 120.0 
297.474182 92.0 
298.049469 72.0 
298.066345 136.0 
298.103516 3412.0 
298.119385 3112.0 
298.225525 88.0 
298.277069 136.0 
298.293274 84.0 
298.49646 160.0 
299.109253 564.0 
299.167755 72.0 
299.799011 56.0 
299.826111 100.0 
299.904266 56.0 
299.972107 120.0 
300.092194 124.0 
300.116089 92.0 
300.131805 80.0 
300.145416 60.0 
300.233704 96.0 
301.110931 196.0 
301.339081 84.0 
301.846527 76.0 
301.935059 100.0 
301.958954 80.0 
302.08844 96.0 
302.252045 96.0 
302.971863 84.0 
303.224457 144.0 
303.313263 104.0 
303.412384 68.0 
303.4328 116.0 
303.573822 68.0 
303.754028 80.0 
304.22934 60.0 
304.26004 120.0 
305.122742 52.0 
305.143219 84.0 
305.246002 92.0 
305.288025 752.0 
305.30954 84.0 
305.57843 88.0 
305.715607 64.0 
305.880188 68.0 
306.069855 80.0 
306.113373 164.0 
306.277161 256.0 
306.291107 228.0 
306.313538 176.0 
306.377747 56.0 
306.580261 76.0 
306.611115 112.0 
306.703827 104.0 
306.769135 76.0 
306.799896 252.0 
306.879028 100.0 
306.964874 132.0 
306.999268 104.0 
307.064575 92.0 
307.104706 84.0 
307.126373 128.0 
307.150543 60.0 
307.172089 108.0 
307.198639 72.0 
307.212341 100.0 
307.226074 96.0 
307.240997 128.0 
307.252258 116.0 
307.300446 50232.0 
307.370056 108.0 
307.389801 156.0 
307.425476 92.0 
307.442505 64.0 
307.490753 156.0 
307.504639 52.0 
307.556213 56.0 
307.576843 60.0 
307.63028 92.0 
307.64566 52.0 
307.76944 88.0 
308.030914 108.0 
308.065369 80.0 
308.079132 96.0 
308.119354 132.0 
308.133148 92.0 
308.156647 72.0 
308.234772 136.0 
308.251282 64.0 
308.275421 56.0 
308.303375 10288.0 
308.349854 124.0 
308.383942 96.0 
308.487091 112.0 
308.650787 72.0 
308.678375 56.0 
308.838074 68.0 
309.11264 68.0 
309.150543 80.0 
309.19696 88.0 
309.272217 84.0 
309.305115 1192.0 
310.06842 68.0 
310.085663 76.0 
310.123657 72.0 
310.175446 80.0 
310.193176 108.0 
310.251465 56.0 
310.302704 96.0 
310.355896 136.0 
310.372314 96.0 
310.662598 84.0 
310.787048 88.0 
310.824951 240.0 
310.863098 84.0 
311.018768 60.0 
311.195129 76.0 
311.293396 800.0 
311.326569 104.0 
311.693512 52.0 
312.297607 108.0 
312.635895 84.0 
313.117035 224.0 
314.1008 108.0 
314.132141 60.0 
314.738159 108.0 
315.039978 56.0 
315.130737 1408.0 
315.193024 144.0 
315.31842 104.0 
315.638855 108.0 
315.868835 96.0 
316.124573 480.0 
316.193054 100.0 
316.322144 64.0 
317.075836 176.0 
317.140411 156.0 
318.246826 64.0 
318.288696 164.0 
318.317749 60.0 
318.334259 84.0 
319.262024 172.0 
319.286621 104.0 
319.302155 132.0 
320.198395 64.0 
320.307068 160.0 
320.328796 92.0 
321.24881 104.0 
321.265991 88.0 
322.344696 100.0 
322.740417 100.0 
322.867249 100.0 
323.095276 360.0 
323.124512 112.0 
323.216156 128.0 
323.346649 100.0 
323.360748 104.0 
324.084076 96.0 
324.105194 160.0 
324.32666 3140.0 
324.370056 132.0 
324.384186 116.0 
324.426666 52.0 
324.833008 52.0 
324.903625 88.0 
325.126343 96.0 
325.169434 140.0 
325.193542 88.0 
325.32962 852.0 
325.727753 88.0 
325.904755 76.0 
326.241211 52.0 
326.327759 368.0 
327.311737 64.0 
328.106842 136.0 
328.22052 136.0 
328.298737 88.0 
328.345001 56.0 
328.47644 80.0 
328.622192 68.0 
329.276611 80.0 
329.290802 100.0 
329.461639 104.0 
329.821259 84.0 
330.317963 76.0 
330.330719 116.0 
330.508911 152.0 
330.697906 132.0 
331.183105 108.0 
331.332977 136.0 
331.347321 72.0 
332.258209 80.0 
332.318909 144.0 
332.334686 72.0 
332.401215 76.0 
332.676544 88.0 
333.27774 76.0 
334.072998 60.0 
334.305969 100.0 
334.718475 68.0 
335.964539 96.0 
336.324158 52.0 
336.557831 140.0 
338.085022 76.0 
338.33963 200.0 
338.3526 164.0 
339.033966 96.0 
339.337311 104.0 
340.306091 148.0 
341.10849 512.0 
341.200287 92.0 
341.312592 92.0 
342.105255 116.0 
342.310883 228.0 
342.348389 120.0 
343.183136 108.0 
343.337158 88.0 
343.718719 164.0 
344.289764 184.0 
344.333557 68.0 
344.5737 96.0 
345.101776 72.0 
345.936493 84.0 
346.12616 100.0 
346.268555 56.0 
346.30719 900.0 
346.335999 140.0 
346.355957 188.0 
346.476532 84.0 
347.313141 408.0 
347.345825 76.0 
347.360382 132.0 
348.327606 168.0 
348.915436 132.0 
349.241638 52.0 
349.300201 92.0 
349.461548 68.0 
349.773102 144.0 
350.125305 116.0 
350.159912 116.0 
350.231812 64.0 
350.341003 5352.0 
350.437317 80.0 
350.47406 72.0 
350.709076 64.0 
350.833954 56.0 
351.116821 72.0 
351.347382 1792.0 
352.105988 68.0 
352.330475 64.0 
352.349091 348.0 
352.606537 96.0 
352.628601 144.0 
352.750275 52.0 
353.125977 88.0 
353.3508 76.0 
353.575745 60.0 
353.660553 68.0 
354.014648 72.0 
354.239746 80.0 
356.283691 116.0 
356.329163 388.0 
357.205933 144.0 
357.323822 124.0 
357.81781 84.0 
358.19632 64.0 
358.348389 340.0 
358.407898 68.0 
358.894409 64.0 
359.161896 100.0 
359.184204 84.0 
359.199036 112.0 
359.330139 124.0 
359.477936 60.0 
359.72699 116.0 
360.285065 172.0 
360.324188 204.0 
361.223724 116.0 
361.331879 76.0 
361.350555 64.0 
362.302917 160.0 
362.503265 116.0 
363.134521 112.0 
363.314026 52.0 
363.332672 68.0 
363.859833 124.0 
364.319855 124.0 
364.358185 112.0 
365.271484 96.0 
365.349365 136.0 
365.367401 196.0 
365.402679 80.0 
365.650085 108.0 
366.291595 116.0 
366.328583 328.0 
366.339813 448.0 
366.3526 96.0 
367.316956 96.0 
367.336426 152.0 
367.535065 52.0 
367.892212 92.0 
369.108185 64.0 
369.307861 84.0 
370.352478 84.0 
370.386505 60.0 
370.650696 72.0 
371.228577 68.0 
372.900482 64.0 
373.324677 92.0 
373.900848 88.0 
374.014526 148.0 
374.342651 2116.0 
375.210205 80.0 
375.267242 60.0 
375.316528 124.0 
375.348022 1092.0 
375.388733 104.0 
375.632019 56.0 
376.130066 64.0 
376.171875 80.0 
376.28598 84.0 
376.319153 120.0 
376.341705 204.0 
376.381073 88.0 
377.256683 60.0 
377.41275 124.0 
377.553802 68.0 
377.702423 76.0 
377.759552 96.0 
377.854919 56.0 
377.912048 80.0 
378.087372 112.0 
378.33725 13500.0 
378.397217 116.0 
378.575592 120.0 
378.880981 72.0 
378.961182 64.0 
378.989502 92.0 
379.083252 120.0 
379.255188 60.0 
379.293396 52.0 
379.339355 3532.0 
379.495789 68.0 
380.103455 72.0 
380.338623 288.0 
380.345856 328.0 
380.366333 92.0 
381.358459 104.0 
381.573029 56.0 
381.699402 80.0 
381.787476 100.0 
382.324066 140.0 
384.32309 252.0 
384.341522 244.0 
384.416687 128.0 
384.69754 52.0 
385.329193 196.0 
386.340302 1140.0 
387.232483 104.0 
387.348083 324.0 
388.357483 296.0 
389.257233 76.0 
389.319153 68.0 
389.361603 160.0 
389.386749 236.0 
389.404266 80.0 
390.012024 100.0 
390.401245 116.0 
391.174713 108.0 
391.294952 104.0 
391.384216 88.0 
393.340759 136.0 
393.411926 124.0 
394.019043 56.0 
394.349976 64.0 
394.801727 124.0 
395.066803 76.0 
395.222717 84.0 
395.359192 76.0 
396.344788 552.0 
396.375336 140.0 
396.904755 92.0 
397.349182 164.0 
398.338654 188.0 
399.337494 192.0 
399.906952 96.0 
400.324768 116.0 
400.354126 124.0 
400.385529 96.0 
400.413086 64.0 
400.530701 120.0 
400.817352 64.0 
400.887909 124.0 
401.365723 96.0 
401.388519 172.0 
401.602936 76.0 
401.650085 76.0 
402.23587 76.0 
402.261688 116.0 
402.290802 184.0 
402.337494 10196.0 
402.393311 332.0 
402.427032 80.0 
402.448212 120.0 
402.503387 72.0 
402.55304 112.0 
402.585999 72.0 
402.749725 80.0 
402.767059 52.0 
402.881165 76.0 
402.900787 96.0 
402.936218 100.0 
403.026794 76.0 
403.062286 60.0 
403.140961 92.0 
403.176392 92.0 
403.233917 52.0 
403.340149 2768.0 
403.380005 268.0 
403.422089 120.0 
404.266296 80.0 
404.3479 476.0 
404.374359 232.0 
404.634674 56.0 
405.025177 140.0 
405.338837 112.0 
406.261383 148.0 
406.380035 96.0 
407.262146 64.0 
408.236053 100.0 
408.260834 124.0 
409.334839 56.0 
409.358307 92.0 
410.255554 52.0 
410.324646 568.0 
411.328461 168.0 
411.360443 80.0 
412.339447 84.0 
412.367371 68.0 
414.330902 80.0 
414.780121 68.0 
415.041168 68.0 
415.231476 108.0 
415.37384 160.0 
415.943146 68.0 
416.335144 96.0 
416.439209 76.0 
417.031738 60.0 
417.27597 96.0 
417.338135 296.0 
417.358887 112.0 
417.384521 2244.0 
417.425079 116.0 
417.616547 96.0 
418.302185 56.0 
418.384186 340.0 
418.406158 400.0 
418.49469 76.0 
419.253265 60.0 
419.383698 80.0 
420.169281 56.0 
420.311829 148.0 
420.345154 508.0 
421.239105 100.0 
421.348999 96.0 
421.64975 104.0 
422.394989 128.0 
424.812744 56.0 
424.929962 60.0 
426.256866 72.0 
427.34668 76.0 
427.372894 124.0 
427.780548 72.0 
428.268921 80.0 
428.579895 108.0 
428.904785 72.0 
429.225677 88.0 
429.310913 136.0 
429.383362 7988.0 
429.453156 120.0 
429.522339 68.0 
429.558868 100.0 
429.936951 96.0 
429.97525 220.0 
430.008209 72.0 
430.128082 92.0 
430.176971 56.0 
430.386749 2596.0 
430.42984 112.0 
430.465759 64.0 
430.494171 112.0 
431.3125 52.0 
431.392456 404.0 
431.438721 68.0 
431.540588 56.0 
431.57312 80.0 
431.772766 76.0 
432.045837 76.0 
432.392395 68.0 
432.420898 80.0 
433.370941 112.0 
433.386353 152.0 
433.98819 112.0 
434.180328 56.0 
434.261963 96.0 
434.386597 172.0 
434.548126 76.0 
435.341553 68.0 
435.35791 76.0 
435.394104 2952.0 
435.488831 84.0 
435.558411 80.0 
435.587006 116.0 
436.184845 68.0 
436.403381 708.0 
437.098572 100.0 
437.213409 88.0 
437.233948 64.0 
437.343811 648.0 
437.395966 172.0 
437.411987 168.0 
437.890228 84.0 
438.320526 196.0 
438.325806 396.0 
438.362762 136.0 
438.460876 64.0 
439.323212 160.0 
439.340576 112.0 
439.368774 96.0 
441.344086 72.0 
441.616058 60.0 
441.875702 68.0 
442.420044 52.0 
442.844879 104.0 
444.373108 96.0 
445.387421 464.0 
446.268524 60.0 
446.382263 316.0 
446.398254 160.0 
447.395996 268.0 
448.397247 80.0 
449.085785 88.0 
449.412842 88.0 
451.149414 72.0 
451.411804 100.0 
452.362274 92.0 
453.205231 68.0 
453.384705 96.0 
453.873322 156.0 
454.374939 68.0 
455.144348 88.0 
455.211304 88.0 
455.299103 120.0 
455.345276 1964.0 
456.350861 680.0 
457.251068 160.0 
457.35022 144.0 
457.36203 172.0 
457.381195 80.0 
457.511292 56.0 
459.144226 152.0 
459.355347 108.0 
460.380524 108.0 
462.385529 136.0 
462.402069 92.0 
462.423523 104.0 
463.343292 100.0 
465.380066 136.0 
465.397125 72.0 
466.349396 116.0 
467.359741 64.0 
469.373749 100.0 
469.790222 92.0 
470.253662 80.0 
471.351501 68.0 
471.36853 64.0 
472.122375 84.0 
472.292664 216.0 
472.366302 84.0 
472.3909 72.0 
472.407928 80.0 
473.107269 52.0 
473.27359 68.0 
473.370544 4684.0 
473.412201 296.0 
473.452789 68.0 
473.469757 112.0 
474.1698 120.0 
474.379211 1492.0 
474.537262 56.0 
474.908997 56.0 
475.054169 116.0 
475.381042 388.0 
475.434784 52.0 
476.363037 76.0 
477.37796 84.0 
477.888 64.0 
479.295105 84.0 
480.498016 68.0 
481.28064 80.0 
481.392517 80.0 
482.365387 88.0 
484.22348 80.0 
484.380371 80.0 
486.385925 92.0 
487.3526 216.0 
487.396088 72.0 
487.417664 108.0 
488.401031 64.0 
488.422668 76.0 
489.328888 80.0 
490.361755 144.0 
491.291595 80.0 
491.313354 76.0 
491.350281 96.0 
491.384186 344.0 
492.381073 340.0 
492.400146 224.0 
493.387299 116.0 
493.410706 76.0 
494.356323 128.0 
494.404358 84.0 
495.359711 100.0 
496.377197 96.0 
497.268982 52.0 
497.308167 152.0 
498.340851 88.0 
498.380341 60.0 
501.300171 104.0 
502.086426 100.0 
502.249146 52.0 
503.405579 72.0 
504.300232 108.0 
504.411865 864.0 
504.423248 976.0 
504.492889 100.0 
505.352234 72.0 
505.415741 492.0 
505.430023 372.0 
505.458038 72.0 
506.415192 76.0 
508.361877 272.0 
508.383148 172.0 
509.35498 228.0 
509.382721 228.0 
509.419891 92.0 
510.370422 160.0 
511.360992 76.0 
512.354858 68.0 
513.007629 52.0 
514.378906 116.0 
514.399109 76.0 
514.420959 80.0 
515.368713 108.0 
515.399902 92.0 
516.433228 120.0 
517.67749 56.0 
518.395996 88.0 
519.217896 84.0 
520.414001 76.0 
522.03241 56.0 
522.386475 60.0 
523.395386 60.0 
524.391846 68.0 
524.414307 72.0 
525.353271 68.0 
525.384766 64.0 
525.919678 116.0 
526.382751 856.0 
526.508972 116.0 
526.833191 52.0 
527.381104 300.0 
527.410767 196.0 
527.553528 72.0 
528.193359 60.0 
528.385071 280.0 
529.279968 112.0 
530.259399 108.0 
530.399658 140.0 
531.407104 80.0 
531.438721 92.0 
531.461304 96.0 
532.376831 328.0 
532.411865 372.0 
532.434937 260.0 
533.366821 236.0 
533.397034 144.0 
533.41925 164.0 
534.381409 92.0 
534.406982 84.0 
534.780273 96.0 
535.429504 100.0 
535.451538 148.0 
537.213684 132.0 
541.406616 128.0 
542.408203 68.0 
542.878479 60.0 
544.185974 76.0 
546.420654 112.0 
548.36145 96.0 
548.401794 92.0 
548.425781 64.0 
548.457825 128.0 
549.396851 236.0 
549.432007 68.0 
549.556091 72.0 
550.392273 464.0 
550.439453 60.0 
551.378784 96.0 
551.407104 80.0 
552.377686 104.0 
552.571411 64.0 
553.24469 52.0 
557.431396 104.0 
558.306885 68.0 
558.407288 116.0 
559.407166 184.0 
559.869446 120.0 
560.361511 72.0 
560.422668 68.0 
560.463562 84.0 
561.378662 52.0 
561.411011 108.0 
561.441467 84.0 
564.36554 60.0 
564.425964 100.0 
565.428162 72.0 
566.398499 72.0 
567.220215 72.0 
568.360413 68.0 
568.379028 104.0 
568.402466 72.0 
572.101929 88.0 
575.416443 124.0 
575.865295 64.0 
576.368835 100.0 
576.406555 472.0 
577.35321 104.0 
577.402222 356.0 
577.431458 1004.0 
578.437927 384.0 
579.310425 76.0 
579.404785 88.0 
579.423584 116.0 
579.440918 84.0 
579.456604 136.0 
580.519348 76.0 
583.8078 76.0 
584.400208 92.0 
585.102112 64.0 
585.387756 236.0 
585.406616 240.0 
585.823364 68.0 
586.37738 356.0 
586.393127 512.0 
586.422363 160.0 
587.400696 276.0 
587.438232 80.0 
588.392273 92.0 
589.387878 84.0 
589.57428 68.0 
593.045837 68.0 
593.416687 80.0 
593.604675 76.0 
594.43634 60.0 
594.458252 144.0 
597.351562 88.0 
600.932373 128.0 
601.317017 112.0 
601.721191 64.0 
602.221436 116.0 
602.52478 64.0 
602.871277 108.0 
603.348206 52.0 
603.416199 1740.0 
603.510071 160.0 
603.863586 108.0 
604.41156 744.0 
604.423767 844.0 
605.401611 148.0 
605.41333 516.0 
605.435059 408.0 
605.47406 200.0 
605.763855 64.0 
605.792847 52.0 
606.024414 108.0 
606.328552 128.0 
606.411377 116.0 
606.455078 108.0 
613.987061 56.0 
616.642883 124.0 
618.465576 92.0 
618.602173 72.0 
618.621765 52.0 
619.085022 112.0 
619.270386 132.0 
619.343689 92.0 
619.435303 1460.0 
619.539673 80.0 
619.675659 80.0 
620.100525 56.0 
620.181458 100.0 
620.310425 76.0 
620.369019 96.0 
620.434021 740.0 
620.456116 440.0 
620.515564 84.0 
620.603516 72.0 
620.649963 100.0 
621.204529 80.0 
621.351196 76.0 
621.420532 3832.0 
621.512573 64.0 
621.556946 56.0 
621.673828 88.0 
622.104309 56.0 
622.167847 56.0 
622.329102 112.0 
622.348755 88.0 
622.427856 1508.0 
622.520081 60.0 
622.584778 184.0 
622.735352 72.0 
622.847839 96.0 
622.887085 72.0 
623.33252 72.0 
623.377197 196.0 
623.419067 520.0 
623.437073 356.0 
623.466919 140.0 
623.513733 64.0 
624.414917 104.0 
624.468933 72.0 
624.594177 256.0 
625.374268 124.0 
625.41217 224.0 
625.670166 56.0 
625.753418 92.0 
625.979126 100.0 
627.26532 64.0 
628.572266 152.0 
641.99176 76.0 
649.10675 64.0 
655.316772 88.0 
656.894104 64.0 
667.744568 88.0 
669.108521 56.0 
670.072571 72.0 
677.310425 84.0 
681.087219 96.0 
687.37085 116.0 
708.69043 88.0 
709.520813 64.0 
709.646057 100.0 
725.182678 112.0 
738.49292 84.0 
790.488708 112.0 
795.53064 96.0 
811.99823 76.0 
824.721436 72.0 
833.467957 100.0 
877.492981 80.0 
922.524414 72.0 
932.767395 180.0 
957.193787 116.0 
997.488647 92.0 
998.622498 68.0 
END IONS

