BEGIN IONS
PEPMASS=546.261
CHARGE=1+
COMPOUNDNAME=MLS001056783-01!Calcimycin A23187
LIBRARYQUALITY=1
SMILES=CNc1ccc2oc(C[C@H]3O[C@@]4(CC[C@H]3C)O[C@H]([C@H](C)C(=O)c5ccc[nH]5)[C@H](C)C[C@H]4C)nc2c1C(=O)O
INCHIKEY=HIYAVKIYRIFSCZ-CYEMHPAKSA-N
INCHI=N/A
MSLEVEL=2
SOURCE_INSTRUMENT=LC-ESI-qTof
FILENAME=p4-E11_GE11_01_18383.mzXML
SEQ=*..*
IONMODE=Positive
ORGANISM=GNPS-NIH-SMALLMOLECULEPHARMACOLOGICALLYACTIVE
NAME=MLS001056783-01!Calcimycin A23187 M+Na
PI=Dorrestein
DATACOLLECTOR=VP/LMS
PUBMED=N/A
SUBMITUSER=vphelan
TAGS=
SPECTRUMID=CCMSLIB00000085752
SCANS=3063
46.652992 140.0 
49.725468 184.0 
51.133217 144.0 
52.043854 192.0 
52.137226 160.0 
52.606796 48.0 
53.485271 168.0 
53.689255 132.0 
53.893623 140.0 
55.587074 196.0 
55.633083 36.0 
56.573792 120.0 
56.978722 160.0 
57.288639 56.0 
57.661346 140.0 
57.682507 108.0 
58.42408 184.0 
59.832104 120.0 
61.093437 140.0 
61.258453 128.0 
61.695419 204.0 
62.25951 152.0 
62.706329 156.0 
63.366879 188.0 
65.356415 172.0 
66.291389 60.0 
66.72641 188.0 
66.801216 144.0 
67.522186 52.0 
69.141129 144.0 
69.44101 76.0 
70.670448 104.0 
71.151474 232.0 
71.51963 88.0 
72.324783 224.0 
73.66819 64.0 
75.049812 140.0 
75.992485 132.0 
76.571365 52.0 
77.175171 152.0 
77.448181 48.0 
77.541039 144.0 
77.716408 44.0 
78.233131 140.0 
78.599731 164.0 
79.183128 124.0 
79.541298 216.0 
80.634956 156.0 
80.935501 180.0 
81.498726 144.0 
81.718094 144.0 
81.74688 196.0 
81.90892 160.0 
82.732399 192.0 
82.944344 140.0 
83.325447 92.0 
83.953445 76.0 
84.046478 236.0 
85.995483 148.0 
86.646408 188.0 
86.824364 136.0 
87.778381 164.0 
89.551323 144.0 
89.87558 112.0 
90.253357 212.0 
90.563728 176.0 
91.064468 68.0 
92.196182 64.0 
92.211472 160.0 
92.950699 240.0 
93.058189 168.0 
93.206093 132.0 
94.027153 376.0 
94.051567 164.0 
95.586548 188.0 
96.509193 220.0 
97.01432 212.0 
97.349846 292.0 
97.389122 164.0 
97.697746 160.0 
98.036423 188.0 
98.373703 236.0 
98.551453 124.0 
99.051987 92.0 
99.246216 72.0 
99.416809 144.0 
99.764412 204.0 
101.042793 80.0 
102.176361 172.0 
102.619461 140.0 
102.760643 176.0 
102.829254 132.0 
103.010986 212.0 
103.403259 168.0 
105.723427 68.0 
105.766411 172.0 
106.297234 52.0 
106.449142 144.0 
106.819099 228.0 
107.086693 180.0 
107.204124 108.0 
108.083824 184.0 
109.064194 180.0 
109.100136 200.0 
110.796867 52.0 
110.916321 140.0 
110.968727 56.0 
111.046318 160.0 
111.184792 132.0 
111.943718 216.0 
112.044823 104.0 
113.007591 132.0 
113.060501 176.0 
113.170578 140.0 
113.628387 100.0 
113.742989 172.0 
114.482895 48.0 
114.902817 96.0 
114.919884 204.0 
116.010635 156.0 
116.463417 84.0 
116.932144 240.0 
118.443588 172.0 
118.530251 128.0 
118.554092 188.0 
119.633614 160.0 
119.873199 148.0 
120.065048 80.0 
120.669922 184.0 
120.991539 128.0 
121.061607 184.0 
121.098839 292.0 
121.153603 136.0 
121.35743 128.0 
121.974342 132.0 
122.093071 152.0 
123.082535 156.0 
123.858818 144.0 
124.002846 156.0 
124.084862 136.0 
124.542015 172.0 
125.247131 120.0 
128.085266 144.0 
129.750793 192.0 
129.848297 188.0 
130.850433 140.0 
131.066818 132.0 
131.333557 172.0 
131.710175 128.0 
133.093475 180.0 
134.188705 180.0 
134.935883 208.0 
135.070908 152.0 
135.223618 160.0 
135.60347 180.0 
136.662415 80.0 
136.883545 152.0 
136.958084 196.0 
137.095642 196.0 
137.17012 156.0 
137.744171 104.0 
137.821274 172.0 
138.099472 196.0 
138.331131 180.0 
138.680145 72.0 
140.084427 236.0 
140.870911 140.0 
140.960693 168.0 
141.343765 180.0 
143.941971 252.0 
144.154572 156.0 
144.190414 152.0 
144.53479 180.0 
145.136017 256.0 
145.335114 156.0 
145.664017 104.0 
146.785599 116.0 
147.111313 100.0 
147.12822 144.0 
147.410812 136.0 
147.834015 84.0 
148.008316 124.0 
148.071228 192.0 
148.592804 136.0 
149.065948 124.0 
149.136429 644.0 
149.223938 48.0 
149.265274 176.0 
149.720352 132.0 
150.159042 76.0 
150.285904 96.0 
150.442093 196.0 
150.93808 52.0 
151.523071 112.0 
151.822128 108.0 
152.499756 72.0 
154.947754 172.0 
155.079086 172.0 
155.131149 236.0 
155.778839 148.0 
155.863312 88.0 
155.898102 216.0 
156.305939 168.0 
156.936142 212.0 
157.103241 240.0 
157.627563 28.0 
158.055161 128.0 
158.092697 112.0 
159.02002 72.0 
159.116913 328.0 
159.286179 120.0 
159.542496 124.0 
159.761292 168.0 
160.112946 188.0 
161.072159 144.0 
161.127365 240.0 
161.178268 84.0 
161.231339 56.0 
161.327393 56.0 
162.015762 148.0 
162.074036 236.0 
162.091721 188.0 
162.634506 144.0 
162.926544 156.0 
163.076462 168.0 
163.105881 184.0 
163.229004 180.0 
163.753265 180.0 
164.013153 160.0 
164.120239 148.0 
164.204391 96.0 
164.418701 224.0 
164.467194 44.0 
164.538666 160.0 
164.875854 244.0 
164.923798 180.0 
164.95253 160.0 
165.088318 188.0 
165.118729 152.0 
165.533325 116.0 
166.009979 76.0 
166.24855 80.0 
167.032196 76.0 
167.194305 68.0 
167.954376 124.0 
168.429337 220.0 
168.641205 164.0 
168.713593 56.0 
168.902374 76.0 
168.9366 172.0 
169.386429 184.0 
169.764847 208.0 
169.930862 152.0 
170.05542 128.0 
170.244949 168.0 
171.043152 220.0 
171.0755 168.0 
171.999802 192.0 
172.608551 180.0 
173.140152 204.0 
173.7453 84.0 
174.023514 216.0 
174.052399 200.0 
174.112793 84.0 
174.273041 164.0 
174.478043 176.0 
174.880524 192.0 
175.075348 152.0 
175.117233 268.0 
175.272919 196.0 
175.34935 180.0 
176.114182 156.0 
176.357605 64.0 
176.532089 172.0 
177.087402 6372.0 
177.124954 168.0 
177.159393 156.0 
177.511917 72.0 
177.838242 56.0 
177.869049 152.0 
177.893982 68.0 
178.007309 200.0 
178.089035 724.0 
178.114395 208.0 
178.32164 164.0 
178.396072 104.0 
178.558273 148.0 
179.071945 140.0 
179.099991 280.0 
179.13855 148.0 
179.223801 132.0 
179.266434 96.0 
179.578369 124.0 
179.653061 88.0 
179.965317 184.0 
180.032074 148.0 
180.622757 120.0 
180.944351 240.0 
181.05101 88.0 
181.198334 124.0 
181.538757 80.0 
181.605804 64.0 
182.09967 168.0 
182.508148 136.0 
183.067871 144.0 
183.463959 108.0 
184.030533 256.0 
184.060242 168.0 
184.079147 140.0 
184.74675 176.0 
185.057999 100.0 
185.13382 204.0 
185.353241 188.0 
185.429123 56.0 
186.04216 208.0 
186.089401 556.0 
186.134476 80.0 
186.781311 272.0 
187.026215 228.0 
187.047989 88.0 
187.089661 180.0 
187.14682 316.0 
187.189575 36.0 
187.418381 124.0 
187.61734 100.0 
188.09201 176.0 
188.135696 160.0 
188.165726 52.0 
188.332306 160.0 
188.999374 116.0 
189.065582 396.0 
190.07077 136.0 
190.120163 120.0 
190.749161 152.0 
190.963638 92.0 
191.081924 180.0 
193.056946 184.0 
193.079071 72.0 
193.121231 164.0 
194.175827 124.0 
194.225754 156.0 
195.081039 176.0 
195.353561 76.0 
196.177872 196.0 
196.928497 148.0 
197.17717 144.0 
197.487518 136.0 
197.756134 80.0 
197.870895 188.0 
198.044525 168.0 
198.439667 120.0 
200.471985 200.0 
200.900558 164.0 
201.078339 156.0 
201.109375 192.0 
201.130524 124.0 
201.160187 176.0 
202.052322 696.0 
202.07869 144.0 
202.109818 160.0 
202.256989 40.0 
202.324921 128.0 
203.065323 156.0 
203.087204 148.0 
203.129761 176.0 
204.727127 92.0 
205.160736 180.0 
206.049774 180.0 
206.159256 100.0 
206.499466 212.0 
206.722626 120.0 
206.874313 132.0 
206.977386 168.0 
207.063309 188.0 
207.854538 160.0 
208.026199 148.0 
208.489197 64.0 
208.578293 96.0 
208.65303 72.0 
209.19101 164.0 
209.58847 204.0 
209.954575 192.0 
210.028091 164.0 
210.130539 32.0 
210.260391 200.0 
210.780212 92.0 
211.416412 140.0 
211.53508 168.0 
212.366714 144.0 
212.755554 100.0 
213.136047 168.0 
213.511047 156.0 
213.822357 128.0 
214.087677 148.0 
214.197968 224.0 
214.267883 132.0 
214.947266 188.0 
215.004196 156.0 
215.040649 40.0 
215.115433 168.0 
215.139893 168.0 
215.163254 80.0 
215.201202 44.0 
215.969803 84.0 
216.390198 92.0 
217.244049 36.0 
217.678452 112.0 
218.14267 128.0 
218.213226 96.0 
218.575027 136.0 
218.993073 176.0 
219.107956 120.0 
219.992706 124.0 
220.064316 824.0 
220.350052 104.0 
220.861481 68.0 
220.986542 236.0 
221.065567 176.0 
221.417938 100.0 
221.646042 80.0 
222.14711 132.0 
222.945816 120.0 
222.978516 120.0 
223.103363 164.0 
223.162827 128.0 
223.91571 144.0 
223.993622 128.0 
225.097229 456.0 
225.374481 132.0 
225.505981 188.0 
226.098083 184.0 
226.31369 88.0 
227.083878 144.0 
228.074722 232.0 
228.122818 68.0 
228.769608 116.0 
228.932205 156.0 
228.981964 148.0 
229.054352 404.0 
229.092926 208.0 
229.124695 152.0 
229.438416 76.0 
229.821457 88.0 
230.069489 168.0 
230.099152 160.0 
230.132355 148.0 
230.157318 164.0 
230.256165 52.0 
230.621765 204.0 
230.998871 236.0 
231.054199 52.0 
232.023346 160.0 
232.07489 140.0 
233.146957 368.0 
233.845978 100.0 
233.955566 144.0 
234.031677 132.0 
234.151886 164.0 
234.735565 100.0 
234.952133 332.0 
234.976547 148.0 
235.095551 116.0 
235.773529 128.0 
235.975281 212.0 
236.018082 104.0 
236.55043 68.0 
236.728027 84.0 
236.945496 96.0 
236.970001 164.0 
237.031296 104.0 
237.221313 164.0 
237.44516 148.0 
237.659897 152.0 
237.979111 100.0 
238.072937 708.0 
238.261673 116.0 
238.744263 132.0 
239.070267 264.0 
239.375137 144.0 
239.430573 176.0 
241.070999 60.0 
241.09642 208.0 
241.489197 180.0 
242.155411 288.0 
242.182693 148.0 
242.331223 32.0 
242.58226 104.0 
242.653564 200.0 
243.072296 200.0 
243.109375 76.0 
243.146774 40.0 
244.50087 104.0 
245.017853 172.0 
245.093521 140.0 
245.452682 72.0 
245.876251 40.0 
245.948044 148.0 
246.014633 168.0 
246.094772 160.0 
246.360245 48.0 
246.391479 88.0 
247.169724 800.0 
247.25766 64.0 
247.2827 64.0 
247.473663 64.0 
247.90593 164.0 
248.17215 444.0 
248.988281 32.0 
249.022827 48.0 
250.032074 140.0 
250.567398 120.0 
250.66507 176.0 
250.781677 68.0 
251.015991 100.0 
251.08136 156.0 
251.403 152.0 
251.715515 144.0 
252.315857 220.0 
253.119537 152.0 
254.192581 124.0 
254.648148 104.0 
254.845108 100.0 
255.032608 200.0 
255.097961 136.0 
255.105911 204.0 
255.439621 136.0 
256.083405 236.0 
256.117645 124.0 
256.452209 44.0 
257.026276 120.0 
257.077332 192.0 
257.131561 176.0 
257.182648 200.0 
258.09314 164.0 
258.134979 200.0 
258.416199 148.0 
258.502594 80.0 
259.085327 176.0 
259.668732 124.0 
259.973541 128.0 
260.166107 108.0 
260.535431 216.0 
260.956482 116.0 
261.078674 112.0 
261.191223 152.0 
261.670746 48.0 
262.824646 92.0 
262.979553 180.0 
263.163574 160.0 
263.218842 200.0 
263.800018 180.0 
264.715668 188.0 
265.587494 252.0 
267.068665 144.0 
267.149994 164.0 
267.299652 100.0 
267.592621 132.0 
267.804291 152.0 
267.898743 124.0 
268.102966 220.0 
268.201813 96.0 
268.443085 96.0 
268.622467 148.0 
269.030396 92.0 
269.088135 5392.0 
269.229553 60.0 
269.294891 40.0 
269.330048 184.0 
269.396149 148.0 
269.484344 92.0 
269.569305 80.0 
270.089935 1200.0 
270.157867 228.0 
270.223297 120.0 
270.576752 128.0 
270.773224 56.0 
270.855133 80.0 
271.096283 312.0 
272.018097 128.0 
272.068481 144.0 
272.098022 132.0 
272.235931 112.0 
272.719574 96.0 
272.81424 176.0 
273.020142 264.0 
273.386536 168.0 
273.646606 132.0 
274.341766 56.0 
275.054291 116.0 
275.136841 108.0 
276.095093 136.0 
276.263794 80.0 
276.455688 72.0 
276.713867 152.0 
276.975494 60.0 
277.346619 36.0 
277.75116 156.0 
278.182556 152.0 
279.535309 152.0 
280.221252 64.0 
280.477844 176.0 
281.041473 104.0 
281.095703 264.0 
281.594696 216.0 
281.635712 172.0 
281.996582 112.0 
282.102356 216.0 
282.147247 144.0 
282.18454 176.0 
282.54834 48.0 
282.595184 192.0 
282.633942 164.0 
282.729034 120.0 
283.103973 188.0 
283.150879 116.0 
284.062592 196.0 
284.304169 184.0 
284.582764 124.0 
285.032867 160.0 
285.069946 156.0 
285.429535 116.0 
285.994751 120.0 
286.051117 176.0 
286.07605 184.0 
286.098389 132.0 
286.107361 244.0 
286.233765 164.0 
286.331421 176.0 
286.958221 116.0 
287.03241 160.0 
287.170654 188.0 
287.251617 64.0 
287.288727 208.0 
287.373077 112.0 
288.017883 36.0 
288.176666 112.0 
288.3862 56.0 
288.643127 56.0 
289.052429 76.0 
289.441711 148.0 
289.926147 92.0 
290.104126 140.0 
290.295654 208.0 
290.607727 172.0 
291.021851 132.0 
291.064362 272.0 
291.521179 144.0 
292.316925 92.0 
293.192139 52.0 
293.533051 128.0 
293.6763 116.0 
294.242767 104.0 
294.362274 148.0 
294.625275 124.0 
294.949921 260.0 
294.973846 96.0 
295.076416 64.0 
295.527893 112.0 
296.000275 204.0 
296.13382 36.0 
296.233154 92.0 
296.353088 240.0 
296.980438 228.0 
297.083344 128.0 
297.162262 188.0 
298.107544 448.0 
298.1409 160.0 
298.295593 84.0 
298.818329 100.0 
299.072998 76.0 
299.117737 108.0 
299.184601 228.0 
299.45517 212.0 
299.479279 136.0 
299.858307 44.0 
300.058228 100.0 
300.153717 1828.0 
300.309967 172.0 
301.003662 164.0 
301.100342 48.0 
301.15741 180.0 
301.345612 92.0 
302.199646 128.0 
302.353271 140.0 
302.421112 72.0 
302.504181 88.0 
303.060608 276.0 
303.158813 140.0 
303.401459 108.0 
303.474274 52.0 
303.699677 180.0 
303.772522 176.0 
304.05011 168.0 
304.102173 136.0 
304.126465 176.0 
304.907959 80.0 
305.116516 176.0 
305.175629 84.0 
305.231262 128.0 
305.37384 68.0 
307.272369 152.0 
308.110291 104.0 
308.250061 136.0 
308.784943 124.0 
308.938843 96.0 
309.075287 120.0 
309.144501 144.0 
309.418304 120.0 
309.922668 152.0 
310.150482 104.0 
310.325745 56.0 
310.599304 140.0 
311.104645 184.0 
311.145264 140.0 
311.30127 152.0 
311.46283 120.0 
311.814178 144.0 
312.162231 268.0 
312.197388 76.0 
312.71106 72.0 
313.150879 200.0 
313.64798 68.0 
313.729065 52.0 
313.789001 84.0 
314.773468 60.0 
315.04541 124.0 
315.193817 132.0 
315.465973 52.0 
315.497772 152.0 
315.81958 144.0 
316.122742 364.0 
316.445953 116.0 
316.722198 132.0 
317.026276 164.0 
317.048157 236.0 
317.131134 336.0 
317.310455 124.0 
317.760895 184.0 
318.083862 104.0 
318.20343 180.0 
318.495758 152.0 
318.680481 188.0 
319.042999 168.0 
320.064148 172.0 
320.110443 152.0 
320.188782 76.0 
320.491577 52.0 
320.741058 128.0 
321.076233 164.0 
321.16214 196.0 
321.4758 156.0 
321.761353 132.0 
322.149506 140.0 
322.177979 280.0 
322.583038 108.0 
323.165985 168.0 
323.853333 52.0 
323.896301 160.0 
325.086639 164.0 
325.153931 152.0 
325.395355 104.0 
326.182098 208.0 
327.074188 168.0 
327.149811 48.0 
327.18219 200.0 
327.2146 116.0 
327.852173 148.0 
328.028778 128.0 
329.109924 132.0 
329.266418 116.0 
330.068695 80.0 
330.263977 144.0 
331.013153 120.0 
331.103699 144.0 
331.129059 72.0 
331.154388 164.0 
331.418854 136.0 
331.846558 152.0 
332.114929 160.0 
332.21286 104.0 
332.336212 136.0 
333.611023 100.0 
333.88736 128.0 
334.134735 172.0 
334.37854 172.0 
334.564178 88.0 
334.593292 100.0 
334.975677 156.0 
335.278107 88.0 
335.647675 64.0 
336.102264 64.0 
336.339478 84.0 
336.427094 76.0 
336.482086 124.0 
336.627197 80.0 
336.788605 80.0 
337.125031 152.0 
337.223419 60.0 
337.545135 156.0 
337.581726 120.0 
337.687775 156.0 
337.717041 112.0 
338.053619 124.0 
338.115845 68.0 
338.170746 112.0 
338.207336 108.0 
338.63208 172.0 
339.075409 92.0 
339.164124 560.0 
339.20163 76.0 
339.282166 236.0 
339.339325 44.0 
339.58136 120.0 
339.644379 44.0 
339.829163 88.0 
339.871185 52.0 
339.925385 156.0 
339.951904 124.0 
340.040009 144.0 
340.114258 156.0 
340.186859 21920.0 
340.276672 48.0 
340.304291 60.0 
340.333038 92.0 
340.414459 92.0 
340.465881 116.0 
340.515869 104.0 
340.57605 80.0 
340.620148 96.0 
340.661682 116.0 
340.689941 88.0 
340.825897 88.0 
340.855286 40.0 
340.89801 160.0 
340.932465 132.0 
340.958191 152.0 
341.045227 128.0 
341.112549 64.0 
341.190002 5124.0 
341.236786 304.0 
341.513367 92.0 
341.575897 84.0 
341.623718 148.0 
341.707184 116.0 
341.866547 84.0 
341.991699 44.0 
342.046906 96.0 
342.188965 252.0 
342.253082 88.0 
342.480194 108.0 
342.536652 168.0 
342.695068 104.0 
342.993591 52.0 
343.140808 372.0 
343.168488 336.0 
343.207428 148.0 
343.28006 120.0 
343.291199 68.0 
343.300415 164.0 
343.410248 76.0 
343.439758 104.0 
343.550446 132.0 
343.596252 192.0 
343.982208 96.0 
344.059723 68.0 
344.159424 160.0 
344.632202 80.0 
344.73938 108.0 
345.177979 92.0 
345.515869 92.0 
345.549164 32.0 
345.671265 68.0 
345.741577 196.0 
345.988312 92.0 
346.041412 40.0 
346.074738 48.0 
346.137695 28.0 
346.182129 104.0 
347.090179 196.0 
347.1716 180.0 
347.846893 148.0 
348.002808 88.0 
348.043671 104.0 
349.169678 92.0 
349.311005 136.0 
349.523071 124.0 
349.709167 92.0 
350.167114 120.0 
350.319855 28.0 
351.106323 76.0 
351.457001 96.0 
351.871307 92.0 
351.912354 56.0 
351.97583 80.0 
352.575775 140.0 
353.153015 320.0 
353.283997 180.0 
353.444885 168.0 
353.624512 40.0 
354.147461 168.0 
354.414703 160.0 
355.055725 72.0 
355.099792 160.0 
355.539703 148.0 
355.798706 72.0 
355.896332 168.0 
356.012726 84.0 
356.150146 292.0 
356.193024 112.0 
356.809326 160.0 
356.865723 144.0 
357.046234 216.0 
357.072571 88.0 
357.151245 156.0 
357.196686 132.0 
357.338257 140.0 
357.815277 196.0 
358.137726 176.0 
358.163788 144.0 
358.220612 132.0 
358.341156 208.0 
358.60495 188.0 
358.910309 168.0 
359.108765 180.0 
359.585602 80.0 
359.944244 132.0 
360.142639 136.0 
361.501678 160.0 
361.615234 128.0 
361.690918 128.0 
362.027893 88.0 
362.111206 92.0 
362.273804 152.0 
362.47113 60.0 
362.68335 44.0 
363.828979 92.0 
364.056824 72.0 
364.31131 136.0 
364.417297 156.0 
365.147125 244.0 
365.176544 140.0 
365.444275 60.0 
365.478516 72.0 
365.619324 112.0 
366.128143 172.0 
366.155792 136.0 
366.201843 124.0 
367.120331 132.0 
367.170685 200.0 
367.570496 216.0 
367.627716 136.0 
368.208038 108.0 
369.021973 92.0 
369.08316 112.0 
369.194061 96.0 
369.278198 68.0 
369.431213 108.0 
370.464844 136.0 
371.093384 196.0 
371.415497 156.0 
371.81839 132.0 
371.971924 116.0 
372.087097 172.0 
374.096527 224.0 
374.158142 256.0 
374.929749 96.0 
375.157227 132.0 
376.465179 120.0 
377.227325 128.0 
377.404205 140.0 
377.790955 56.0 
378.189545 120.0 
378.642548 116.0 
379.014435 156.0 
379.080322 184.0 
379.197571 8196.0 
379.263306 184.0 
379.349487 72.0 
379.390411 72.0 
379.533844 44.0 
379.646301 104.0 
379.762665 60.0 
379.820862 184.0 
379.917816 68.0 
379.995422 112.0 
380.131226 40.0 
380.198639 1360.0 
380.923279 48.0 
381.098114 108.0 
381.201141 424.0 
382.007874 100.0 
382.077911 52.0 
382.132355 92.0 
382.447571 132.0 
383.154388 968.0 
383.20755 176.0 
383.308289 72.0 
383.432983 92.0 
383.655182 52.0 
384.161957 284.0 
384.220673 144.0 
384.770966 60.0 
385.141968 88.0 
385.21228 296.0 
386.503571 144.0 
386.553345 172.0 
386.839081 64.0 
386.905609 92.0 
387.111115 200.0 
387.912445 108.0 
388.579132 156.0 
388.771423 52.0 
388.881317 176.0 
389.324951 176.0 
390.598419 164.0 
390.802002 140.0 
391.039124 124.0 
391.877899 80.0 
392.157715 156.0 
392.618988 236.0 
393.206085 156.0 
394.992798 52.0 
395.178741 108.0 
395.217743 132.0 
395.231232 136.0 
395.887299 152.0 
396.061584 112.0 
396.445892 80.0 
396.679749 148.0 
397.00238 196.0 
397.199219 148.0 
397.234924 136.0 
397.290466 124.0 
397.691254 180.0 
399.037964 136.0 
399.141327 80.0 
399.443604 36.0 
399.917114 132.0 
399.976837 192.0 
400.14801 208.0 
400.187836 148.0 
400.231628 132.0 
400.805206 148.0 
401.127502 116.0 
401.209351 168.0 
401.694305 44.0 
402.209076 156.0 
402.404694 212.0 
403.135681 116.0 
403.255585 164.0 
403.455444 144.0 
403.839325 72.0 
404.347473 136.0 
405.132294 132.0 
405.168335 176.0 
405.508972 168.0 
405.725433 68.0 
406.018127 132.0 
406.17157 156.0 
406.254791 76.0 
406.367126 156.0 
406.648041 148.0 
407.539551 112.0 
407.648041 56.0 
408.108368 180.0 
408.125183 92.0 
408.132019 152.0 
408.218903 128.0 
409.11615 128.0 
409.238892 216.0 
409.611481 60.0 
410.244049 120.0 
410.385284 164.0 
410.683716 120.0 
411.15979 116.0 
411.196136 88.0 
411.232452 156.0 
411.389862 172.0 
411.434296 116.0 
411.87851 128.0 
412.246155 124.0 
413.22876 152.0 
413.25708 80.0 
413.661804 200.0 
414.273285 140.0 
415.781677 132.0 
415.899384 144.0 
417.919189 136.0 
417.947662 80.0 
418.704834 220.0 
418.733368 140.0 
419.091858 108.0 
420.217194 40.0 
420.294708 84.0 
420.331451 76.0 
420.457947 52.0 
421.200684 164.0 
421.335876 196.0 
421.842621 224.0 
422.771118 124.0 
422.922546 120.0 
423.012604 52.0 
423.04126 128.0 
423.082184 164.0 
423.123138 164.0 
423.188904 5820.0 
423.315582 160.0 
423.40979 100.0 
423.508087 84.0 
423.693298 56.0 
423.848114 140.0 
423.917786 140.0 
423.944733 44.0 
424.19162 2344.0 
424.24823 116.0 
424.376862 44.0 
424.48349 96.0 
424.557312 96.0 
424.631134 56.0 
425.119354 64.0 
425.203949 280.0 
425.30426 68.0 
425.382019 56.0 
425.501068 44.0 
426.15094 196.0 
426.20343 140.0 
426.280914 56.0 
426.421234 104.0 
426.577454 128.0 
426.762451 60.0 
426.863464 116.0 
426.922821 32.0 
427.091461 76.0 
427.30127 44.0 
427.383545 92.0 
427.527557 56.0 
427.638702 84.0 
428.058624 164.0 
428.112152 92.0 
428.145111 36.0 
428.186279 196.0 
428.676544 40.0 
429.237183 172.0 
429.587769 72.0 
430.124207 96.0 
430.334747 164.0 
430.61145 44.0 
431.710785 168.0 
432.194763 84.0 
432.811523 120.0 
433.747864 44.0 
434.038055 124.0 
435.129303 128.0 
437.840515 168.0 
438.090454 100.0 
439.150238 132.0 
439.22702 208.0 
439.437073 128.0 
439.466278 104.0 
439.962952 160.0 
440.160828 132.0 
441.157776 180.0 
441.199585 64.0 
443.732513 56.0 
445.197418 160.0 
445.239838 232.0 
445.928009 184.0 
446.192841 188.0 
446.600739 64.0 
447.686615 48.0 
448.925598 144.0 
449.465546 160.0 
449.997375 140.0 
450.221191 72.0 
450.407043 84.0 
450.580872 184.0 
450.647827 92.0 
453.233246 252.0 
453.894409 132.0 
454.242188 396.0 
454.454315 136.0 
454.708923 108.0 
455.490204 168.0 
457.160431 336.0 
457.23349 160.0 
457.803986 156.0 
458.166046 88.0 
458.950287 68.0 
459.10379 140.0 
459.692505 128.0 
461.80304 168.0 
462.008362 112.0 
462.286469 168.0 
462.342102 140.0 
462.770172 108.0 
463.117065 92.0 
463.273468 140.0 
464.107025 108.0 
465.484467 132.0 
465.780792 48.0 
465.879608 96.0 
466.227661 76.0 
468.714996 180.0 
469.680725 52.0 
470.246643 128.0 
470.617218 144.0 
471.218597 264.0 
471.260803 132.0 
471.459595 148.0 
471.710266 236.0 
472.138336 104.0 
473.510284 92.0 
474.103851 120.0 
474.82785 172.0 
476.338379 176.0 
477.590271 132.0 
477.837067 208.0 
477.881744 80.0 
478.138489 72.0 
479.035461 184.0 
479.170502 76.0 
479.299194 120.0 
480.290894 128.0 
481.141846 152.0 
481.264099 112.0 
483.10849 132.0 
483.287872 184.0 
483.388519 108.0 
483.589813 116.0 
484.08017 56.0 
484.250977 280.0 
485.039673 112.0 
485.254486 52.0 
485.451813 60.0 
487.339355 124.0 
487.616211 48.0 
487.932709 216.0 
488.247925 284.0 
488.45163 160.0 
488.526398 120.0 
488.609985 52.0 
489.258423 156.0 
490.106995 76.0 
490.340576 132.0 
490.803467 180.0 
491.288605 92.0 
492.172943 284.0 
492.356812 108.0 
493.200714 84.0 
494.998627 84.0 
495.298126 132.0 
495.625977 164.0 
495.878571 84.0 
496.007111 48.0 
496.046997 84.0 
496.268677 76.0 
496.400055 160.0 
496.627899 112.0 
497.053802 56.0 
497.151428 56.0 
497.684113 176.0 
498.363708 52.0 
498.950378 40.0 
499.350616 156.0 
500.258331 132.0 
500.351837 96.0 
500.485413 168.0 
501.042145 52.0 
501.277954 152.0 
501.349609 76.0 
501.508881 176.0 
501.572479 48.0 
501.880096 92.0 
501.991577 184.0 
502.084412 112.0 
502.134277 128.0 
502.201172 116.0 
502.266907 15500.0 
502.359619 124.0 
502.397461 84.0 
502.437622 108.0 
502.49115 160.0 
502.572571 32.0 
502.66214 136.0 
502.693939 80.0 
502.779022 124.0 
502.874908 44.0 
502.97757 32.0 
503.082367 76.0 
503.110077 112.0 
503.269104 5496.0 
503.346649 132.0 
503.418243 64.0 
503.473175 84.0 
503.568695 104.0 
503.600342 76.0 
503.647369 64.0 
503.696503 60.0 
503.815033 68.0 
504.111847 92.0 
504.267914 1076.0 
504.348907 64.0 
504.509827 56.0 
504.619629 72.0 
504.897064 40.0 
504.970428 56.0 
505.153809 36.0 
505.19574 92.0 
505.259613 276.0 
505.292511 276.0 
505.357513 140.0 
505.440155 60.0 
505.517761 116.0 
505.731049 72.0 
505.856384 160.0 
506.075775 100.0 
506.185364 100.0 
506.255646 232.0 
506.438507 140.0 
506.523621 56.0 
506.577362 84.0 
506.720734 176.0 
506.814819 136.0 
506.985107 64.0 
507.052338 56.0 
507.272491 136.0 
507.406464 48.0 
507.549957 88.0 
507.616302 180.0 
507.653076 168.0 
507.706909 48.0 
508.083679 72.0 
508.133026 208.0 
508.321503 156.0 
508.375336 32.0 
508.792786 56.0 
509.13855 104.0 
509.57428 148.0 
509.888824 128.0 
510.707123 176.0 
512.616028 80.0 
512.661133 72.0 
513.035217 68.0 
513.576355 100.0 
513.651672 180.0 
513.833496 60.0 
515.684998 84.0 
515.72113 96.0 
515.906494 156.0 
516.236572 84.0 
516.602905 64.0 
516.774841 160.0 
516.833679 180.0 
517.295288 80.0 
518.636108 160.0 
519.166565 88.0 
519.928772 184.0 
520.27594 136.0 
520.676697 136.0 
520.932251 104.0 
522.218628 120.0 
522.509766 52.0 
523.898376 92.0 
524.162598 68.0 
524.199036 80.0 
524.259521 132.0 
524.32666 172.0 
525.279663 140.0 
525.311584 68.0 
525.462097 116.0 
525.653748 172.0 
526.297363 152.0 
527.133301 28.0 
527.256714 140.0 
527.462402 212.0 
527.741272 180.0 
528.230774 312.0 
528.280945 184.0 
528.381592 240.0 
528.500549 32.0 
529.187134 148.0 
529.249817 300.0 
529.82373 52.0 
530.194885 176.0 
530.249878 128.0 
532.672607 36.0 
533.982605 80.0 
534.309204 132.0 
534.691162 156.0 
534.939697 144.0 
536.330872 44.0 
536.363098 52.0 
536.418457 108.0 
536.787292 112.0 
536.884155 52.0 
537.064026 136.0 
537.386963 124.0 
537.423828 56.0 
537.986938 48.0 
538.735046 220.0 
538.797729 100.0 
538.832092 124.0 
539.163818 116.0 
539.267395 124.0 
539.537903 100.0 
539.62616 64.0 
539.73761 96.0 
539.992371 36.0 
540.043274 84.0 
540.302307 128.0 
540.343079 104.0 
540.468872 104.0 
540.640076 124.0 
540.714111 76.0 
540.825195 88.0 
540.855896 68.0 
540.885376 128.0 
541.223389 52.0 
541.297424 152.0 
541.399353 112.0 
541.640198 48.0 
541.751343 68.0 
542.478943 108.0 
542.529907 52.0 
542.905518 128.0 
543.06781 60.0 
543.315796 128.0 
543.377563 156.0 
543.545715 96.0 
543.601379 104.0 
543.833435 104.0 
543.981995 120.0 
544.023743 36.0 
544.18158 164.0 
544.214111 292.0 
544.287659 180.0 
544.395203 108.0 
544.608826 108.0 
544.701721 44.0 
544.748169 100.0 
544.810852 224.0 
544.934021 140.0 
545.184937 96.0 
545.218628 280.0 
545.258301 72.0 
545.285461 148.0 
545.324402 324.0 
545.402466 1916.0 
545.53418 224.0 
545.57074 48.0 
545.603271 108.0 
545.645142 124.0 
545.712036 236.0 
545.752075 128.0 
545.797729 144.0 
545.900879 96.0 
545.955139 96.0 
546.082886 164.0 
546.152771 200.0 
546.257324 48580.0 
546.404541 544.0 
546.498413 204.0 
546.562683 144.0 
546.60376 200.0 
546.663879 192.0 
546.749817 68.0 
546.7901 136.0 
546.824463 88.0 
546.868958 108.0 
546.914734 128.0 
546.959351 40.0 
547.002258 92.0 
547.034729 168.0 
547.080383 136.0 
547.120117 128.0 
547.258972 16540.0 
547.367065 148.0 
547.447998 156.0 
547.491699 156.0 
547.512634 92.0 
547.533142 56.0 
547.55249 264.0 
547.641541 60.0 
547.695679 108.0 
547.739319 140.0 
547.783508 92.0 
547.835022 184.0 
547.909058 156.0 
547.948975 104.0 
547.987488 92.0 
548.039673 52.0 
548.113647 164.0 
548.161438 180.0 
548.260681 2744.0 
548.412048 172.0 
548.494507 188.0 
548.536194 52.0 
548.61084 168.0 
548.71759 168.0 
548.79657 68.0 
548.857849 60.0 
548.895203 88.0 
548.984741 76.0 
549.025757 148.0 
549.077026 64.0 
549.137695 32.0 
549.188965 52.0 
549.249329 632.0 
549.372375 112.0 
549.412903 84.0 
549.450256 116.0 
549.501526 112.0 
549.53418 92.0 
549.606079 100.0 
549.650879 204.0 
549.711548 128.0 
549.781555 92.0 
549.818848 64.0 
549.907532 168.0 
550.042908 60.0 
550.126953 56.0 
550.20459 156.0 
550.251648 56.0 
550.259583 204.0 
550.3349 124.0 
550.467773 64.0 
550.526245 84.0 
550.559448 76.0 
550.594727 120.0 
550.643677 108.0 
550.703857 92.0 
550.860107 28.0 
550.933655 108.0 
551.027222 120.0 
551.084351 108.0 
551.120239 112.0 
551.187134 72.0 
551.297729 96.0 
551.371582 104.0 
551.444214 68.0 
551.554993 152.0 
551.631165 52.0 
551.690796 116.0 
551.762878 68.0 
551.818176 108.0 
551.883606 84.0 
552.070679 156.0 
552.168884 40.0 
552.454224 92.0 
552.547791 116.0 
552.669434 52.0 
552.945557 52.0 
553.037598 88.0 
553.247742 64.0 
553.315369 56.0 
553.493286 68.0 
553.914795 92.0 
554.031921 56.0 
554.533325 28.0 
554.777039 84.0 
555.278809 60.0 
555.447632 68.0 
555.485168 36.0 
555.522705 36.0 
556.128052 92.0 
556.292297 60.0 
557.475952 44.0 
560.544189 52.0 
561.553101 44.0 
562.226013 540.0 
563.214844 304.0 
563.241333 108.0 
563.564148 120.0 
563.748413 84.0 
564.197449 80.0 
564.230591 168.0 
565.209656 144.0 
565.680664 116.0 
566.213257 116.0 
568.294312 52.0 
569.025269 104.0 
569.509644 80.0 
570.146301 48.0 
570.536072 76.0 
573.701965 52.0 
576.326965 56.0 
578.804749 112.0 
580.179871 136.0 
596.555664 80.0 
596.939758 72.0 
597.124573 64.0 
601.963928 76.0 
606.871887 52.0 
613.144531 116.0 
615.705078 68.0 
626.169983 76.0 
631.340454 60.0 
631.440491 132.0 
632.070801 64.0 
633.072021 64.0 
643.75354 36.0 
652.733215 84.0 
655.273193 92.0 
661.212036 120.0 
666.483826 32.0 
669.673462 56.0 
675.040833 88.0 
679.111572 80.0 
680.741211 48.0 
690.664734 64.0 
691.271606 84.0 
720.871338 192.0 
722.635925 116.0 
735.960571 72.0 
736.824768 88.0 
749.341614 136.0 
749.385193 52.0 
756.627441 60.0 
757.870789 44.0 
772.582336 112.0 
772.748291 60.0 
775.22345 52.0 
777.685974 72.0 
789.984192 104.0 
793.933105 60.0 
795.380676 92.0 
799.630005 52.0 
799.69751 52.0 
803.207947 44.0 
816.444763 108.0 
819.832092 48.0 
833.497681 44.0 
837.513367 96.0 
839.945923 32.0 
845.006653 68.0 
846.482666 112.0 
854.190369 80.0 
871.084656 48.0 
873.377136 44.0 
873.577148 224.0 
876.644775 100.0 
879.263245 40.0 
879.387207 56.0 
887.331909 148.0 
890.085022 64.0 
899.145752 56.0 
901.612366 36.0 
920.053345 52.0 
921.611633 96.0 
925.694763 56.0 
949.824585 44.0 
950.70813 64.0 
960.145569 52.0 
970.77655 92.0 
992.866333 80.0 
1011.675293 120.0 
1013.087524 84.0 
1030.846069 28.0 
1047.566772 124.0 
1048.314087 104.0 
1051.26123 44.0 
1054.858887 204.0 
1059.609131 48.0 
1062.753784 140.0 
1089.930786 72.0 
1157.321777 56.0 
1165.264282 56.0 
1170.161377 156.0 
1183.818115 124.0 
1187.004639 204.0 
1194.057617 160.0 
1206.766968 80.0 
1208.579224 68.0 
1212.179932 152.0 
1221.901001 92.0 
1222.081909 52.0 
1231.674805 108.0 
1243.080078 68.0 
1245.474243 68.0 
1247.385498 72.0 
1257.02771 76.0 
1258.404053 68.0 
1260.056885 212.0 
1265.035645 72.0 
1266.473145 80.0 
1273.189819 52.0 
1289.776978 68.0 
1309.876465 36.0 
1313.423096 172.0 
1326.694336 100.0 
1352.246582 148.0 
1361.9104 216.0 
1389.779907 40.0 
1392.021729 164.0 
1393.091309 56.0 
1393.626221 196.0 
1409.004517 88.0 
1425.601807 188.0 
1431.740723 72.0 
1433.541138 96.0 
1438.390869 60.0 
1444.436157 132.0 
1444.96582 88.0 
1458.548096 120.0 
1460.160034 92.0 
1468.873779 104.0 
1476.626709 112.0 
1485.719238 120.0 
1488.666748 80.0 
1490.548828 56.0 
1498.250732 248.0 
END IONS

