BEGIN IONS
PEPMASS=697.216
CHARGE=1+
COMPOUNDNAME=MLS000756558-01!
LIBRARYQUALITY=1
SMILES=COC1C(OC(=O)c2ccc(C)[nH]2)C(O)C(Oc3ccc4c(O)c(NC(=O)c5ccc(O)c(CC=C(C)C)c5)c(=O)oc4c3Cl)OC1(C)C
INCHIKEY=FJAQNRBDVKIIKK-UHFFFAOYSA-N
INCHI=N/A
MSLEVEL=2
SOURCE_INSTRUMENT=LC-ESI-qTof
FILENAME=p2-H08_GH8_01_18068.mzXML
SEQ=*..*
IONMODE=Positive
ORGANISM=GNPS-NIH-NATURALPRODUCTSLIBRARY
NAME=MLS000756558-01! M+H
PI=Dorrestein
DATACOLLECTOR=VVP/LMS
PUBMED=N/A
SUBMITUSER=vphelan
TAGS=
SPECTRUMID=CCMSLIB00000080438
SCANS=2792
95.259483 112.0 
95.407799 188.0 
95.712852 188.0 
95.781303 192.0 
95.800499 120.0 
95.81414 140.0 
96.053925 152.0 
96.09684 104.0 
96.458138 188.0 
96.534393 236.0 
96.712425 212.0 
96.904343 120.0 
97.018021 132.0 
97.063889 2856.0 
97.083405 240.0 
97.208275 104.0 
97.514709 128.0 
97.563789 156.0 
97.581482 92.0 
97.609009 88.0 
97.646378 36.0 
97.752609 88.0 
98.067398 196.0 
98.257034 196.0 
98.446526 364.0 
98.6026 124.0 
98.661903 172.0 
98.752861 44.0 
98.925018 152.0 
98.970551 120.0 
99.040749 908.0 
99.06958 180.0 
99.099297 28.0 
99.200378 204.0 
99.47612 204.0 
99.741524 164.0 
99.99292 184.0 
100.62883 148.0 
100.858566 156.0 
100.896553 36.0 
100.930542 140.0 
101.266754 172.0 
101.306816 232.0 
101.322838 256.0 
102.16404 164.0 
102.264648 92.0 
102.459984 188.0 
102.58493 148.0 
102.637352 168.0 
102.796707 188.0 
103.307892 192.0 
103.777763 144.0 
103.964386 180.0 
104.289352 156.0 
104.358467 176.0 
104.521194 132.0 
104.568001 120.0 
104.863327 172.0 
104.924484 216.0 
105.033905 828.0 
105.070686 408.0 
105.434792 68.0 
105.868507 132.0 
106.00576 256.0 
106.155411 196.0 
106.216942 192.0 
106.555672 156.0 
106.668701 44.0 
106.705711 148.0 
106.890831 84.0 
107.045219 176.0 
107.098763 116.0 
107.113182 88.0 
107.129662 164.0 
107.164688 196.0 
107.220329 112.0 
107.311028 140.0 
107.348145 240.0 
107.434776 40.0 
107.550331 196.0 
107.719658 112.0 
107.743279 204.0 
107.802307 160.0 
107.847771 180.0 
107.928398 348.0 
107.957352 64.0 
107.99044 56.0 
108.0448 36680.0 
108.109749 36.0 
108.116646 40.0 
108.169601 144.0 
108.213936 56.0 
108.24556 192.0 
108.277328 88.0 
108.3237 60.0 
108.350632 48.0 
108.36721 192.0 
108.383438 88.0 
108.437668 196.0 
108.470833 52.0 
108.537178 64.0 
108.655403 84.0 
108.808983 68.0 
108.839767 184.0 
109.046913 2356.0 
109.168457 32.0 
109.183014 104.0 
109.262054 136.0 
109.359863 92.0 
109.397331 220.0 
109.432724 76.0 
109.484779 188.0 
109.580605 44.0 
109.862061 140.0 
109.901703 40.0 
109.928825 100.0 
109.960129 96.0 
110.003967 64.0 
110.047783 152.0 
110.070778 44.0 
110.19976 128.0 
110.218681 144.0 
110.226028 212.0 
110.350769 48.0 
110.506874 112.0 
110.543205 148.0 
110.702309 76.0 
110.744194 36.0 
110.800751 220.0 
110.825897 108.0 
110.89505 140.0 
110.972618 120.0 
111.029236 120.0 
111.079475 620.0 
111.102654 260.0 
111.182388 60.0 
111.211769 132.0 
111.390251 108.0 
111.480598 140.0 
111.692955 156.0 
111.768692 172.0 
111.804466 152.0 
111.82972 40.0 
111.932884 184.0 
112.086655 152.0 
112.694351 176.0 
112.857101 72.0 
112.967079 108.0 
113.48172 204.0 
113.693848 72.0 
113.715073 244.0 
113.973236 188.0 
114.03154 132.0 
115.009186 120.0 
115.048042 180.0 
115.119499 144.0 
115.207779 212.0 
115.389442 148.0 
116.662926 76.0 
116.787643 112.0 
117.26133 164.0 
117.358337 136.0 
117.584846 176.0 
117.744614 128.0 
118.187775 180.0 
118.222397 120.0 
118.376099 40.0 
118.777061 132.0 
118.968025 152.0 
119.045074 160.0 
119.085022 132.0 
119.146111 212.0 
119.567955 96.0 
119.683334 116.0 
119.720352 192.0 
119.818375 28.0 
119.914253 172.0 
120.223946 120.0 
120.311256 56.0 
120.844536 132.0 
120.951767 192.0 
121.028557 160.0 
121.06562 64.0 
121.124756 256.0 
121.376801 236.0 
122.211487 152.0 
122.550575 28.0 
123.066704 200.0 
123.141785 120.0 
123.27655 136.0 
123.621536 228.0 
123.661369 184.0 
123.911606 132.0 
124.546066 128.0 
124.762016 112.0 
124.803864 148.0 
124.912842 176.0 
125.037445 196.0 
125.060249 2168.0 
125.244514 96.0 
125.806458 116.0 
125.847519 208.0 
126.000755 128.0 
126.054329 4196.0 
126.139313 124.0 
126.190735 72.0 
126.486923 132.0 
126.640541 60.0 
126.857895 140.0 
126.954315 40.0 
127.058899 1444.0 
127.077682 200.0 
127.122566 284.0 
127.165207 64.0 
127.383011 168.0 
127.459404 128.0 
127.627983 188.0 
127.749435 204.0 
127.902458 132.0 
128.05928 176.0 
128.083557 168.0 
128.294067 104.0 
128.366577 196.0 
128.461304 164.0 
128.951294 196.0 
129.089905 232.0 
129.403732 160.0 
129.598511 184.0 
129.793457 176.0 
130.095215 236.0 
130.174683 136.0 
130.758942 76.0 
130.815857 148.0 
130.90921 216.0 
131.051056 160.0 
131.155273 144.0 
131.431213 200.0 
131.506531 152.0 
131.77829 172.0 
131.981705 156.0 
132.052597 212.0 
132.427963 180.0 
132.69838 112.0 
132.801575 160.0 
132.833694 68.0 
132.873978 220.0 
132.894028 244.0 
132.943817 164.0 
132.965073 108.0 
133.028412 19108.0 
133.095322 76.0 
133.228546 28.0 
133.263 60.0 
133.309799 88.0 
133.359528 204.0 
133.458374 52.0 
133.515869 80.0 
133.591766 28.0 
133.658493 88.0 
133.681503 80.0 
133.768967 116.0 
133.861069 48.0 
133.962402 48.0 
134.031036 1548.0 
134.310486 40.0 
134.698288 64.0 
134.71907 48.0 
134.873901 164.0 
134.934006 56.0 
134.957123 80.0 
135.005692 92.0 
135.031418 284.0 
135.107468 108.0 
135.191742 60.0 
135.540436 164.0 
135.846481 40.0 
135.932327 168.0 
136.108734 140.0 
136.658234 204.0 
136.836517 148.0 
137.104401 144.0 
137.288574 100.0 
138.295547 136.0 
138.963425 72.0 
139.074371 532.0 
140.063995 172.0 
140.146118 144.0 
140.296951 236.0 
140.908203 84.0 
140.97673 72.0 
141.078369 212.0 
141.300674 136.0 
141.565796 152.0 
141.722137 208.0 
142.40773 36.0 
142.562164 108.0 
142.709534 180.0 
143.014038 88.0 
143.081894 192.0 
143.237869 180.0 
143.411819 116.0 
143.671738 112.0 
143.948608 124.0 
144.008316 252.0 
144.161224 48.0 
144.455307 116.0 
144.953323 116.0 
145.802856 108.0 
146.069748 148.0 
146.094803 124.0 
146.238174 168.0 
146.404297 60.0 
146.946671 184.0 
147.002167 96.0 
147.044128 1052.0 
147.081818 180.0 
147.108368 80.0 
147.258072 92.0 
147.468277 156.0 
147.560135 140.0 
147.668961 72.0 
147.910919 120.0 
148.019867 188.0 
148.04126 164.0 
148.618591 112.0 
148.752075 32.0 
148.980347 208.0 
149.089691 156.0 
149.525024 152.0 
149.851334 144.0 
150.495255 200.0 
150.712631 112.0 
150.783508 248.0 
151.043869 168.0 
152.035355 160.0 
152.75737 172.0 
153.589966 48.0 
154.212204 152.0 
154.625244 160.0 
155.1008 172.0 
155.207413 104.0 
155.964615 192.0 
156.307816 108.0 
156.594116 56.0 
157.085846 668.0 
157.512024 108.0 
157.561996 216.0 
158.086914 180.0 
158.747971 108.0 
158.87886 212.0 
158.95665 88.0 
158.986755 180.0 
159.057037 200.0 
159.149933 108.0 
159.461441 144.0 
159.58461 76.0 
159.697784 228.0 
159.886551 152.0 
159.916687 156.0 
160.385178 176.0 
160.839218 92.0 
161.100845 336.0 
161.969513 192.0 
162.46637 108.0 
162.971619 76.0 
163.620193 136.0 
164.106827 236.0 
164.481842 160.0 
164.760193 156.0 
164.905853 92.0 
164.990204 116.0 
165.056686 200.0 
165.084824 80.0 
165.548019 140.0 
165.875977 68.0 
166.050323 132.0 
166.442963 264.0 
166.707565 164.0 
167.291428 228.0 
167.366089 128.0 
167.755127 168.0 
167.994949 184.0 
168.090424 144.0 
168.160095 172.0 
168.426056 156.0 
168.516464 180.0 
169.398682 140.0 
170.046921 256.0 
171.008591 52.0 
171.070435 416.0 
171.396637 148.0 
171.560837 200.0 
172.022583 140.0 
172.087845 172.0 
172.119171 140.0 
172.97673 44.0 
173.574081 148.0 
173.936142 152.0 
174.0569 172.0 
174.125183 172.0 
174.727142 136.0 
175.103577 148.0 
175.211578 176.0 
175.686111 192.0 
176.066208 136.0 
176.102234 156.0 
176.481094 132.0 
176.507538 128.0 
177.431595 152.0 
177.688858 156.0 
177.802963 188.0 
177.837463 140.0 
178.318207 100.0 
178.828873 160.0 
179.105789 88.0 
179.127106 236.0 
180.429428 140.0 
180.516357 204.0 
180.624634 120.0 
180.844055 28.0 
181.068954 160.0 
181.16539 144.0 
182.316483 84.0 
182.609528 164.0 
182.822083 168.0 
183.225967 204.0 
183.452347 132.0 
184.029709 184.0 
184.38089 144.0 
184.518753 140.0 
184.938049 156.0 
185.187149 116.0 
185.309052 144.0 
185.506897 180.0 
186.016891 56.0 
186.049469 144.0 
186.101044 164.0 
186.171646 140.0 
186.217819 212.0 
186.53302 132.0 
186.644485 48.0 
186.826721 176.0 
187.038971 56.0 
187.083664 220.0 
187.161484 140.0 
187.196884 108.0 
187.308548 76.0 
187.452957 112.0 
187.54834 48.0 
187.597412 60.0 
187.665573 168.0 
187.703735 148.0 
187.87558 64.0 
187.8974 36.0 
187.927414 96.0 
188.102081 128.0 
188.311371 148.0 
188.36969 100.0 
188.391541 172.0 
188.435257 224.0 
188.542389 216.0 
188.607422 144.0 
188.651154 148.0 
188.679153 100.0 
188.787872 216.0 
188.809753 152.0 
188.837097 80.0 
188.879623 484.0 
188.943787 164.0 
189.010941 328.0 
189.033737 192.0 
189.041443 116.0 
189.091995 62552.0 
189.148148 80.0 
189.157593 48.0 
189.202209 56.0 
189.224823 128.0 
189.251968 40.0 
189.275909 108.0 
189.301361 64.0 
189.335983 100.0 
189.372879 80.0 
189.402679 108.0 
189.488617 64.0 
189.509583 104.0 
189.540863 244.0 
189.589996 84.0 
189.622421 84.0 
189.640762 108.0 
189.664001 76.0 
189.696793 64.0 
189.732224 140.0 
189.765442 56.0 
189.81192 172.0 
189.81546 164.0 
189.858673 48.0 
189.905106 72.0 
189.922592 92.0 
189.973267 144.0 
190.009537 104.0 
190.047943 44.0 
190.094055 9104.0 
190.190155 88.0 
190.200104 72.0 
190.245834 80.0 
190.401917 76.0 
190.443039 96.0 
190.53392 136.0 
190.557114 76.0 
190.615707 116.0 
190.682312 40.0 
190.727936 80.0 
190.792252 76.0 
190.83075 72.0 
190.958618 80.0 
190.981995 84.0 
191.009506 68.0 
191.031509 152.0 
191.097275 1416.0 
191.188171 64.0 
191.272141 72.0 
191.299805 176.0 
191.321762 120.0 
191.370026 68.0 
191.427856 88.0 
191.447128 56.0 
191.493958 92.0 
191.518738 124.0 
191.538025 188.0 
191.60495 136.0 
191.636703 104.0 
191.673019 164.0 
191.716232 88.0 
191.882507 60.0 
191.965225 72.0 
192.028656 80.0 
192.101654 216.0 
192.163818 72.0 
192.270432 76.0 
192.362534 152.0 
192.553055 80.0 
192.943497 80.0 
193.152847 100.0 
193.332687 44.0 
194.405182 48.0 
194.63002 60.0 
194.671677 60.0 
195.032867 164.0 
196.062668 284.0 
196.213196 68.0 
198.194855 68.0 
198.292938 72.0 
198.396652 44.0 
198.50882 124.0 
198.53685 64.0 
198.578918 80.0 
199.151505 80.0 
199.182404 68.0 
200.879837 100.0 
200.987595 104.0 
201.074539 148.0 
201.992844 88.0 
202.584488 116.0 
202.867874 32.0 
203.069199 96.0 
203.429565 80.0 
203.999924 88.0 
204.100067 140.0 
209.051804 80.0 
211.377716 76.0 
214.852783 68.0 
214.995758 40.0 
216.056442 172.0 
219.080292 140.0 
225.104431 156.0 
226.567062 96.0 
226.713882 104.0 
227.541763 76.0 
228.094528 156.0 
232.103943 148.0 
236.990128 128.0 
241.107529 120.0 
242.382507 160.0 
244.006943 56.0 
245.940384 132.0 
250.110397 1052.0 
251.057648 164.0 
251.112152 264.0 
254.138702 32.0 
257.500366 112.0 
258.075592 96.0 
258.213104 140.0 
260.5242 84.0 
265.135193 220.0 
267.027985 176.0 
267.083282 160.0 
272.102112 192.0 
279.423676 80.0 
281.533691 36.0 
282.018127 108.0 
282.132935 476.0 
283.134583 312.0 
283.453857 72.0 
285.510742 68.0 
285.548706 108.0 
287.49939 60.0 
287.985565 76.0 
291.227051 204.0 
292.042786 144.0 
292.427277 60.0 
298.180115 100.0 
308.03476 156.0 
311.295532 132.0 
326.258759 76.0 
339.310486 128.0 
342.015656 292.0 
342.048218 276.0 
343.016724 144.0 
343.046234 52.0 
343.337524 40.0 
344.020569 372.0 
348.657562 84.0 
349.512878 88.0 
361.180939 116.0 
362.672821 96.0 
364.559082 136.0 
367.83844 44.0 
370.0979 172.0 
376.276672 76.0 
379.363922 176.0 
380.694763 72.0 
391.204956 168.0 
392.284363 88.0 
396.113525 112.0 
398.076355 212.0 
399.084106 112.0 
399.137787 52.0 
400.072571 396.0 
400.351501 32.0 
407.833252 160.0 
416.06604 92.0 
418.078064 116.0 
418.933136 124.0 
419.165375 188.0 
421.21756 128.0 
429.228973 200.0 
436.134613 92.0 
438.123718 112.0 
464.115173 104.0 
501.255035 136.0 
506.948181 64.0 
546.387512 124.0 
576.138367 52.0 
597.330994 208.0 
598.323792 156.0 
609.332886 88.0 
610.453552 56.0 
638.518799 44.0 
658.743469 52.0 
672.618591 100.0 
681.671814 84.0 
683.25769 52.0 
687.186035 60.0 
688.77832 68.0 
692.06781 44.0 
694.491577 128.0 
695.443909 168.0 
696.430969 64.0 
697.459229 348.0 
697.602783 92.0 
698.462036 308.0 
699.452698 144.0 
699.986206 128.0 
702.800964 56.0 
746.994629 116.0 
750.000977 200.0 
755.12738 60.0 
762.682922 128.0 
768.029419 56.0 
793.841797 36.0 
816.584839 228.0 
824.086792 68.0 
878.345154 196.0 
886.213806 148.0 
898.700073 212.0 
898.908936 124.0 
930.079346 80.0 
930.643921 116.0 
935.118103 144.0 
936.64032 76.0 
951.230469 116.0 
951.654053 140.0 
958.666443 60.0 
963.380371 128.0 
964.591553 212.0 
975.476807 204.0 
975.74408 208.0 
984.548645 184.0 
988.674744 168.0 
995.834534 112.0 
1017.684631 128.0 
1019.730164 148.0 
1025.624023 220.0 
1035.924683 96.0 
1037.610229 184.0 
1039.014771 180.0 
1042.63623 132.0 
1043.221191 156.0 
1043.921997 264.0 
1045.813477 204.0 
1048.879395 160.0 
1055.871948 192.0 
1057.211182 168.0 
1059.542114 172.0 
1062.070312 224.0 
1062.200073 160.0 
1063.530273 148.0 
1065.270508 228.0 
1065.71228 256.0 
1066.804077 76.0 
1067.018677 192.0 
1069.692383 132.0 
1070.011353 192.0 
1070.395508 80.0 
1071.424561 148.0 
1077.759888 192.0 
1077.825195 224.0 
1087.399414 208.0 
1087.734131 148.0 
1089.185303 168.0 
1093.051025 204.0 
1094.308228 192.0 
1096.805054 180.0 
1100.294678 136.0 
1101.239014 172.0 
1101.859985 168.0 
1104.021362 76.0 
1108.363892 52.0 
1112.077637 220.0 
1120.263062 128.0 
1121.249268 152.0 
1122.715942 216.0 
1124.276978 212.0 
1125.131348 76.0 
1126.246582 56.0 
1126.380127 172.0 
1127.515991 216.0 
1128.592285 204.0 
1132.755005 132.0 
1134.604614 132.0 
1137.066284 144.0 
1137.804688 96.0 
1142.791626 156.0 
1144.838013 140.0 
1145.019775 40.0 
1147.877197 148.0 
1150.839355 200.0 
1152.791504 108.0 
1153.487671 88.0 
1154.508545 188.0 
1154.555908 124.0 
1155.34729 164.0 
1155.834473 68.0 
1156.883423 152.0 
1161.647461 124.0 
1165.306641 108.0 
1166.557129 136.0 
1168.066772 192.0 
1169.665771 212.0 
1170.353394 156.0 
1170.653076 88.0 
1172.751343 192.0 
1173.460327 220.0 
1177.349854 208.0 
1178.702393 172.0 
1182.12146 184.0 
1185.476929 184.0 
1185.538574 132.0 
1185.81958 44.0 
1192.53894 160.0 
1200.483765 108.0 
1204.749268 164.0 
1207.610962 224.0 
1208.558716 172.0 
1209.54834 148.0 
1209.818359 132.0 
1210.974731 212.0 
1213.178223 140.0 
1217.341187 228.0 
1217.696411 136.0 
1218.230225 244.0 
1218.480347 124.0 
1219.230835 40.0 
1220.6698 200.0 
1221.03833 92.0 
1222.186157 160.0 
1222.485352 212.0 
1222.791626 64.0 
1223.118774 108.0 
1227.828735 224.0 
1227.913818 144.0 
1229.342529 124.0 
1234.421143 144.0 
1235.386353 220.0 
1235.568237 136.0 
1236.617798 104.0 
1238.466309 236.0 
1242.700439 84.0 
1245.550659 184.0 
1246.393677 224.0 
1248.797974 208.0 
1253.860107 192.0 
1254.459229 244.0 
1255.171387 208.0 
1257.322876 188.0 
1258.918457 140.0 
1259.377441 168.0 
1261.765991 160.0 
1266.641724 132.0 
1270.547729 128.0 
1272.329102 240.0 
1272.868652 52.0 
1274.125854 136.0 
1278.577026 96.0 
1279.38855 132.0 
1284.854614 248.0 
1287.231445 136.0 
1287.63855 228.0 
1293.043457 232.0 
1293.487183 100.0 
1294.446655 144.0 
1299.794067 132.0 
1301.825562 220.0 
1303.73645 100.0 
1304.994385 204.0 
1307.432861 132.0 
1310.2771 176.0 
1311.559814 148.0 
1315.859253 96.0 
1316.862061 192.0 
1317.809326 228.0 
1318.32959 232.0 
1318.662842 204.0 
1319.377686 176.0 
1319.507812 156.0 
1319.645142 256.0 
1319.760864 116.0 
1321.359253 172.0 
1321.959839 136.0 
1323.458252 156.0 
1323.950684 48.0 
1324.428711 220.0 
1324.580811 160.0 
1326.414062 200.0 
1329.170044 136.0 
1329.997314 212.0 
1330.955566 236.0 
1332.91687 212.0 
1333.38916 152.0 
1340.360718 180.0 
1345.539307 172.0 
1348.592773 132.0 
1350.852173 188.0 
1355.61853 136.0 
1356.0802 184.0 
1357.5979 228.0 
1358.235962 232.0 
1359.644653 164.0 
1359.9823 132.0 
1360.481445 172.0 
1361.553467 140.0 
1364.639648 152.0 
1365.191162 72.0 
1366.838867 152.0 
1366.971436 136.0 
1368.355103 148.0 
1372.751953 204.0 
1372.995361 128.0 
1373.174438 204.0 
1375.749634 188.0 
1376.163086 176.0 
1379.029297 140.0 
1380.112671 184.0 
1380.359985 148.0 
1381.402832 100.0 
1381.898438 120.0 
1382.934448 76.0 
1383.378662 104.0 
1383.534058 156.0 
1383.845093 188.0 
1384.044922 68.0 
1385.00769 180.0 
1385.704102 84.0 
1388.009155 204.0 
1390.286499 240.0 
1391.600342 168.0 
1396.817383 48.0 
1397.263794 96.0 
1398.454346 188.0 
1398.72229 204.0 
1398.908447 72.0 
1399.996216 192.0 
1400.136963 136.0 
1400.419312 208.0 
1402.357178 128.0 
1403.94519 144.0 
1406.519165 160.0 
1408.91626 212.0 
1410.321167 160.0 
1411.083618 184.0 
1411.248047 156.0 
1413.881226 144.0 
1414.150635 148.0 
1416.651611 124.0 
1422.740967 148.0 
1426.895508 240.0 
1427.970825 172.0 
1428.422119 88.0 
1430.777588 164.0 
1432.713013 56.0 
1432.871216 172.0 
1433.134888 64.0 
1437.727173 188.0 
1437.795044 172.0 
1437.946045 184.0 
1438.904663 148.0 
1439.168945 160.0 
1439.674927 152.0 
1444.761719 80.0 
1445.692383 148.0 
1447.554565 212.0 
1448.781616 108.0 
1450.5625 148.0 
1451.866577 168.0 
1452.730347 176.0 
1454.317139 224.0 
1454.734619 180.0 
1455.091431 164.0 
1455.592529 120.0 
1455.820312 224.0 
1456.032959 176.0 
1456.276001 40.0 
1456.921753 120.0 
1457.87146 60.0 
1458.692261 176.0 
1461.515503 200.0 
1462.000854 168.0 
1462.297729 136.0 
1462.967529 244.0 
1464.848389 196.0 
1467.561523 124.0 
1469.598022 240.0 
1471.071411 176.0 
1472.567505 152.0 
1473.621704 132.0 
1476.878296 108.0 
1478.247681 188.0 
1480.00061 220.0 
1483.394531 68.0 
1483.716553 184.0 
1484.644287 128.0 
1487.644409 132.0 
1488.012817 136.0 
1489.018799 204.0 
1489.541016 152.0 
1489.86377 104.0 
1491.53125 196.0 
1492.169312 224.0 
1493.43811 92.0 
1494.422852 148.0 
1494.7229 196.0 
1496.239136 136.0 
1498.064331 100.0 
1499.559204 196.0 
1501.178101 188.0 
1502.242432 176.0 
1504.225708 176.0 
END IONS

