BEGIN IONS
PEPMASS=323.02
CHARGE=1+
COMPOUNDNAME=MLS001055372-01!
LIBRARYQUALITY=3
SMILES=OC[C@@H](NC(=O)C(Cl)Cl)[C@H](O)c1ccc(cc1)[N+](=O)[O-]
INCHIKEY=WIIZWVCIJKGZOK-RKDXNWHRSA-N
INCHI=N/A
MSLEVEL=2
SOURCE_INSTRUMENT=LC-ESI-qTof
FILENAME=p1-C07_GC7_01_17903.mzXML
SEQ=*..*
IONMODE=Positive
ORGANISM=GNPS-NIH-NATURALPRODUCTSLIBRARY
NAME=MLS001055372-01! M+H
PI=Dorrestein
DATACOLLECTOR=VVP/LMS
PUBMED=N/A
SUBMITUSER=vphelan
TAGS=
SPECTRUMID=CCMSLIB00000079503
SCANS=1661
95.384361 172.0 
96.73616 180.0 
97.106483 228.0 
100.194115 196.0 
102.230415 156.0 
106.064995 180.0 
108.054268 44.0 
109.954407 216.0 
110.599289 88.0 
111.448608 140.0 
112.006096 116.0 
115.056694 188.0 
116.052483 216.0 
117.055374 308.0 
118.044731 116.0 
118.062851 608.0 
119.073677 728.0 
119.25824 40.0 
119.36042 68.0 
120.122673 168.0 
127.969795 200.0 
128.062546 376.0 
130.062943 212.0 
131.001114 176.0 
131.049713 152.0 
131.075073 348.0 
131.445694 144.0 
132.05957 360.0 
132.75383 144.0 
133.027161 120.0 
133.054718 112.0 
134.059845 196.0 
135.04332 188.0 
135.069565 360.0 
136.035034 140.0 
136.065216 196.0 
136.657852 164.0 
136.84404 96.0 
136.937195 68.0 
138.030212 224.0 
139.008453 96.0 
139.078873 92.0 
139.170425 76.0 
141.800659 216.0 
142.07608 180.0 
142.479294 64.0 
144.034821 156.0 
145.056503 208.0 
146.06459 140.0 
148.063721 216.0 
149.017639 344.0 
149.053833 228.0 
150.01796 188.0 
150.255997 152.0 
150.768753 84.0 
151.013229 164.0 
151.06105 420.0 
151.084167 140.0 
152.064301 192.0 
152.317184 244.0 
153.020508 156.0 
156.018967 120.0 
158.049118 64.0 
158.627625 104.0 
159.054047 192.0 
161.040649 144.0 
162.055099 144.0 
163.359924 56.0 
164.023972 612.0 
164.056259 200.0 
164.205551 236.0 
165.030334 188.0 
165.066513 3620.0 
165.209381 60.0 
166.019867 156.0 
166.070282 252.0 
166.808701 224.0 
166.925217 152.0 
167.018326 236.0 
167.097549 96.0 
167.277679 76.0 
167.424438 72.0 
167.475952 20.0 
168.032745 188.0 
170.068573 176.0 
171.072617 216.0 
173.966446 180.0 
175.04715 160.0 
177.035446 164.0 
177.05928 336.0 
177.414337 152.0 
179.016464 124.0 
184.017227 156.0 
184.573807 132.0 
189.914276 176.0 
191.034973 176.0 
192.022446 112.0 
192.054138 204.0 
192.705627 168.0 
193.995255 128.0 
196.015793 116.0 
204.077469 88.0 
205.92688 80.0 
206.031189 352.0 
207.374573 172.0 
208.028549 40.0 
211.021774 116.0 
216.290161 180.0 
222.012589 164.0 
224.715622 96.0 
227.993103 176.0 
229.00293 260.0 
230.003281 152.0 
231.006485 160.0 
233.11058 200.0 
234.882462 80.0 
237.494598 148.0 
239.991653 152.0 
241.006699 148.0 
243.000504 172.0 
246.988464 172.0 
249.082291 148.0 
252.726624 140.0 
257.996704 848.0 
258.985291 136.0 
259.993439 396.0 
260.54425 64.0 
269.981323 184.0 
271.988251 116.0 
274.995453 860.0 
275.995667 348.0 
276.998199 188.0 
277.096375 140.0 
305.08197 148.0 
314.181396 40.0 
325.18988 144.0 
674.345947 20.0 
736.851562 72.0 
879.349426 132.0 
882.976868 176.0 
1197.305176 156.0 
1208.459961 136.0 
1253.631348 120.0 
1339.546509 196.0 
1357.342407 152.0 
1384.971191 236.0 
1390.420532 132.0 
1396.787964 164.0 
1443.89856 124.0 
1444.647339 176.0 
1488.141479 216.0 
1491.498535 164.0 
END IONS

