BEGIN IONS
PEPMASS=319.155
CHARGE=1+
COMPOUNDNAME=MLS001174881-01!
LIBRARYQUALITY=1
SMILES=C[C@H]1CCCC(=O)CCCC=Cc2cc(O)cc(O)c2C(=O)O1
INCHIKEY=MBMQEIFVQACCCH-LBPRGKRZSA-N
INCHI=N/A
MSLEVEL=2
SOURCE_INSTRUMENT=LC-ESI-qTof
FILENAME=p3-F08_GF8_01_18289.mzXML
SEQ=*..*
IONMODE=Positive
ORGANISM=GNPS-NIH-SMALLMOLECULEPHARMACOLOGICALLYACTIVE
NAME=MLS001174881-01! M+H
PI=Dorrestein
DATACOLLECTOR=VP/LMS
PUBMED=N/A
SUBMITUSER=vphelan
TAGS=
SPECTRUMID=CCMSLIB00000085176
SCANS=2212
45.016674 108.0 
45.116894 152.0 
45.497395 144.0 
45.59277 196.0 
45.680176 184.0 
45.937489 196.0 
46.106277 40.0 
46.230705 252.0 
46.499065 124.0 
46.863533 96.0 
46.873074 140.0 
47.04084 384.0 
47.686043 172.0 
47.944805 32.0 
47.965481 216.0 
48.648895 180.0 
48.69611 160.0 
49.076046 160.0 
49.281239 216.0 
49.903599 196.0 
50.870014 184.0 
50.892731 212.0 
51.778358 164.0 
51.911644 136.0 
53.065281 160.0 
53.21909 136.0 
53.652687 164.0 
53.875988 68.0 
53.902287 96.0 
54.189365 108.0 
54.301979 172.0 
54.503109 220.0 
55.206306 160.0 
55.607822 192.0 
56.19268 152.0 
56.246407 144.0 
56.294186 200.0 
56.325554 136.0 
56.647186 100.0 
56.680149 92.0 
56.794098 80.0 
57.038868 112.0 
57.156181 144.0 
57.333889 220.0 
57.752129 176.0 
57.921669 124.0 
57.956516 144.0 
58.094494 124.0 
58.133945 160.0 
58.272129 104.0 
58.323803 176.0 
58.485046 164.0 
58.597744 196.0 
59.315819 128.0 
59.366657 148.0 
59.838417 160.0 
59.863056 140.0 
60.163738 104.0 
60.179176 224.0 
60.284222 224.0 
60.336781 172.0 
60.633999 148.0 
60.910198 52.0 
61.048534 192.0 
61.0952 192.0 
61.1092 184.0 
61.162117 168.0 
61.36153 256.0 
61.845829 60.0 
61.886536 176.0 
62.049072 176.0 
62.445126 120.0 
62.976421 116.0 
63.113918 208.0 
63.740078 48.0 
64.074226 196.0 
64.414497 256.0 
64.561104 128.0 
65.120468 196.0 
65.134926 204.0 
65.517815 120.0 
66.775635 208.0 
67.458885 152.0 
67.686317 172.0 
67.81411 188.0 
68.650986 176.0 
69.00106 172.0 
69.093681 68.0 
69.56768 120.0 
69.778679 156.0 
69.808609 216.0 
69.945045 120.0 
69.988335 112.0 
70.221657 124.0 
70.425293 116.0 
70.525551 236.0 
71.089989 208.0 
71.11013 140.0 
71.261276 116.0 
71.506805 164.0 
71.654999 172.0 
71.872513 144.0 
71.919769 184.0 
71.967041 92.0 
72.122467 168.0 
72.283142 196.0 
72.67289 220.0 
72.825684 172.0 
73.01265 164.0 
73.296951 148.0 
74.386475 128.0 
74.520439 136.0 
74.721611 172.0 
74.864487 212.0 
74.928215 176.0 
74.98336 140.0 
75.016113 140.0 
75.352661 228.0 
75.363777 184.0 
75.579178 184.0 
76.222519 68.0 
76.415535 52.0 
76.566986 284.0 
76.587883 108.0 
77.188278 152.0 
77.4403 172.0 
77.489349 28.0 
77.785744 52.0 
78.343231 124.0 
78.503632 224.0 
78.53891 184.0 
78.604187 64.0 
78.658905 196.0 
79.099083 76.0 
79.283295 184.0 
79.331154 128.0 
79.703888 172.0 
80.152321 156.0 
80.197922 292.0 
80.236092 128.0 
80.952637 104.0 
81.21611 156.0 
81.566269 164.0 
81.726341 164.0 
82.090225 100.0 
82.436844 228.0 
82.563393 204.0 
82.831284 180.0 
83.119568 140.0 
83.42289 220.0 
83.513817 96.0 
83.622986 144.0 
83.761375 200.0 
84.627075 152.0 
84.879944 200.0 
85.107491 72.0 
85.359238 248.0 
85.421776 200.0 
85.631622 208.0 
85.782722 196.0 
85.973862 224.0 
87.368027 180.0 
87.457352 176.0 
88.431709 192.0 
88.575897 120.0 
88.819588 128.0 
89.812805 144.0 
90.103531 144.0 
90.413658 208.0 
90.828613 176.0 
91.024109 196.0 
91.055962 288.0 
91.158981 172.0 
91.343414 108.0 
91.379562 116.0 
91.39669 44.0 
91.465202 76.0 
91.497566 140.0 
91.705215 172.0 
91.722374 116.0 
91.770035 100.0 
91.853951 136.0 
92.004189 72.0 
92.417564 56.0 
92.603264 196.0 
92.687561 140.0 
93.253723 164.0 
93.3787 136.0 
95.174088 112.0 
95.212929 204.0 
95.782837 124.0 
96.065506 204.0 
96.739738 160.0 
96.823936 52.0 
97.288673 220.0 
97.333832 104.0 
97.559792 68.0 
97.847031 216.0 
98.201752 60.0 
98.484016 144.0 
98.960632 172.0 
99.146843 204.0 
99.774117 236.0 
99.847694 76.0 
100.148247 132.0 
100.80265 164.0 
100.998589 184.0 
101.240776 180.0 
101.465202 72.0 
101.920837 212.0 
102.079643 140.0 
102.69577 188.0 
102.944191 72.0 
103.052086 364.0 
103.105812 36.0 
103.22509 160.0 
104.023399 192.0 
104.05928 316.0 
104.198059 88.0 
104.637383 124.0 
104.708656 60.0 
104.855354 128.0 
104.989914 164.0 
105.031693 308.0 
105.069016 888.0 
105.224586 192.0 
105.608788 140.0 
106.073616 184.0 
106.849922 188.0 
107.014587 128.0 
107.048447 324.0 
107.088066 200.0 
107.173187 152.0 
107.432976 224.0 
107.513451 248.0 
107.560928 172.0 
107.670364 140.0 
107.879059 52.0 
108.090813 244.0 
108.127289 180.0 
108.20388 160.0 
108.239082 152.0 
108.384087 136.0 
108.647408 148.0 
109.099113 176.0 
109.175018 52.0 
109.29776 192.0 
109.847809 184.0 
109.981354 160.0 
110.037727 144.0 
110.11499 236.0 
110.271698 120.0 
110.595909 168.0 
111.298241 96.0 
111.579803 128.0 
111.701782 120.0 
111.806984 144.0 
112.032295 216.0 
112.146088 132.0 
112.673668 124.0 
112.730721 132.0 
112.775101 164.0 
112.853325 124.0 
113.141075 188.0 
113.295685 168.0 
113.919411 104.0 
114.080925 140.0 
114.30851 136.0 
114.370232 100.0 
114.644989 96.0 
114.736649 144.0 
115.053879 1104.0 
115.086571 36.0 
115.26387 224.0 
115.481941 208.0 
116.010864 40.0 
116.060448 228.0 
116.261826 160.0 
116.680702 240.0 
116.790382 104.0 
116.857071 60.0 
117.03788 172.0 
117.068161 328.0 
117.249001 148.0 
117.298576 80.0 
118.036987 92.0 
118.073753 240.0 
118.179756 160.0 
118.253334 52.0 
118.290131 64.0 
118.324776 40.0 
118.491547 196.0 
118.63459 104.0 
118.92527 180.0 
119.047638 188.0 
119.082001 328.0 
119.307602 220.0 
120.089378 152.0 
120.720573 156.0 
121.070732 144.0 
121.125488 208.0 
121.397278 84.0 
121.414825 104.0 
121.550842 180.0 
122.014305 64.0 
122.743134 140.0 
123.03978 644.0 
123.323776 128.0 
123.390099 164.0 
124.207291 192.0 
124.245003 172.0 
124.420341 180.0 
125.093651 256.0 
125.403595 140.0 
125.689064 32.0 
126.091049 180.0 
126.395195 76.0 
126.903671 116.0 
127.051346 236.0 
127.880913 196.0 
127.995735 180.0 
128.061172 1164.0 
128.153412 52.0 
128.184448 208.0 
128.221024 148.0 
128.42395 144.0 
128.617996 108.0 
128.889023 68.0 
129.033676 176.0 
129.067871 2072.0 
129.151276 52.0 
129.241776 80.0 
129.484009 116.0 
130.072495 352.0 
130.216599 184.0 
130.418823 128.0 
130.552979 160.0 
130.855621 96.0 
131.047974 840.0 
131.082306 920.0 
131.106155 236.0 
131.156342 88.0 
131.181427 92.0 
131.222458 32.0 
131.640045 116.0 
131.820511 160.0 
132.051895 372.0 
132.08345 160.0 
132.154373 124.0 
132.548233 56.0 
133.025299 116.0 
133.063812 672.0 
133.09877 180.0 
133.369873 168.0 
133.454941 148.0 
133.505524 56.0 
133.671158 32.0 
133.689575 192.0 
133.832306 76.0 
133.942841 88.0 
134.053436 140.0 
134.078796 168.0 
134.500885 152.0 
135.004593 292.0 
135.040405 164.0 
135.180405 148.0 
135.824524 48.0 
135.924286 180.0 
136.05426 124.0 
136.328354 44.0 
136.353928 180.0 
136.412033 64.0 
136.756317 148.0 
137.022034 272.0 
137.054413 72.0 
137.094391 208.0 
137.268875 40.0 
138.301544 64.0 
138.512299 168.0 
138.718521 152.0 
138.805267 208.0 
138.88501 144.0 
139.052994 656.0 
139.549637 204.0 
139.810745 204.0 
139.963776 220.0 
140.052841 348.0 
140.746643 144.0 
141.018341 140.0 
141.068466 3028.0 
141.311569 40.0 
141.486725 136.0 
142.031784 124.0 
142.072006 976.0 
142.129059 156.0 
142.49472 164.0 
142.525604 156.0 
142.689621 152.0 
142.7229 168.0 
142.799011 148.0 
142.875137 40.0 
143.047562 888.0 
143.08934 192.0 
143.132187 84.0 
143.151245 132.0 
143.811661 192.0 
144.028961 136.0 
144.055984 416.0 
144.38031 208.0 
144.48317 156.0 
145.062042 560.0 
145.101089 164.0 
145.134659 136.0 
145.199417 56.0 
145.393753 104.0 
145.797226 152.0 
146.037659 172.0 
146.063736 148.0 
146.138702 76.0 
146.198868 144.0 
146.256638 200.0 
146.297562 136.0 
146.451675 160.0 
147.041504 1912.0 
147.080154 420.0 
147.131729 92.0 
147.153458 156.0 
147.25972 56.0 
147.291107 112.0 
147.407089 168.0 
147.432739 192.0 
147.57872 144.0 
147.793991 56.0 
148.046417 572.0 
148.082077 168.0 
148.183823 124.0 
148.329239 164.0 
149.02092 268.0 
149.059433 644.0 
149.096252 172.0 
149.125427 168.0 
149.565689 248.0 
150.066391 244.0 
150.374939 104.0 
151.047089 156.0 
151.111023 308.0 
151.291626 156.0 
151.450806 180.0 
151.570847 148.0 
151.784119 192.0 
152.058777 176.0 
152.759201 100.0 
152.781342 204.0 
153.002838 176.0 
153.03978 216.0 
153.06897 376.0 
153.093948 200.0 
153.470978 160.0 
153.744812 160.0 
154.080627 144.0 
154.64447 172.0 
154.701401 140.0 
155.013489 120.0 
155.054565 348.0 
155.080399 148.0 
155.117584 128.0 
155.507034 184.0 
156.013794 140.0 
156.049866 280.0 
156.088303 360.0 
156.337158 124.0 
156.954956 136.0 
156.982391 184.0 
157.032394 160.0 
157.063904 6408.0 
157.303467 104.0 
157.519028 36.0 
157.726425 156.0 
157.963989 48.0 
158.068222 804.0 
158.101608 152.0 
158.166687 192.0 
158.29187 60.0 
158.607559 224.0 
158.627625 52.0 
158.795624 148.0 
158.888443 68.0 
158.923569 196.0 
159.026459 144.0 
159.042816 128.0 
159.080765 912.0 
159.121857 76.0 
159.168625 96.0 
159.246918 100.0 
159.631943 52.0 
159.654587 116.0 
159.891083 92.0 
160.050262 1772.0 
160.085526 292.0 
160.243622 84.0 
160.659637 156.0 
160.856476 204.0 
161.057755 2760.0 
161.126709 76.0 
161.516022 32.0 
161.837433 148.0 
161.936203 140.0 
162.059891 384.0 
162.181992 44.0 
162.220016 96.0 
162.245361 236.0 
162.270721 52.0 
162.296082 44.0 
163.036728 480.0 
163.071625 708.0 
163.111053 68.0 
164.044495 236.0 
164.323303 188.0 
164.744568 160.0 
165.017273 884.0 
165.061661 416.0 
165.199631 108.0 
166.012421 360.0 
166.191162 128.0 
167.045166 480.0 
167.085846 164.0 
168.054199 620.0 
168.09021 184.0 
168.810959 228.0 
169.063354 1748.0 
169.103317 188.0 
169.245697 204.0 
169.608414 64.0 
169.725082 152.0 
169.763977 60.0 
170.071472 916.0 
170.160995 52.0 
171.042252 172.0 
171.076416 188.0 
171.302719 136.0 
171.391312 116.0 
171.709351 52.0 
171.858063 200.0 
172.048309 192.0 
172.082535 224.0 
172.299316 52.0 
173.057724 732.0 
173.091248 204.0 
173.749771 52.0 
173.841248 148.0 
173.980728 68.0 
174.061188 756.0 
174.677139 148.0 
174.811325 140.0 
174.99823 136.0 
175.037369 3776.0 
175.074463 2712.0 
175.124634 44.0 
175.498856 148.0 
175.657104 52.0 
175.738892 216.0 
176.044601 644.0 
176.077698 356.0 
176.187744 44.0 
176.31723 28.0 
176.626587 104.0 
177.053848 1164.0 
177.086075 168.0 
177.126892 88.0 
177.259369 128.0 
177.368042 44.0 
178.052734 176.0 
178.093735 280.0 
178.259827 100.0 
179.062469 276.0 
179.103577 188.0 
179.737778 164.0 
180.036758 152.0 
180.054489 132.0 
180.119568 168.0 
180.456299 112.0 
180.820114 284.0 
181.062271 248.0 
181.0979 140.0 
181.248611 180.0 
181.768829 40.0 
182.069519 136.0 
182.182327 52.0 
182.28981 160.0 
182.620499 120.0 
182.695816 32.0 
182.857269 160.0 
183.081299 156.0 
183.113068 360.0 
183.743851 124.0 
184.051544 308.0 
184.089371 216.0 
184.443314 132.0 
184.513596 44.0 
184.616348 220.0 
184.803009 76.0 
184.959976 208.0 
184.997879 132.0 
185.057327 6208.0 
185.106186 132.0 
185.130554 136.0 
185.209106 68.0 
185.23262 76.0 
185.280304 56.0 
185.336441 136.0 
185.7621 216.0 
185.933044 104.0 
185.990051 152.0 
186.061005 1076.0 
186.131226 280.0 
186.253448 72.0 
186.305054 120.0 
186.364838 64.0 
186.397446 76.0 
186.587708 180.0 
186.848816 192.0 
186.957245 188.0 
187.073441 5104.0 
187.11554 180.0 
187.150269 180.0 
187.180893 132.0 
187.287109 140.0 
187.33342 52.0 
187.406982 44.0 
187.48056 44.0 
187.674103 96.0 
187.753189 56.0 
188.043488 296.0 
188.077667 776.0 
188.501221 120.0 
189.053207 1928.0 
189.549301 140.0 
189.707687 56.0 
189.790527 144.0 
190.012695 88.0 
190.053864 316.0 
190.245987 164.0 
190.34758 68.0 
190.586563 140.0 
190.853195 144.0 
190.954941 32.0 
191.029144 160.0 
191.071609 196.0 
191.106247 124.0 
192.343704 44.0 
193.043991 228.0 
193.071518 188.0 
193.095276 264.0 
193.255722 128.0 
194.25589 104.0 
194.725006 188.0 
195.075073 180.0 
195.11174 120.0 
195.617599 196.0 
196.043152 164.0 
196.084747 136.0 
196.900269 80.0 
197.05864 784.0 
197.090958 108.0 
197.263519 192.0 
198.064758 140.0 
198.092789 180.0 
198.743378 92.0 
199.039856 280.0 
199.072632 432.0 
199.107025 144.0 
199.287048 40.0 
199.379791 180.0 
199.492218 80.0 
200.044174 240.0 
200.08255 336.0 
200.39566 104.0 
200.92009 80.0 
200.969498 172.0 
201.055435 320.0 
201.092453 600.0 
201.185379 236.0 
201.272903 88.0 
201.535599 52.0 
202.052277 152.0 
202.061218 112.0 
202.068817 140.0 
202.090469 172.0 
202.171875 76.0 
203.069534 4728.0 
203.16362 28.0 
203.419037 76.0 
203.491287 80.0 
203.720062 160.0 
203.850754 60.0 
204.072632 884.0 
204.809586 40.0 
205.05571 164.0 
205.08429 472.0 
205.148697 36.0 
205.627914 92.0 
205.70784 100.0 
206.067688 104.0 
206.089142 456.0 
206.636673 80.0 
207.046021 120.0 
207.080887 212.0 
208.075485 180.0 
209.043564 164.0 
209.087341 180.0 
209.444382 280.0 
210.063599 284.0 
210.142044 196.0 
211.07251 356.0 
211.286194 68.0 
212.075089 352.0 
212.796234 112.0 
212.95015 48.0 
213.054062 960.0 
213.084869 484.0 
213.121552 188.0 
213.165131 72.0 
213.508179 48.0 
213.580902 88.0 
214.061203 484.0 
214.096817 172.0 
214.148499 56.0 
214.906479 108.0 
214.994019 148.0 
215.068619 1236.0 
215.105453 136.0 
215.522583 140.0 
216.081055 140.0 
216.107391 100.0 
217.08432 332.0 
217.540573 56.0 
217.611038 80.0 
218.087952 300.0 
219.016785 152.0 
219.066681 192.0 
219.999252 100.0 
220.069641 124.0 
221.084259 160.0 
221.11911 100.0 
221.957504 148.0 
222.102829 224.0 
222.200729 48.0 
222.372849 100.0 
223.074982 816.0 
223.1138 180.0 
224.080139 216.0 
224.565735 60.0 
225.05217 120.0 
225.087662 140.0 
225.658737 112.0 
225.966797 72.0 
226.02066 76.0 
226.064163 344.0 
226.100372 132.0 
226.670471 80.0 
227.06778 824.0 
227.582367 124.0 
227.95253 68.0 
228.071304 504.0 
228.150238 44.0 
228.547256 176.0 
229.084747 1012.0 
229.112549 144.0 
229.779602 108.0 
230.084 216.0 
230.74913 36.0 
230.915451 180.0 
231.062378 368.0 
231.130249 164.0 
232.078354 176.0 
232.566803 168.0 
233.094971 84.0 
233.475266 72.0 
235.075531 172.0 
235.312775 196.0 
236.08139 288.0 
237.087265 364.0 
237.11203 168.0 
238.127075 152.0 
238.191589 128.0 
238.3237 128.0 
239.107666 276.0 
239.157135 140.0 
240.079102 448.0 
240.837631 48.0 
241.083374 476.0 
241.118805 176.0 
242.093353 256.0 
242.118134 124.0 
243.094696 192.0 
243.6474 92.0 
243.945755 52.0 
244.141647 36.0 
247.08812 152.0 
247.100769 220.0 
247.10582 288.0 
247.177063 32.0 
247.665466 44.0 
249.090698 388.0 
249.146149 144.0 
250.099838 408.0 
250.369781 32.0 
252.117599 156.0 
253.085602 176.0 
254.090408 272.0 
255.071686 196.0 
255.101013 160.0 
255.132095 320.0 
259.105591 120.0 
264.163361 204.0 
265.127899 156.0 
266.11441 84.0 
267.802246 92.0 
268.111969 144.0 
283.131104 500.0 
285.128571 104.0 
286.838501 40.0 
301.088501 100.0 
301.144806 184.0 
304.138916 184.0 
305.268097 60.0 
318.164307 112.0 
319.230286 240.0 
321.239319 164.0 
355.032684 112.0 
368.089355 32.0 
382.299652 32.0 
389.486084 68.0 
391.074677 116.0 
466.801056 96.0 
505.993134 88.0 
516.103577 84.0 
519.214661 64.0 
525.761597 104.0 
535.983704 80.0 
552.98175 96.0 
556.173828 68.0 
568.606567 96.0 
598.666931 20.0 
632.721741 144.0 
678.6875 248.0 
703.377563 144.0 
715.299622 40.0 
718.694641 80.0 
720.734436 164.0 
826.128662 72.0 
857.520142 88.0 
857.881531 200.0 
878.513428 180.0 
889.045898 80.0 
896.65863 76.0 
918.044373 68.0 
918.816467 60.0 
931.463257 172.0 
941.061584 132.0 
958.568481 48.0 
974.80072 236.0 
995.465698 196.0 
1024.799316 188.0 
1029.915894 156.0 
1030.305542 204.0 
1032.453369 100.0 
1035.224487 40.0 
1063.802002 152.0 
1076.479248 192.0 
1086.80249 176.0 
1094.624878 160.0 
1099.206421 184.0 
1115.320557 212.0 
1121.264526 136.0 
1121.557739 40.0 
1121.837769 36.0 
1123.825317 128.0 
1147.509521 176.0 
1154.255127 116.0 
1173.226196 140.0 
1173.62854 112.0 
1174.255981 192.0 
1180.888062 184.0 
1187.35376 96.0 
1187.936768 252.0 
1188.863037 48.0 
1194.414795 72.0 
1204.859009 168.0 
1208.143066 172.0 
1215.584717 164.0 
1231.430542 52.0 
1241.179443 112.0 
1241.544189 228.0 
1248.046997 180.0 
1248.77832 252.0 
1274.12146 168.0 
1275.294067 144.0 
1281.015259 252.0 
1281.585327 180.0 
1284.101807 188.0 
1292.081177 164.0 
1293.312134 168.0 
1294.70105 256.0 
1302.871338 204.0 
1305.998413 204.0 
1321.682983 76.0 
1325.709351 232.0 
1342.109253 120.0 
1351.532227 228.0 
1352.139648 200.0 
1353.369507 196.0 
1357.847168 224.0 
1359.006226 120.0 
1359.329102 188.0 
1359.593262 120.0 
1364.140015 152.0 
1371.287598 144.0 
1371.869995 140.0 
1385.92041 76.0 
1389.509033 152.0 
1411.849243 196.0 
1416.984375 144.0 
1417.77124 68.0 
1421.986206 160.0 
1427.124756 176.0 
1432.897827 204.0 
1435.053467 200.0 
1435.121338 44.0 
1438.146606 240.0 
1439.535767 116.0 
1441.58313 228.0 
1443.412476 220.0 
1443.806152 144.0 
1446.953735 140.0 
1451.196777 192.0 
1455.628296 240.0 
1456.205444 176.0 
1457.671753 168.0 
1459.914429 152.0 
1463.787964 44.0 
1465.395264 148.0 
1465.532349 176.0 
1466.164917 56.0 
1468.711548 104.0 
1468.947998 52.0 
1469.230225 152.0 
1470.031494 188.0 
1471.107666 124.0 
1471.245117 208.0 
1472.45166 136.0 
1487.743652 144.0 
1491.684692 88.0 
1493.399536 116.0 
1494.692017 100.0 
1496.57019 188.0 
1497.024536 176.0 
1499.998657 152.0 
1501.625732 192.0 
1505.152588 128.0 
END IONS

