BEGIN IONS
PEPMASS=247.11
CHARGE=1+
COMPOUNDNAME=MLS001066362-01!N-Acetyl-D-tryptophan
LIBRARYQUALITY=1
SMILES=CC(=O)N[C@H](Cc1c[nH]c2ccccc12)C(=O)O
INCHIKEY=DZTHIGRZJZPRDV-GFCCVEGCSA-N
INCHI=N/A
MSLEVEL=2
SOURCE_INSTRUMENT=LC-ESI-qTof
FILENAME=p4-E04_GE4_01_18376.mzXML
SEQ=*..*
IONMODE=Positive
ORGANISM=GNPS-NIH-SMALLMOLECULEPHARMACOLOGICALLYACTIVE
NAME=MLS001066362-01!N-Acetyl-D-tryptophan M+H
PI=Dorrestein
DATACOLLECTOR=VP/LMS
PUBMED=N/A
SUBMITUSER=vphelan
TAGS=
SPECTRUMID=CCMSLIB00000085696
SCANS=1422
45.608418 164.0 
45.693138 212.0 
45.722744 176.0 
46.371033 188.0 
46.5569 180.0 
47.817459 204.0 
47.850498 248.0 
48.16354 184.0 
48.232632 68.0 
48.805206 140.0 
48.855278 140.0 
49.118565 220.0 
49.321037 248.0 
49.354591 96.0 
49.393749 144.0 
50.047756 136.0 
50.360836 208.0 
50.400391 160.0 
50.570095 196.0 
50.801067 148.0 
51.036831 192.0 
51.100838 140.0 
51.684418 196.0 
51.767445 196.0 
52.121765 256.0 
52.737144 136.0 
52.877441 236.0 
53.219559 148.0 
53.241341 160.0 
53.31398 184.0 
53.487061 192.0 
53.575893 132.0 
53.72897 80.0 
54.141174 28.0 
54.333195 172.0 
54.358139 96.0 
54.557896 128.0 
54.706478 156.0 
54.97031 172.0 
55.128323 256.0 
55.437614 216.0 
56.033466 60.0 
56.155704 128.0 
56.710415 164.0 
57.589127 200.0 
58.261707 152.0 
58.730564 220.0 
58.79007 104.0 
58.883198 188.0 
59.193645 160.0 
59.412827 136.0 
59.451187 188.0 
59.532551 192.0 
59.95562 184.0 
60.207088 88.0 
60.579857 232.0 
61.32729 104.0 
62.423214 180.0 
63.543121 188.0 
63.578033 156.0 
64.631378 216.0 
64.701805 184.0 
64.866806 172.0 
66.418083 124.0 
66.434303 220.0 
66.871414 108.0 
67.022865 96.0 
67.337715 188.0 
67.39653 144.0 
67.409599 132.0 
67.509323 164.0 
68.045135 148.0 
68.520454 188.0 
68.54187 132.0 
68.723251 208.0 
69.285393 140.0 
69.366592 128.0 
69.434578 172.0 
69.600525 136.0 
69.622116 164.0 
70.586998 136.0 
70.824654 236.0 
71.072777 180.0 
71.336456 168.0 
71.568634 228.0 
71.627579 180.0 
71.688232 192.0 
71.760712 164.0 
71.976692 112.0 
72.081421 184.0 
72.472298 152.0 
72.859138 72.0 
72.990013 52.0 
73.037628 200.0 
73.863228 188.0 
74.48204 64.0 
74.543884 72.0 
74.879356 48.0 
74.975838 184.0 
75.336464 144.0 
75.473 152.0 
76.067253 240.0 
76.480965 112.0 
77.709511 84.0 
77.930748 96.0 
78.143494 168.0 
78.455223 180.0 
79.177925 180.0 
79.486389 140.0 
79.553833 92.0 
80.051674 144.0 
80.343994 116.0 
80.79599 188.0 
81.003654 208.0 
81.109375 140.0 
81.159576 192.0 
81.484444 124.0 
81.506004 176.0 
81.723572 200.0 
82.229958 152.0 
82.553345 92.0 
82.743332 128.0 
82.967987 68.0 
83.276474 144.0 
83.645592 164.0 
84.017349 248.0 
84.199883 160.0 
85.929092 208.0 
85.991837 92.0 
86.577911 100.0 
86.737251 124.0 
86.868912 184.0 
88.278877 264.0 
90.160728 92.0 
90.366844 216.0 
91.026474 168.0 
91.053772 300.0 
91.623718 164.0 
91.957428 184.0 
92.962189 92.0 
93.063919 152.0 
93.379082 152.0 
93.446411 184.0 
93.479118 180.0 
94.439903 188.0 
94.559868 208.0 
94.591789 192.0 
94.650856 128.0 
94.949287 204.0 
95.182159 212.0 
95.972168 196.0 
96.241432 164.0 
96.407478 44.0 
96.788933 156.0 
97.392975 172.0 
98.298615 132.0 
98.622505 152.0 
99.386948 144.0 
99.778221 272.0 
99.802078 132.0 
100.04879 176.0 
100.168274 140.0 
100.461319 140.0 
100.475281 148.0 
101.934944 216.0 
102.409744 180.0 
102.71209 52.0 
103.055771 472.0 
103.077522 176.0 
103.172516 196.0 
104.040504 108.0 
104.053329 200.0 
104.226463 112.0 
104.5905 236.0 
104.669899 128.0 
105.073471 164.0 
105.114281 140.0 
105.426727 160.0 
106.061203 132.0 
106.897102 164.0 
106.971191 244.0 
107.032959 188.0 
107.342056 72.0 
107.42662 188.0 
107.533913 96.0 
107.657791 32.0 
108.189186 152.0 
108.502014 128.0 
108.533119 100.0 
108.584961 252.0 
109.056274 264.0 
109.1623 108.0 
109.260063 144.0 
109.470291 128.0 
109.516106 196.0 
110.441292 160.0 
111.117409 116.0 
111.598389 176.0 
111.810852 164.0 
112.042473 160.0 
112.555008 104.0 
112.700752 160.0 
113.955093 100.0 
114.048599 172.0 
114.101746 144.0 
114.299553 188.0 
114.459206 140.0 
114.678635 172.0 
114.717003 148.0 
115.007103 108.0 
115.053497 2848.0 
115.086098 72.0 
115.958908 72.0 
116.056328 332.0 
116.151878 100.0 
116.63932 88.0 
116.684464 124.0 
116.841469 244.0 
116.860832 212.0 
117.056351 1704.0 
117.160095 44.0 
117.483467 144.0 
117.809448 192.0 
118.064445 4248.0 
118.107765 156.0 
118.166176 76.0 
118.23542 48.0 
118.369637 172.0 
118.50827 100.0 
118.7836 84.0 
119.068909 424.0 
119.33522 204.0 
119.609337 48.0 
120.062531 56.0 
120.577766 152.0 
123.27877 224.0 
123.508705 148.0 
123.601624 152.0 
123.927116 120.0 
124.439468 52.0 
124.752724 144.0 
125.779663 60.0 
126.038734 180.0 
126.952057 168.0 
127.055237 284.0 
127.794411 160.0 
128.0616 208.0 
129.05278 196.0 
129.14798 152.0 
129.603012 44.0 
129.639267 184.0 
129.881866 200.0 
130.03389 260.0 
130.065399 4912.0 
130.199631 36.0 
130.504135 104.0 
130.649689 88.0 
130.736145 152.0 
130.795334 48.0 
131.067825 360.0 
131.952698 84.0 
132.047989 128.0 
132.080368 4400.0 
132.146347 72.0 
132.196426 68.0 
132.237885 52.0 
132.599762 36.0 
132.741898 80.0 
132.780884 44.0 
132.86116 28.0 
133.082336 768.0 
134.589676 108.0 
135.477814 80.0 
136.138855 136.0 
136.643265 152.0 
138.991501 188.0 
140.048828 340.0 
141.057724 92.0 
141.180206 180.0 
141.783646 156.0 
142.064163 3612.0 
142.091904 172.0 
142.117996 44.0 
143.00679 224.0 
143.037598 136.0 
143.072281 2260.0 
143.623917 184.0 
143.721725 40.0 
144.005814 52.0 
144.0448 164.0 
144.081207 2152.0 
144.125259 68.0 
144.168274 156.0 
144.311707 52.0 
144.723251 28.0 
144.828613 52.0 
145.081482 176.0 
145.925323 176.0 
146.033539 168.0 
146.059662 5052.0 
146.461975 72.0 
146.545563 52.0 
146.598648 72.0 
146.698135 60.0 
146.799393 40.0 
146.946533 48.0 
147.063965 684.0 
147.142029 40.0 
148.022156 136.0 
148.269257 68.0 
149.32814 148.0 
150.233948 128.0 
151.764999 216.0 
154.066238 148.0 
155.066238 160.0 
155.586838 84.0 
156.086609 140.0 
157.074509 204.0 
157.634262 136.0 
157.851746 136.0 
158.078552 448.0 
158.146957 56.0 
158.186996 52.0 
158.279633 32.0 
158.379822 220.0 
158.470627 96.0 
158.720657 40.0 
158.748245 208.0 
158.861115 144.0 
159.09021 5004.0 
159.194931 64.0 
159.320511 80.0 
159.340622 40.0 
159.576874 68.0 
159.903885 200.0 
160.092651 924.0 
160.178345 60.0 
160.246368 84.0 
160.970291 44.0 
161.099106 212.0 
161.149628 124.0 
161.42009 152.0 
161.447906 32.0 
162.788498 40.0 
163.266266 156.0 
163.329849 56.0 
164.542877 128.0 
167.033844 64.0 
167.989548 172.0 
168.064362 128.0 
168.242447 160.0 
169.074677 244.0 
169.787216 160.0 
170.05896 2652.0 
170.342667 40.0 
171.058167 236.0 
172.072144 176.0 
174.096008 116.0 
174.406036 168.0 
177.484329 32.0 
183.090271 304.0 
184.092957 168.0 
187.090347 152.0 
187.648849 104.0 
188.069275 2148.0 
188.134476 72.0 
188.178162 60.0 
188.200012 32.0 
188.519608 72.0 
189.072723 524.0 
190.077759 364.0 
199.08931 48.0 
201.106369 204.0 
207.101929 156.0 
207.242294 44.0 
223.976547 56.0 
224.644272 72.0 
229.30098 40.0 
239.94014 68.0 
262.30957 68.0 
269.103088 164.0 
298.120911 88.0 
336.832703 96.0 
497.806885 76.0 
501.98996 112.0 
578.754333 68.0 
608.483215 52.0 
616.779175 192.0 
734.185974 172.0 
783.915283 156.0 
801.336365 224.0 
826.662048 228.0 
852.166748 104.0 
863.364685 100.0 
877.145081 180.0 
896.94989 256.0 
922.172485 72.0 
934.811462 116.0 
936.187256 172.0 
937.125305 60.0 
951.31427 180.0 
954.582947 132.0 
985.252808 176.0 
989.430481 204.0 
1010.571838 256.0 
1011.56543 72.0 
1026.828003 140.0 
1031.482788 164.0 
1033.542114 180.0 
1043.001709 176.0 
1050.832764 144.0 
1051.516724 152.0 
1051.69104 80.0 
1053.214844 44.0 
1069.639893 188.0 
1080.525269 104.0 
1081.611572 132.0 
1085.077026 176.0 
1086.624878 204.0 
1091.827393 168.0 
1093.755249 156.0 
1107.734741 148.0 
1116.476196 180.0 
1125.833008 196.0 
1139.706177 164.0 
1148.916748 148.0 
1162.578125 136.0 
1187.446167 220.0 
1191.276367 100.0 
1198.465942 224.0 
1199.368774 116.0 
1222.021484 200.0 
1227.126831 80.0 
1229.296143 128.0 
1237.152466 156.0 
1243.643555 200.0 
1249.842041 152.0 
1251.531372 84.0 
1261.514526 124.0 
1261.797363 184.0 
1262.525635 224.0 
1270.522705 228.0 
1270.763916 144.0 
1274.313965 164.0 
1276.809082 136.0 
1278.82251 168.0 
1280.474365 176.0 
1282.654663 224.0 
1282.825684 140.0 
1285.115112 152.0 
1285.878662 88.0 
1286.207031 52.0 
1286.385498 116.0 
1287.442139 48.0 
1288.963745 224.0 
1304.279541 196.0 
1305.811035 152.0 
1307.63855 112.0 
1313.510986 216.0 
1317.271851 52.0 
1321.653076 156.0 
1330.647949 144.0 
1331.040039 140.0 
1346.690674 144.0 
1353.89978 220.0 
1355.880249 280.0 
1356.49585 192.0 
1366.866455 180.0 
1369.236938 48.0 
1372.427734 148.0 
1374.367676 192.0 
1381.253174 148.0 
1382.318604 176.0 
1386.450928 120.0 
1387.295898 140.0 
1389.713745 156.0 
1392.906006 140.0 
1394.60022 68.0 
1397.493042 164.0 
1398.884766 168.0 
1401.595825 152.0 
1402.214355 180.0 
1405.219604 176.0 
1407.570801 204.0 
1409.251465 244.0 
1413.393799 76.0 
1420.518799 196.0 
1424.918213 176.0 
1427.03772 144.0 
1427.233154 160.0 
1430.543579 156.0 
1431.130859 144.0 
1434.747314 160.0 
1437.115479 92.0 
1437.862549 220.0 
1438.564575 172.0 
1447.652832 132.0 
1450.69873 172.0 
1451.130859 140.0 
1451.608643 240.0 
1452.890503 100.0 
1457.605469 168.0 
1458.776001 128.0 
1460.281616 236.0 
1461.574829 148.0 
1470.90332 144.0 
1480.820557 200.0 
1481.203613 180.0 
1484.092896 200.0 
1488.865967 172.0 
1491.101562 220.0 
1503.887085 128.0 
1505.161011 172.0 
END IONS

