BEGIN IONS
TITLE=Scan Number: 22
PEPMASS=561.0
CHARGE=1+
COMPOUNDNAME=Desferrioxamine B
LIBRARYQUALITY=3
SMILES=CC(=O)N(CCCCCNC(=O)CCC(=O)N(CCCCCNC(=O)CCC(=O)N(CCCCCN)O)O)O
INCHIKEY=UBQYURCVBFRUQT-UHFFFAOYSA-N
INCHI="InChI=1S/C25H48N6O8/c1-21(32)29(37)18-9-3-6-16-27-22(33)12-14-25(36)31(39)20-10-4-7-17-28-23(34)11-13-24(35)30(38)19-8-2-5-15-26/h37-39H,2-20,26H2,1H3,(H,27,33)(H,28,34)"
MSLEVEL=2
SOURCE_INSTRUMENT=DI-ESI-Hybrid FT
FILENAME=DesB_FT_561mz.mzXML
SEQ=*..*
NOTES=
IONMODE=Positive
ORGANISM=GNPS-LIBRARY
NAME=Desferrioxamine B M+H
SPECTRUMID=CCMSLIB00000075313
ACTIVATION=CID
INSTRUMENT=ion trap
SCANS=22
150.661087 11155.277344 
150.776428 12458.411133 
150.986496 13977.008789 
151.054855 13926.088867 
151.064667 12178.930664 
151.065247 9790.243164 
151.220337 12900.325195 
151.497833 11727.004883 
151.567566 11112.745117 
151.79509 12744.819336 
151.885818 11344.513672 
152.062317 11925.948242 
152.331238 13536.881836 
152.342117 13084.205078 
152.344452 10295.731445 
152.551239 11724.740234 
152.714157 11435.951172 
152.881042 9306.374023 
152.937607 12352.191406 
153.038071 9904.119141 
153.141449 10771.292969 
153.309021 11972.44043 
153.463196 11253.436523 
153.544159 10612.905273 
153.646255 12687.733398 
153.962173 11364.504883 
153.994095 11420.841797 
154.067139 10299.49707 
154.316025 10833.214844 
154.434967 10698.720703 
154.510284 9658.68457 
154.598953 9384.584961 
154.916138 10258.383789 
154.959351 11452.77832 
155.218002 13573.902344 
155.447952 11764.255859 
155.563843 16305.543945 
155.801514 12306.204102 
156.06134 10293.72168 
156.267426 12255.085938 
156.442398 10999.823242 
156.605087 11726.889648 
157.086014 13180.87207 
157.108078 12095.520508 
157.142838 15495.567383 
157.74707 10247.460938 
158.049057 9089.098633 
158.198608 10876.573242 
158.266556 10887.416992 
158.286423 10200.845703 
158.34082 9814.90625 
158.407227 11574.047852 
158.622635 10727.857422 
158.776291 9708.522461 
158.849976 10891.452148 
159.04599 11117.797852 
159.067688 10646.473633 
159.160324 13228.53125 
159.526337 12159.454102 
160.095734 11164.74707 
160.278534 11947.009766 
160.538284 10748.140625 
161.586288 10858.303711 
162.249908 13717.9375 
162.566437 12326.917969 
162.68924 12733.06543 
162.691193 10832.552734 
162.710175 11346.719727 
162.734009 11118.492188 
162.835205 9965.567383 
162.91864 11177.286133 
163.022934 9264.862305 
163.335449 11257.688477 
163.869415 10324.919922 
164.115387 13552.37793 
164.766235 11532.470703 
165.240982 14609.985352 
165.617981 12752.149414 
165.627945 11508.53418 
165.71759 10475.335938 
165.912445 11799.222656 
166.045868 13255.785156 
166.182373 10850.241211 
166.312286 11557.222656 
166.692947 10796.614258 
166.944046 10408.564453 
167.200104 11976.161133 
167.568344 11696.205078 
168.372833 11277.573242 
168.482056 12923.494141 
168.518387 9845.995117 
168.640961 10606.546875 
168.848587 13266.708008 
169.287018 15588.588867 
169.4487 10729.266602 
169.510605 14640.223633 
169.577423 11011.420898 
169.681915 13520.223633 
169.837891 10668.694336 
170.090683 10363.985352 
170.365814 10740.713867 
170.378128 13038.351562 
170.490952 11835.705078 
170.67659 10666.158203 
170.847702 12356.952148 
171.039093 10397.521484 
171.068314 12415.956055 
171.554886 10196.518555 
171.824875 12421.052734 
171.900391 12673.624023 
172.054626 11040.951172 
172.566406 11235.049805 
172.799393 13967.369141 
172.862473 12517.375977 
172.869308 9767.647461 
173.002655 12072.848633 
173.084351 10608.241211 
173.400558 10344.960938 
173.605209 10584.759766 
173.817932 11302.232422 
173.912201 15579.929688 
174.032959 10686.492188 
174.755096 13858.818359 
174.791885 11129.165039 
174.830719 13233.700195 
174.980469 12092.333008 
174.997223 10992.939453 
175.277771 9731.832031 
175.653198 12518.150391 
176.356857 15834.151367 
176.40564 11572.817383 
177.578918 10302.835938 
177.942657 10840.022461 
178.247253 11375.34668 
178.275223 10449.834961 
178.36615 10608.998047 
178.807877 11259.301758 
178.845932 9329.109375 
178.914291 10172.304688 
179.024796 9820.479492 
179.257919 10575.141602 
179.543106 16357.058594 
179.840881 13661.740234 
179.848953 15251.833984 
181.198273 11672.782227 
181.224442 13829.46582 
181.443741 16735.951172 
181.734772 12355.351562 
181.764267 12290.238281 
182.137497 14772.483398 
182.21933 11244.330078 
183.209702 12981.123047 
183.375473 12431.601562 
183.50769 13805.775391 
183.93927 10498.299805 
184.064819 12884.186523 
184.110519 12141.675781 
184.1353 11981.038086 
184.254944 10358.677734 
184.357834 10367.012695 
184.358429 9492.238281 
184.418594 11596.296875 
185.042313 12280.055664 
185.215363 10102.883789 
185.294128 12188.673828 
186.174103 10845.983398 
186.23764 13203.827148 
186.253204 10338.228516 
186.424561 12087.733398 
186.658081 11787.063477 
186.811569 10483.839844 
187.305252 8901.741211 
187.305725 10771.798828 
187.563614 10247.035156 
187.819458 10662.746094 
188.053345 12796.421875 
188.102844 9136.112305 
188.141479 12340.660156 
188.82489 11695.507812 
189.354202 14354.173828 
189.553024 9401.291016 
189.825836 11303.793945 
190.065384 12202.342773 
190.218246 11252.62793 
190.348755 10218.707031 
190.84964 15450.633789 
191.254929 11672.330078 
191.319855 13183.605469 
191.430252 9255.255859 
191.621262 9782.087891 
191.70488 12420.695312 
192.322342 10772.469727 
192.534988 12114.091797 
193.189484 11586.176758 
193.413071 11824.133789 
193.678604 12150.52832 
193.794403 14184.692383 
194.181229 10135.50293 
194.461105 12736.727539 
194.542007 12717.213867 
194.774734 10216.588867 
194.899063 13525.40918 
195.004822 10950.172852 
195.566925 11883.669922 
195.647339 10519.21582 
196.031281 15949.436523 
196.044418 10695.271484 
196.307434 11315.989258 
196.411362 9566.594727 
196.445877 11620.331055 
196.511795 11481.118164 
196.823288 14357.00293 
197.396561 10975.046875 
197.605499 13300.773438 
197.623642 10525.521484 
197.688995 14894.198242 
197.711624 11842.672852 
198.120758 11955.007812 
198.589844 9128.639648 
198.596878 15285.038086 
198.694016 9973.75 
198.932114 12889.999023 
198.990662 13104.261719 
199.011505 12300.344727 
199.318298 11025.467773 
199.386902 11743.395508 
199.666168 13084.188477 
199.775223 11743.755859 
199.789612 11253.245117 
199.930756 10830.931641 
199.99202 12272.126953 
200.148636 9561.792969 
200.213638 15260.359375 
200.23465 13850.78125 
200.306549 11530.542969 
200.52536 10154.292969 
200.599823 9248.432617 
200.800644 11055.157227 
200.809082 13121.703125 
201.066193 12230.177734 
201.123535 21959.744141 
201.214554 10835.734375 
201.337585 11759.148438 
201.753555 11557.200195 
202.165833 11389.716797 
202.391418 13205.975586 
202.445511 12804.393555 
202.54245 10437.521484 
202.869461 9347.144531 
202.987244 11289.389648 
203.014191 12067.599609 
203.139786 11061.243164 
203.333878 13667.725586 
203.413361 14022.506836 
203.65477 10567.375977 
203.854919 11736.608398 
204.212021 9629.21875 
204.271973 11155.772461 
204.275299 10856.390625 
204.553024 9437.935547 
204.647675 12176.767578 
204.843018 15511.25293 
204.848099 11855.964844 
205.123749 14231.360352 
205.307938 17833.552734 
206.025879 9101.396484 
206.051315 12211.272461 
206.319031 11911.142578 
206.460449 13019.538086 
207.198364 11382.477539 
207.578812 14338.931641 
207.592682 9613.416016 
207.593124 9545.862305 
208.295303 11751.852539 
208.33432 14557.87207 
208.402588 9395.790039 
208.418793 10240.402344 
208.78833 10288.962891 
208.97084 11856.101562 
209.492859 11361.792969 
209.750732 10012.384766 
209.783569 10160.430664 
210.453629 10987.777344 
210.470978 10785.22168 
211.029129 11189.277344 
211.265396 10218.930664 
212.02269 9316.212891 
212.129425 9352.611328 
212.244781 10946.740234 
212.908157 13704.455078 
213.002304 9130.973633 
213.035568 16305.303711 
213.941406 15309.219727 
213.973694 10374.479492 
214.203842 15393.620117 
214.264328 13274.555664 
214.58139 10649.751953 
214.883835 10077.595703 
215.049591 10410.582031 
215.527039 10243.735352 
216.790283 12579.081055 
216.856369 10616.970703 
216.875778 12725.019531 
216.901703 9948.581055 
216.994125 10818.634766 
217.249008 13108.262695 
217.441895 11776.494141 
217.450317 11851.835938 
217.561935 12430.391602 
217.587189 12608.943359 
218.261398 11881.856445 
218.262344 10063.822266 
218.263809 11715.360352 
218.325775 9783.560547 
218.79863 11038.870117 
219.714355 13756.748047 
219.913315 9736.009766 
220.19281 9942.070312 
220.256348 13170.543945 
220.419037 9861.304688 
220.750687 9619.982422 
220.920914 10828.857422 
221.090652 9236.325195 
221.127579 12729.918945 
221.137512 11350.272461 
221.138245 10898.081055 
221.160583 11195.976562 
221.685104 9661.488281 
221.746323 11666.758789 
222.601517 10203.618164 
222.959946 10144.430664 
223.208252 10855.919922 
223.656494 11737.064453 
224.187302 10838.794922 
224.190186 12621.033203 
224.213791 11666.856445 
224.221237 10398.433594 
224.375153 10940.59668 
224.406693 11364.152344 
224.441299 11227.804688 
224.585571 9965.083008 
224.754456 13263.140625 
224.948761 9616.993164 
225.282364 11857.089844 
225.986618 10958.128906 
226.428406 15811.441406 
226.496384 12461.452148 
226.501801 12141.75 
226.620468 10611.834961 
226.861115 12449.535156 
226.926697 13024.998047 
226.967926 10684.984375 
227.185135 9579.946289 
227.319305 13248.138672 
227.407257 12150.334961 
227.952408 12769.857422 
228.394897 12770.682617 
228.569458 9097.219727 
228.570694 10417.499023 
228.65419 11067.196289 
229.688629 11063.269531 
229.750641 10120.875977 
229.98764 12742.697266 
230.230453 9804.360352 
230.417419 13842.237305 
230.487289 10555.049805 
230.660126 11425.089844 
231.012543 13187.635742 
231.5065 11260.641602 
231.755875 10660.503906 
231.773468 10130.006836 
232.413406 15352.822266 
232.605072 10654.956055 
232.914139 10459.402344 
233.407288 10022.053711 
233.462753 11540.808594 
233.465027 12962.453125 
233.686859 11406.609375 
234.383438 14323.389648 
235.034058 12851.692383 
235.425476 9842.69043 
235.71788 11999.535156 
235.998199 12238.324219 
236.184006 12797.576172 
236.20195 12397.057617 
236.281509 13465.152344 
236.385071 10637.135742 
236.388321 10651.672852 
236.624878 11722.863281 
237.313766 9765.18457 
237.500366 12465.1875 
237.620499 11312.310547 
237.627975 11907.131836 
237.751678 11713.657227 
238.52179 13851.352539 
238.748123 11343.008789 
238.759415 14023.266602 
238.991623 10856.459961 
239.511032 14399.890625 
239.833664 11943.802734 
240.460907 9569.362305 
240.48674 12338.779297 
240.734741 12033.03125 
241.162537 10841.378906 
241.632416 11551.464844 
241.848526 10140.092773 
242.250748 11446.369141 
242.258408 13226.135742 
242.66658 11526.511719 
242.684174 12140.544922 
242.854706 10997.105469 
243.129684 12774.154297 
243.13147 48040.050781 
243.134232 145916.984375 
243.631058 13487.230469 
244.04245 9150.566406 
244.08606 10674.764648 
245.049744 10939.804688 
245.2285 12780.900391 
245.294312 14639.273438 
245.899277 10399.925781 
246.009369 12658.082031 
246.170868 13832.857422 
246.289719 11170.077148 
246.639328 10288.236328 
247.602722 11180.985352 
247.712631 12518.042969 
247.741943 11087.177734 
248.403717 12463.362305 
248.631897 10989.828125 
248.813629 10178.081055 
248.937408 11066.886719 
248.968109 10129.333008 
248.968658 10129.177734 
249.036057 13758.196289 
249.160965 9801.826172 
249.881454 11919.861328 
250.234482 10870.966797 
250.409698 14068.395508 
250.775223 11242.833008 
251.357498 11106.268555 
251.452286 13198.033203 
251.459244 11109.397461 
251.834915 11674.750977 
252.010727 9769.525391 
252.031631 12501.740234 
252.055252 9982.100586 
252.27272 9685.410156 
252.491638 9726.696289 
252.522614 12661.399414 
253.460541 10552.083008 
253.468826 10965.612305 
253.824295 10456.469727 
254.61879 11361.111328 
254.739944 10455.050781 
254.78624 14670.264648 
256.493622 10367.558594 
256.932648 11938.263672 
257.211853 10936.427734 
257.305695 10731.320312 
257.685516 10977.189453 
258.144867 11105.90332 
258.680511 12029.825195 
258.731293 9529.789062 
258.93631 11396.904297 
259.338959 11920.551758 
259.39566 12371.630859 
259.713196 12417.585938 
259.857208 12682.302734 
260.798523 10567.500977 
260.993622 10257.430664 
261.044189 11051.039062 
261.410065 10533.666016 
261.429565 10700.696289 
261.597992 9923.225586 
261.598907 8850.767578 
261.726685 11544.704102 
261.818207 13297.147461 
262.855255 11190.422852 
262.886871 11215.816406 
263.017181 13559.948242 
263.919617 9305.623047 
263.986053 10021.819336 
265.013641 13672.307617 
265.09079 11046.561523 
265.12088 12829.891602 
265.21405 14065.619141 
265.43219 11466.420898 
265.629852 11338.100586 
265.726013 10456.298828 
266.273407 12416.680664 
266.578156 12538.023438 
266.699249 10306.49707 
266.912476 10060.163086 
267.459106 11921.548828 
267.481628 14740.314453 
267.619202 13035.242188 
267.798126 9799.618164 
268.445221 11355.540039 
268.664856 8891.541992 
268.666229 9929.401367 
268.672729 13373.910156 
268.677765 9611.049805 
268.727692 13046.337891 
269.158386 10596.514648 
269.223755 10910.395508 
269.286499 11104.8125 
269.531433 10420.97168 
269.808228 10486.458984 
269.884094 12224.091797 
269.944916 11641.492188 
270.407532 9627.453125 
271.55014 10984.571289 
271.556274 10861.381836 
271.626221 11493.759766 
272.02478 10767.554688 
272.313751 9886.010742 
272.417877 15846.97168 
272.483673 13838.115234 
272.634674 8658.525391 
272.670654 10968.706055 
272.75058 11752.541992 
273.602905 11908.016602 
273.742157 11141.625977 
274.363037 10939.03125 
274.366028 12935.03125 
274.688141 12892.731445 
274.694916 10350.277344 
274.755249 10223.822266 
275.485718 18085.310547 
275.698242 11912.669922 
275.762451 10285.3125 
275.986694 12257.040039 
276.146545 14051.90918 
276.645386 12012.104492 
276.717224 11268.092773 
276.891113 12126.079102 
277.353455 12892.553711 
277.864075 12640.307617 
277.978394 10187.442383 
278.511078 9926.227539 
278.913208 10651.638672 
279.452759 15252.326172 
279.458069 11038.983398 
279.722565 10805.980469 
279.743042 11091.0625 
279.743866 10214.769531 
279.7883 11169.359375 
280.01532 11889.436523 
280.630188 12585.998047 
281.167786 10973.145508 
282.042084 13717.441406 
282.157166 10698.682617 
282.244232 11344.505859 
283.207428 10354.392578 
283.387482 11360.166992 
283.842346 11471.345703 
284.084106 17182.121094 
284.326172 9734.733398 
284.560699 10934.458984 
284.853943 13116.714844 
285.052155 11451.913086 
285.06424 13165.748047 
285.696198 10826.851562 
287.065002 9008.328125 
288.222046 11093.188477 
288.575195 11081.349609 
288.632751 14582.035156 
288.670044 11645.500977 
288.672211 9732.329102 
288.694489 10939.15918 
288.792084 9823.597656 
289.008484 12325.621094 
289.025055 10103.605469 
289.035706 11115.054688 
289.736328 10225.136719 
289.842499 12008.845703 
289.898499 10130.174805 
290.727783 13633.515625 
290.755463 9219.149414 
291.143707 10209.407227 
291.451263 11827.426758 
291.487061 9657.341797 
291.628387 11524.402344 
292.123779 10497.225586 
292.298676 10920.658203 
292.55542 12356.341797 
292.811096 10112.905273 
293.384277 11423.926758 
293.60672 9881.142578 
293.893372 10023.1875 
294.268372 13910.398438 
294.881927 14234.419922 
294.947845 10265.357422 
295.122131 11785.115234 
295.367645 11060.996094 
296.270721 10926.166992 
296.605225 11371.561523 
297.151337 12084.702148 
297.345886 11084.058594 
297.596375 10749.042969 
297.851105 13029.422852 
297.872681 11518.238281 
299.123108 9131.941406 
299.12442 9675.808594 
299.219421 12338.609375 
299.335754 12673.431641 
299.683929 8906.329102 
299.684875 9022.091797 
301.497986 9248.857422 
301.721222 12434.211914 
301.793671 16733.953125 
302.221802 10508.045898 
302.722137 10864.269531 
302.839722 14920.523438 
302.979034 11721.094727 
303.227936 9663.759766 
303.461456 12045.108398 
303.855438 11217.182617 
303.907837 9888.397461 
304.029877 12767.208984 
305.870728 11045.231445 
305.963257 13815.388672 
306.323303 10820.860352 
306.334839 14304.682617 
306.459961 11591.235352 
307.270264 12476.553711 
308.477936 10455.198242 
308.533661 12893.617188 
308.842224 10923.572266 
308.942932 14992.933594 
309.09549 11688.003906 
309.633148 10860.608398 
309.785522 9560.969727 
310.284576 14548.805664 
311.022797 12153.288086 
311.079529 10778.494141 
312.318817 12299.573242 
312.594116 10325.582031 
312.740601 9725.686523 
313.225067 12551.62207 
314.040863 11246.864258 
314.352142 11727.904297 
315.377289 10918.393555 
315.634125 12951.786133 
315.837372 11077.154297 
316.456696 10377.589844 
316.522278 11441.543945 
316.885895 16249.080078 
317.06076 11428.09082 
317.110321 10538.419922 
317.940155 13229.243164 
319.227295 32828.628906 
319.229584 84110.46875 
319.234283 361048.28125 
320.237732 50946.09375 
320.464813 12175.006836 
320.843872 11470.396484 
320.976074 9995.391602 
321.018219 11001.918945 
321.11911 13950.359375 
321.210846 12536.136719 
321.40625 11413.670898 
322.071625 12871.518555 
322.171478 11114.037109 
322.19928 13281.826172 
322.372162 9428.029297 
323.202087 10408.02832 
323.543457 9550.898438 
325.454651 11218.848633 
325.586487 12405.908203 
325.697998 9335.4375 
325.718048 10677.450195 
326.260132 9945.728516 
326.923004 12286.402344 
327.149506 10751.155273 
327.356873 13038.180664 
327.949738 10924.508789 
327.98111 13004.000977 
328.247192 9878.632812 
328.278137 11146.505859 
328.385193 13125.274414 
329.199188 11691.874023 
330.70929 11214.936523 
331.167664 10834.680664 
331.412231 10144.365234 
331.58197 12285.777344 
332.196564 15502.491211 
332.340424 11251.791016 
333.147247 12566.59375 
334.169342 11764.990234 
334.887909 12765.962891 
335.130737 15231.501953 
335.785645 11991.797852 
336.643768 10841.333984 
336.805878 13402.042969 
337.090149 10708.47168 
337.301605 10644.318359 
337.629822 12465.550781 
338.031647 10787.276367 
339.001617 10776.577148 
339.843475 13804.821289 
340.195862 10504.794922 
340.256683 11793.046875 
340.541504 12100.182617 
341.594055 9641.149414 
342.101959 10856.44043 
342.12088 12339.750977 
342.452148 11546.744141 
342.660217 9472.09375 
342.661102 9564.225586 
344.233582 11515.109375 
344.477234 10847.736328 
345.262482 9683.185547 
345.831451 11888.875 
345.964233 13788.886719 
346.091583 10986.033203 
346.447754 16005.830078 
346.694733 13613.148438 
346.900757 11057.321289 
347.181915 11318.972656 
347.688263 10497.349609 
347.83429 10954.254883 
348.088654 9580.595703 
348.859039 11454.269531 
349.139435 10944.376953 
350.411469 12177.111328 
350.929688 10286.223633 
351.285126 10360.616211 
351.48172 13523.671875 
351.525024 8903.325195 
353.229858 9969.15332 
353.78476 12881.463867 
354.032806 14627.452148 
354.224762 12324.239258 
354.331543 10371.158203 
354.806427 11299.563477 
354.814728 12449.99707 
355.059448 12175.480469 
355.426239 9504.976562 
355.76767 12239.833008 
355.884888 11158.029297 
356.579468 10636.689453 
356.989441 10525.920898 
357.199219 11763.481445 
358.30304 8842.766602 
358.463379 12872.211914 
358.854187 12419.46875 
359.042633 12341.204102 
359.338287 12199.873047 
359.567474 10575.757812 
359.775238 11516.632812 
360.25528 12646.21875 
360.458771 11703.941406 
361.236206 15935.513672 
361.239014 27284.476562 
361.244781 193908.140625 
361.357391 11363.255859 
362.247955 29744.970703 
362.57016 11013.84668 
362.768616 10116.430664 
362.86554 11105.017578 
363.08786 11628.089844 
363.412354 12932.279297 
363.435486 13116.799805 
364.542664 12423.981445 
364.553192 12054.051758 
365.349274 10954.498047 
366.458618 11960.660156 
366.866547 10179.166016 
367.005157 9533.848633 
367.03772 9921.6875 
367.089905 11328.099609 
367.236847 11388.210938 
367.341553 12735.488281 
367.740753 10681.966797 
368.621002 11640.330078 
370.190857 12398.071289 
370.402863 11793.943359 
371.178619 12493.197266 
371.370605 12684.65625 
371.501801 14316.560547 
372.161133 10898.598633 
372.591492 13184.43457 
373.423767 15352.410156 
374.07196 11745.878906 
374.400879 9718.018555 
375.296783 10135.797852 
376.997711 11777.789062 
377.612427 10477.9375 
378.049011 10926.797852 
378.146942 12046.844727 
378.537628 14167.169922 
379.258209 10928.041016 
379.274658 9768.369141 
380.150299 10365.736328 
380.215729 11554.851562 
380.257019 16816.880859 
380.67868 10166.383789 
381.118805 11043.519531 
381.482086 11361.936523 
381.510773 11803.551758 
381.627045 10575.289062 
381.898407 12293.129883 
381.936401 11926.580078 
382.098083 15542.325195 
382.216064 8631.637695 
382.218109 9784.326172 
382.919128 12110.540039 
383.013763 10875.826172 
383.45105 13341.130859 
383.781952 13086.4375 
385.832611 10146.353516 
385.861206 9912.93457 
386.481506 11077.802734 
386.721191 11736.856445 
386.998169 13804.081055 
387.117981 11973.876953 
387.549347 11323.330078 
388.746246 15885.949219 
390.156738 13472.091797 
390.425842 9797.325195 
390.996796 11390.06543 
391.979492 11331.713867 
393.264038 10238.587891 
393.28894 9951.831055 
393.405121 11004.589844 
393.935608 14279.779297 
394.205719 12040.726562 
395.085358 11679.324219 
395.64566 13314.75 
395.878021 9760.329102 
395.950409 10918.874023 
395.954285 9255.053711 
396.666809 10424.389648 
396.753235 9637.873047 
398.161987 11924.044922 
398.519928 12427.630859 
398.764282 11015.848633 
398.972595 11914.651367 
399.212769 11441.583984 
401.233826 14958.799805 
401.239716 101746.53125 
404.570374 11085.727539 
405.380127 12354.9375 
405.930725 15038.329102 
406.76416 11173.643555 
406.863953 13287.610352 
408.29715 12239.259766 
408.470856 13326.107422 
408.702637 12089.307617 
408.716583 13548.50293 
408.83136 9786.137695 
409.630188 11190.835938 
410.076324 12680.800781 
410.952423 11866.976562 
411.031586 11541.616211 
411.131744 9845.866211 
411.373016 14135.013672 
413.212952 12645.651367 
413.838715 13110.917969 
414.717682 10071.787109 
415.798523 11604.342773 
417.853638 16106.795898 
418.612 13444.821289 
418.824219 8704.100586 
419.056549 11650.730469 
419.852356 11163.785156 
419.930176 11373.27832 
420.289917 13303.380859 
422.831543 11843.81543 
423.395477 13957.117188 
424.041382 13287.056641 
424.046326 11290.578125 
424.24826 13137.56543 
424.573914 11021.444336 
424.730774 9964.717773 
424.805969 14517.563477 
425.49472 10795.841797 
426.825531 10860.65918 
427.896332 11877.789062 
428.706116 10430.40332 
429.03244 13257.246094 
429.451477 10780.536133 
430.158295 13221.860352 
431.832703 10448.939453 
431.834442 10862.245117 
432.120087 12620.140625 
432.286316 12877.24707 
432.39978 11481.868164 
433.29306 12039.430664 
433.669556 10933.15918 
433.919464 12488.456055 
434.470551 10641.036133 
434.665253 12493.230469 
436.798096 10873.09668 
437.665222 13688.322266 
437.69397 10311.174805 
438.703918 12209.729492 
439.412628 15617.3125 
439.457886 10263.213867 
442.933105 11270.395508 
443.179138 10096.819336 
443.228638 9445.686523 
443.230682 10348.073242 
443.241516 15757.43457 
443.250275 252101.078125 
444.253906 21516.363281 
445.609467 13465.351562 
446.651062 10785.22168 
449.127258 10430.760742 
449.48761 10150.655273 
449.495239 13602.992188 
449.625977 11183.588867 
452.451141 12003.324219 
452.593353 11135.845703 
453.579803 11055.722656 
454.033173 14736.950195 
455.640472 11772.015625 
459.339661 15807.348633 
459.510315 11009.700195 
460.402893 13391.445312 
461.260254 13403.448242 
464.189178 11578.09082 
464.357819 12610.224609 
464.810852 10086.976562 
465.601898 11920.964844 
465.755615 11064.513672 
465.82431 10505.989258 
466.14093 11098.564453 
467.232758 12110.617188 
468.439758 13479.587891 
468.87149 14137.904297 
469.235046 12639.945312 
471.537964 11636.472656 
471.970398 12615.996094 
471.995667 13403.467773 
472.644928 12261.734375 
474.552917 10151.613281 
476.260071 12178.763672 
476.300262 10122.035156 
477.794586 13012.40625 
477.967499 12977.819336 
479.439972 13019.719727 
479.854401 14709.459961 
479.91098 15353.90625 
479.943573 11998.972656 
480.013123 11482.779297 
481.095581 10517.698242 
481.452271 11427.375977 
481.804749 10784.272461 
482.718903 11315.657227 
483.544708 11867.305664 
483.995331 14514.181641 
484.378052 11080.880859 
485.126923 12192.760742 
485.130646 13511.237305 
488.382629 14102.480469 
488.757446 12214.681641 
490.137238 12753.693359 
491.458191 14543.142578 
492.104614 10702.5625 
492.555237 14093.764648 
492.903992 16232.416992 
495.187836 11870.271484 
498.256439 10503.244141 
498.276764 10834.657227 
498.356171 12544.564453 
498.365814 11117.066406 
499.47757 10806.668945 
499.64566 12895.419922 
499.7388 11319.482422 
502.478577 12259.129883 
502.496521 12004.505859 
502.838562 11457.973633 
503.025208 12358.676758 
503.314362 12984.495117 
504.105499 13150.182617 
505.285675 11126.776367 
505.840668 12021.491211 
506.780518 9695.807617 
507.326508 11682.929688 
507.484497 12407.054688 
507.654663 10529.267578 
509.22818 14012.03125 
509.633179 9728.266602 
509.6492 16572.830078 
509.886444 13412.37207 
510.121552 12388.131836 
512.112854 10920.236328 
513.190674 11649.833008 
513.504761 11244.237305 
514.37384 11295.558594 
514.619019 9890.998047 
514.72467 13730.040039 
514.9505 12991.258789 
516.036316 11637.331055 
516.27533 12108.624023 
517.439941 11781.270508 
517.659851 11274.138672 
520.352478 12942.396484 
520.818115 12447.040039 
521.101379 11189.928711 
521.746582 14184.397461 
522.484863 11399.936523 
523.08374 11568.383789 
523.194519 13226.693359 
524.969971 12972.53418 
525.248718 10242.207031 
525.538269 13729.69043 
526.5354 11077.228516 
526.905457 13257.280273 
526.912476 12786.183594 
527.390808 10985.574219 
527.411316 13598.759766 
527.441895 13663.550781 
527.824341 11416.299805 
528.03717 10553.956055 
528.739807 12191.80957 
530.79425 10502.733398 
531.78302 11145.708984 
534.04657 9394.790039 
534.553894 11456.834961 
535.167236 14238.374023 
535.569031 12615.585938 
536.223877 11009.766602 
536.22937 14448.186523 
536.235352 14300.474609 
536.244995 19894.853516 
536.252808 22017.710938 
536.258789 16945.330078 
536.45697 11181.863281 
537.694214 12582.450195 
538.484863 19713.380859 
538.577271 14232.8125 
539.719421 11878.261719 
540.002197 17049.800781 
540.423218 11831.767578 
540.711121 11599.588867 
542.62207 10461.914062 
543.304138 10393.691406 
544.144348 13281.729492 
544.7453 12266.089844 
547.067017 9836.157227 
547.605713 11359.871094 
549.346191 11496.838867 
549.642517 12578.508789 
549.892944 10800.458984 
550.740356 15002.176758 
552.20813 12406.993164 
552.805298 12727.506836 
553.060425 11713.788086 
553.196899 12617.001953 
554.313049 10372.460938 
555.088501 13075.240234 
557.316345 11422.34668 
558.051331 14759.932617 
558.503845 12601.68457 
560.023743 12461.34668 
560.09967 10927.408203 
560.339233 16838.84375 
560.589661 15227.014648 
562.407715 11113.042969 
562.790955 14440.957031 
562.86969 14836.25293 
563.285522 14947.953125 
563.304749 13741.908203 
563.400146 12215.333984 
564.879639 9964.817383 
564.884583 10024.300781 
566.337341 13019.415039 
568.689026 11503.732422 
569.792297 12890.415039 
569.802002 20814.611328 
569.822205 17504.193359 
570.106628 11243.263672 
570.240356 16865.695312 
571.952332 11674.248047 
572.781067 12349.003906 
572.846313 14392.363281 
572.866699 12500.917969 
573.089294 14915.227539 
573.121094 16660.917969 
573.320007 23803.185547 
573.327576 50759.25 
573.333313 35170.277344 
573.342651 42426.296875 
573.354248 45075.382812 
573.372192 58394.789062 
574.160583 14319.896484 
574.24762 10651.21582 
574.674316 15346.832031 
575.640869 15584.285156 
575.759033 24257.945312 
576.000061 16612.052734 
576.017639 13113.033203 
576.44104 12735.651367 
576.647949 10910.045898 
577.514282 10585.110352 
580.546326 10694.120117 
583.811707 12848.837891 
584.064575 13054.999023 
584.268555 12924.826172 
584.348816 11868.452148 
584.770691 13660.414062 
584.835205 16466.824219 
585.326782 11290.342773 
586.453308 12492.294922 
586.717102 16829.361328 
586.727905 14556.927734 
586.737122 20092.611328 
587.009644 15063.025391 
587.271606 12173.759766 
590.378235 13652.578125 
590.91925 13646.508789 
591.017822 13488.335938 
591.217285 13254.333984 
592.9151 11571.638672 
593.778809 10650.553711 
594.628174 9846.983398 
594.788757 12290.833008 
596.4104 13967.808594 
596.811768 23009.914062 
596.825073 19823.371094 
596.836243 21544.511719 
597.023926 11821.964844 
597.069702 17103.382812 
597.086731 32726.75 
597.099792 27494.755859 
597.109863 19951.152344 
597.116089 20448.472656 
597.5354 11486.709961 
598.160217 15429.835938 
598.168884 21037.591797 
598.188843 22149.076172 
598.202942 19148.412109 
598.211182 25179.277344 
598.223083 10330.487305 
598.464966 13068.030273 
598.487854 11134.926758 
601.205139 12350.40332 
601.824402 14915.558594 
601.845154 12028.529297 
601.851318 12016.975586 
602.114868 14919.866211 
602.623352 14272.874023 
603.235962 14307.330078 
603.783081 12274.311523 
604.237793 10335.982422 
604.383911 11677.606445 
604.395874 17241.167969 
604.406738 19605.615234 
604.988525 11970.962891 
605.787231 10922.386719 
605.801514 12834.359375 
607.120605 12296.03418 
608.671753 11178.230469 
609.531433 13053.746094 
612.34198 13728.547852 
612.558838 12934.510742 
612.654602 16626.650391 
613.067139 12716.613281 
613.616699 11713.93457 
613.633667 12996.313477 
613.643066 16826.923828 
615.112915 13274.167969 
616.015442 13402.524414 
616.090271 11893.500977 
616.70575 14768.222656 
616.884827 12349.948242 
617.065063 14928.501953 
617.155945 11814.458008 
617.295288 12354.379883 
617.435425 21046.787109 
617.444031 28838.021484 
617.457336 31871.681641 
618.433594 12234.885742 
618.570251 10919.12207 
618.968628 34861.773438 
618.982361 34174.175781 
619.264343 14490.521484 
619.756348 12324.47168 
620.248901 10822.716797 
621.05719 9600.499023 
621.333679 12169.99707 
622.11261 14937.522461 
622.592529 13018.685547 
622.71521 13208.625977 
622.882263 13683.462891 
623.174438 18631.550781 
623.186279 10665.211914 
623.306396 10835.785156 
625.61554 16315.881836 
625.687805 13021.923828 
628.840393 11464.361328 
629.530823 27208.6875 
629.547913 38054.125 
629.562256 41368.539062 
629.579529 53728.847656 
629.585571 52383.121094 
630.475891 11742.347656 
630.520508 18890.367188 
630.532837 13681.321289 
630.819458 29232.082031 
630.828979 47302.691406 
630.841919 41682.960938 
630.853149 20760.892578 
630.863037 17682.373047 
630.886108 15764.043945 
631.120544 17798.623047 
631.148193 47966.597656 
631.16095 14603.358398 
631.168274 13888.853516 
634.881226 12989.581055 
636.242615 12099.703125 
636.95874 14434.388672 
638.57605 14630.007812 
639.228455 9958.166992 
639.371643 10034.714844 
641.824829 13203.000977 
642.177917 16160.203125 
642.832642 58451.699219 
642.847351 60577.65625 
642.857361 27854.316406 
642.868958 15159.838867 
643.162415 19603.234375 
647.331909 12947.983398 
647.358154 13815.550781 
647.382629 31693.759766 
650.923218 21211.490234 
651.317261 10244.304688 
655.227417 13423.095703 
655.311462 11928.783203 
655.941284 20029.542969 
659.670105 13659.03418 
660.016907 16300.932617 
660.030762 16439.724609 
660.044861 16432.810547 
660.234375 13718.378906 
662.22937 13727.375 
663.019226 15804.338867 
664.401123 19641.509766 
664.49231 12209.529297 
666.13092 13160.613281 
668.600342 18269.904297 
668.611938 13152.587891 
668.625793 32074.537109 
668.874268 14502.578125 
668.89563 21018.529297 
670.274597 11787.929688 
670.618652 11716.245117 
671.539856 10645.446289 
672.652893 20679.4375 
673.184387 24870.871094 
673.436096 11387.844727 
674.05127 12868.157227 
674.268494 13149.0 
674.501526 15368.355469 
676.253967 11743.092773 
676.704346 12079.796875 
677.615173 19995.875 
680.32312 11720.545898 
680.929321 14066.783203 
682.109558 24152.830078 
682.127319 22001.951172 
682.14563 16511.130859 
682.540161 10600.328125 
683.111572 21007.175781 
683.132507 36150.738281 
683.141541 29932.34375 
683.452209 11744.807617 
684.383728 13695.317383 
684.773926 13865.097656 
686.857788 57279.109375 
686.87262 63058.488281 
687.061523 15415.822266 
687.22522 13468.623047 
687.598816 12273.77832 
689.100037 13988.009766 
689.707642 12506.472656 
689.775085 13374.943359 
692.370728 12480.195312 
692.829529 10483.310547 
696.522522 13077.147461 
696.543701 23144.154297 
696.559326 26589.583984 
696.916504 29041.804688 
696.927124 19746.947266 
696.951904 14808.236328 
697.213318 14536.883789 
697.943848 12292.9375 
697.973267 16420.404297 
697.995667 13644.984375 
698.843445 13473.638672 
700.336853 12432.380859 
700.348511 10797.06543 
703.264893 13067.975586 
705.273254 20103.761719 
706.129822 11103.551758 
707.211792 13553.921875 
707.570862 11541.449219 
707.645081 12321.129883 
710.674133 11644.838867 
710.818115 24901.732422 
710.835999 14140.030273 
711.222412 25608.173828 
714.005066 12861.500977 
714.065613 11584.080078 
714.691833 10236.480469 
715.733887 14037.637695 
719.839417 12497.364258 
721.200562 13895.595703 
721.220764 16309.682617 
721.232971 9568.320312 
721.991089 17692.222656 
722.003479 28363.625 
722.022888 25598.453125 
722.702515 12472.613281 
726.50824 13087.036133 
728.418762 16013.045898 
728.498718 12556.5 
731.284485 10769.108398 
732.315186 13111.390625 
732.895935 12823.125977 
736.211365 14415.572266 
736.945557 11823.830078 
740.185791 12040.514648 
742.489197 31468.998047 
742.77063 12893.631836 
743.310486 17154.789062 
743.360046 26744.300781 
743.895813 11610.730469 
744.94342 12079.171875 
744.974731 10297.708984 
747.788696 11452.488281 
748.101379 18173.214844 
748.303406 18111.171875 
749.436707 13605.248047 
750.088623 15319.130859 
751.486633 11031.273438 
752.742615 14066.013672 
753.803589 20835.386719 
753.830505 19862.273438 
754.257996 11832.917969 
754.325073 13458.945312 
754.68988 13077.625977 
756.214905 10955.370117 
759.490479 14040.101562 
760.180725 13046.952148 
760.583313 14799.216797 
760.662292 13746.633789 
761.170959 14337.695312 
761.736694 14659.161133 
762.710693 12918.427734 
763.408142 14061.146484 
764.449524 14324.811523 
764.458923 16255.484375 
764.77655 16660.679688 
765.046082 12793.37793 
765.495178 19909.142578 
765.511414 15355.09082 
765.63501 10424.423828 
769.022034 12859.749023 
769.735596 12161.188477 
771.226624 10828.824219 
771.5755 12022.663086 
771.936218 34558.769531 
771.94989 34899.449219 
773.123779 11932.90918 
774.182495 15030.367188 
774.785461 14187.773438 
775.985718 11660.751953 
777.605713 13625.395508 
781.670471 12398.452148 
783.190552 12411.399414 
783.929382 13733.87207 
788.563416 10606.677734 
788.57605 10578.470703 
790.172852 11547.832031 
790.722168 13788.303711 
790.737244 12403.198242 
791.911316 13344.582031 
792.092285 10535.625977 
792.107849 10295.748047 
792.201965 14404.076172 
792.99585 17213.232422 
793.80426 13731.429688 
793.833008 12611.62207 
797.122314 14141.958984 
798.007629 14981.568359 
798.887878 18179.943359 
800.224304 17278.908203 
801.84137 49716.960938 
802.213501 15380.353516 
802.579895 13539.951172 
802.944702 10633.235352 
804.613892 15453.113281 
805.32196 13116.265625 
807.424683 12022.933594 
808.953064 15139.617188 
810.067688 12397.181641 
810.866516 12169.461914 
812.133362 14284.729492 
814.096863 13034.185547 
816.619385 10653.075195 
817.638489 12774.754883 
818.202454 19238.267578 
818.666382 12380.573242 
820.961182 13364.234375 
821.213745 13695.094727 
822.381042 17068.199219 
824.688599 14326.785156 
824.909485 15271.638672 
827.90387 13463.428711 
828.485779 11812.005859 
829.275513 13455.361328 
829.306824 11367.361328 
829.500793 12014.193359 
831.061279 12034.96582 
831.88501 13605.606445 
832.22821 11470.873047 
833.721252 11368.463867 
834.373291 11373.973633 
834.870422 13473.923828 
837.46051 10923.759766 
840.09137 16352.415039 
840.265625 12220.369141 
840.332764 12490.570312 
841.823364 17982.886719 
842.364502 10658.760742 
842.440002 11082.660156 
842.565796 12714.386719 
844.274963 15806.753906 
849.15155 14939.388672 
856.106506 12104.911133 
857.525085 13487.735352 
859.448242 14443.631836 
860.812073 13414.40332 
861.459351 12487.133789 
862.792236 12219.21875 
864.362183 11999.823242 
864.923218 11135.496094 
865.481995 12119.764648 
866.827209 11530.012695 
870.867981 21977.025391 
871.426453 12221.009766 
871.515991 40953.476562 
871.552979 12046.966797 
872.101624 31013.154297 
872.742981 13582.445312 
872.819336 18490.667969 
876.735962 11940.391602 
877.435059 13125.881836 
879.247375 19819.609375 
879.273376 39879.242188 
879.296387 46679.925781 
879.644287 15330.826172 
879.859009 15229.507812 
879.887329 16139.985352 
882.100952 14002.306641 
889.752441 16513.248047 
891.175842 12707.166992 
891.767456 9835.743164 
891.853943 17384.035156 
895.84906 12834.255859 
896.77594 12277.328125 
901.271667 11622.749023 
901.46875 12521.275391 
903.072083 14830.827148 
903.551453 16046.532227 
904.247437 11954.243164 
907.389771 13288.950195 
908.252869 11115.644531 
915.848633 12457.526367 
917.77478 14362.291016 
919.600586 12873.102539 
921.29718 15446.860352 
927.182861 12339.479492 
928.581177 13501.118164 
935.331543 12900.368164 
937.731323 14857.722656 
939.399231 13959.630859 
942.097351 12467.222656 
942.159973 14348.62793 
944.091553 15290.46582 
946.484558 11645.24707 
950.63739 14383.197266 
951.526062 12508.257812 
952.18811 14092.745117 
952.561096 12477.521484 
952.959106 13592.455078 
953.484314 15948.802734 
954.178467 10283.665039 
955.15625 84844.070312 
955.198853 39486.347656 
955.858643 18250.568359 
955.910522 15397.716797 
957.518677 14176.535156 
960.927795 15144.701172 
961.725708 12084.651367 
962.485657 11406.508789 
964.500122 20329.548828 
967.974915 15037.181641 
970.360779 13526.460938 
970.42511 11750.828125 
972.601013 11937.374023 
972.970337 13739.217773 
973.263245 12565.585938 
974.403259 11701.011719 
978.920959 15164.621094 
981.276489 14990.547852 
984.692505 18220.121094 
984.830444 12017.132812 
987.677124 15619.668945 
993.136169 16217.492188 
994.189392 16617.582031 
994.361389 11158.380859 
994.380859 12283.84375 
994.409607 13735.039062 
995.757935 13696.166992 
1001.387512 13551.223633 
1001.477478 14910.188477 
1002.483276 12299.751953 
1005.088989 12181.318359 
1005.669434 12434.931641 
1009.834717 13913.505859 
1011.084717 12518.308594 
1011.408203 12331.532227 
1012.411621 21021.904297 
1016.366089 14247.919922 
1016.857178 12334.076172 
1016.945496 11691.462891 
1019.079468 15352.232422 
1020.584106 11694.082031 
1022.08606 14125.240234 
1022.853882 15170.555664 
1022.878845 18006.789062 
1022.899536 16675.828125 
1022.924805 16016.00293 
1022.943848 15757.449219 
1023.692139 11993.237305 
1024.756226 11903.583984 
1026.482056 12772.3125 
1026.782715 12911.141602 
1027.424927 12116.160156 
1029.112183 12893.318359 
1032.045288 14384.334961 
1035.205688 18240.587891 
1035.630005 11496.902344 
1039.036377 15519.087891 
1044.529907 21062.203125 
1046.580933 16404.507812 
1046.783325 12236.392578 
1048.708984 12412.998047 
1049.309448 13277.893555 
1050.627319 12153.014648 
1051.141235 14489.90918 
1052.032349 16108.456055 
1052.460449 12955.506836 
1054.179932 10621.181641 
1054.834595 10760.397461 
1055.158691 11667.986328 
1055.69519 14049.25 
1056.537109 17030.664062 
1059.599243 12263.144531 
1059.662842 12691.077148 
1060.449341 12955.682617 
1061.321167 16428.640625 
1062.006958 11469.785156 
1062.043091 12748.592773 
1063.057495 11363.571289 
1064.619019 13178.189453 
1069.384155 13867.057617 
1074.742676 17725.689453 
1078.498291 16044.487305 
1079.689575 12120.674805 
1079.736206 12647.9375 
1087.696289 18280.419922 
1087.793091 9984.8125 
1087.803833 9961.110352 
1096.799316 15325.25293 
1096.973877 12052.555664 
1097.56897 12979.568359 
1098.214722 11007.507812 
1098.353149 10776.966797 
1100.02771 12458.948242 
1100.211548 11560.980469 
1108.517334 16039.873047 
1109.139771 20378.421875 
1111.56311 12808.202148 
1111.839111 17221.085938 
1112.831543 15408.561523 
1114.321777 13714.457031 
1114.330444 13143.719727 
1114.93335 13460.370117 
1115.288208 11349.55957 
1121.152588 16293.756836 
1123.589111 13059.636719 
1124.005005 11985.045898 
1124.428589 14849.639648 
1127.046265 14395.510742 
1127.815674 15485.767578 
1134.393066 12841.165039 
1134.795898 12450.34082 
1135.257324 15629.208984 
1137.571045 11370.106445 
1138.775635 10878.224609 
1138.829956 13210.640625 
1138.994141 12197.299805 
1140.260254 13409.3125 
1145.846069 11341.987305 
1150.391846 15268.029297 
1153.798706 14429.602539 
1153.920654 16769.003906 
1159.853271 10770.480469 
1166.984741 12781.258789 
1167.012329 11547.855469 
1167.303711 11480.874023 
1171.116821 18505.375 
1171.350342 12661.827148 
1173.48999 14297.905273 
1175.1427 11433.580078 
1176.516113 9571.851562 
1178.992065 11607.157227 
1179.297607 11834.645508 
1179.893555 16257.024414 
1180.866455 14031.043945 
1186.718506 15451.524414 
1187.626587 14939.994141 
1188.271606 15791.432617 
1190.305908 16774.548828 
1190.729858 13099.583008 
1192.828979 17050.224609 
1193.050171 33960.890625 
1193.167603 16564.494141 
1193.928711 11528.054688 
1197.433594 17130.673828 
END IONS

