BEGIN IONS
TITLE=Scan Number: 584666
PEPMASS=926.526
CHARGE=1+
COMPOUNDNAME=Nystatin
LIBRARYQUALITY=3
SMILES=C[C@H]1/C=C/C=C/CC/C=C/C=C/C=C/C=C/[C@@H](C[C@H]2[C@@H]([C@H](C[C@](O2)(C[C@H]([C@@H](CC[C@H](C[C@H](C[C@H](CC(=O)O[C@H]([C@@H]([C@@H]1O)C)C)O)O)O)O)O)O)O)C(=O)O)O[C@@H]3[C@@H]([C@@H]([C@H]([C@@H](O3)C)O)N)O
INCHIKEY=VQOXZBDYSJBXMA-VHFLTRTASA-N
INCHI=InChI=1S/C47H75NO17/c1-27-17-15-13-11-9-7-5-6-8-10-12-14-16-18-34(64-46-44(58)41(48)43(57)30(4)63-46)24-38-40(45(59)60)37(54)26-47(61,65-38)25-36(53)35(52)20-19-31(49)21-32(50)22-33(51)23-39(55)62-29(3)28(2)42(27)56/h5-6,8,10-18,27-38,40-44,46,49-54,56-58,61H,7,9,19-26,48H2,1-4H3,(H,59,60)/b6-5+,10-8+,13-11+,14-12+,17-15+,18-16+/t27-,28-,29-,30-,31+,32+,33+,34-,35+,36+,37-,38-,40+,41+,42+,43-,44+,46+,47+/m0/s1
MSLEVEL=2
SOURCE_INSTRUMENT=LC-ESI-qTof
FILENAME=f.RicardoMBorges/Nystatin_1.mzXML;
SEQ=*..*
NOTES=
IONMODE=Positive
ORGANISM=GNPS-LIBRARY
NAME=Nystatin M+H
SPECTRUMID=CCMSLIB00005435898
ACTIVATION=CID
INSTRUMENT=ion trap
SCANS=584666
110.008446 93.0 
110.023468 112.0 
110.035484 191.0 
110.050507 171.0 
110.068535 406.0 
110.107605 2206.0 
110.131653 1448.0 
110.158707 197.0 
110.176743 99.0 
110.188774 95.0 
110.197792 99.0 
110.21283 72.0 
110.224854 107.0 
110.245903 81.0 
110.248917 81.0 
110.254929 78.0 
110.269966 69.0 
110.278992 45.0 
110.288017 90.0 
110.309074 61.0 
110.327126 55.0 
110.333138 51.0 
110.348183 102.0 
110.363228 77.0 
110.372253 74.0 
110.384293 62.0 
110.393318 79.0 
110.408371 85.0 
110.423416 51.0 
110.429436 64.0 
110.438469 48.0 
110.450508 65.0 
110.462547 93.0 
110.471581 61.0 
110.480614 55.0 
110.489647 76.0 
110.5047 71.0 
110.516747 34.0 
110.52578 30.0 
110.534813 53.0 
110.543846 38.0 
110.552879 39.0 
110.561913 44.0 
110.564926 44.0 
110.573959 42.0 
110.586014 88.0 
110.601074 123.0 
110.616135 55.0 
110.631195 63.0 
110.646263 54.0 
110.652283 51.0 
110.65831 75.0 
110.685432 69.0 
110.703514 74.0 
110.712555 83.0 
110.721596 82.0 
110.73365 68.0 
110.742691 91.0 
110.75174 46.0 
110.769821 77.0 
110.775856 65.0 
110.781883 63.0 
110.78791 63.0 
110.796959 55.0 
110.815048 57.0 
110.82711 38.0 
110.836151 51.0 
110.854248 50.0 
110.872345 56.0 
110.881393 37.0 
110.893456 35.0 
110.902504 42.0 
110.914574 41.0 
110.920601 48.0 
110.929657 50.0 
110.947754 66.0 
110.95681 67.0 
110.96888 41.0 
110.974915 43.0 
110.977928 43.0 
110.989998 42.0 
110.999054 64.0 
111.005089 132.0 
111.02018 89.0 
111.044319 2151.0 
111.071487 2316.0 
111.083565 4005.0 
111.104698 2470.0 
111.110733 2405.0 
111.131866 471.0 
111.146965 264.0 
111.162064 207.0 
111.17717 191.0 
111.198311 176.0 
111.228516 107.0 
111.237579 76.0 
111.246643 72.0 
111.258728 80.0 
111.276855 70.0 
111.28894 43.0 
111.301025 63.0 
111.325203 54.0 
111.337296 87.0 
111.34938 60.0 
111.358452 72.0 
111.367516 55.0 
111.379608 57.0 
111.38868 54.0 
111.397743 70.0 
111.409836 79.0 
111.427979 76.0 
111.440071 63.0 
111.452171 53.0 
111.458214 58.0 
111.470314 47.0 
111.482407 67.0 
111.488457 63.0 
111.503578 63.0 
111.527779 82.0 
111.551979 57.0 
111.564079 63.0 
111.57618 47.0 
111.579208 47.0 
111.591309 51.0 
111.600388 39.0 
111.606438 62.0 
111.615517 61.0 
111.633675 92.0 
111.645782 46.0 
111.65789 34.0 
111.66394 46.0 
111.673019 35.0 
111.682098 26.0 
111.694206 43.0 
111.703293 35.0 
111.712372 42.0 
111.72448 68.0 
111.742645 83.0 
111.75779 49.0 
111.760818 49.0 
111.769897 47.0 
111.778984 61.0 
111.782013 61.0 
111.803215 58.0 
111.815331 46.0 
111.830475 60.0 
111.845619 41.0 
111.854706 50.0 
111.860764 47.0 
111.872879 58.0 
111.875916 58.0 
111.881973 56.0 
111.89106 46.0 
111.906212 40.0 
111.915298 63.0 
111.927422 62.0 
111.945602 102.0 
111.963791 64.0 
111.988037 47.0 
111.997131 48.0 
112.009254 39.0 
112.021378 51.0 
112.030472 31.0 
112.036537 39.0 
112.048668 291.0 
112.066856 196.0 
112.082024 444.0 
112.091118 306.0 
112.100212 227.0 
112.109314 438.0 
112.130547 104.0 
112.142677 80.0 
112.148743 76.0 
112.16391 71.0 
112.176041 70.0 
112.191216 41.0 
112.200317 62.0 
112.209419 61.0 
112.22155 58.0 
112.230659 50.0 
112.242798 58.0 
112.248863 67.0 
112.267075 53.0 
112.276176 64.0 
112.285286 31.0 
112.294388 45.0 
112.306526 70.0 
112.312599 44.0 
112.330811 49.0 
112.342957 38.0 
112.352066 35.0 
112.364212 57.0 
112.367249 57.0 
112.376358 37.0 
112.382431 44.0 
112.40065 55.0 
112.412796 56.0 
112.421906 64.0 
112.431015 26.0 
112.440125 60.0 
112.461388 41.0 
112.476578 33.0 
112.482651 32.0 
112.494804 42.0 
112.503922 38.0 
112.509995 28.0 
112.525185 39.0 
112.534302 21.0 
112.540382 50.0 
112.561653 53.0 
112.567726 51.0 
112.58596 42.0 
112.598122 48.0 
112.610275 66.0 
112.6194 50.0 
112.625473 45.0 
112.634598 43.0 
112.640678 37.0 
112.643715 37.0 
112.649796 45.0 
112.664993 49.0 
112.671074 45.0 
112.683235 51.0 
112.69236 33.0 
112.701485 46.0 
112.719727 40.0 
112.734932 97.0 
112.756226 49.0 
112.76535 37.0 
112.777512 89.0 
112.78968 49.0 
112.804893 107.0 
112.820107 70.0 
112.832275 80.0 
112.850533 41.0 
112.859657 40.0 
112.87487 36.0 
112.887047 32.0 
112.893135 44.0 
112.90226 19.0 
112.911392 17.0 
112.923569 37.0 
112.932701 35.0 
112.941833 47.0 
112.947922 40.0 
112.969231 41.0 
112.981407 37.0 
112.987495 45.0 
112.993584 44.0 
113.002716 56.0 
113.024033 1339.0 
113.036217 659.0 
113.063622 5180.0 
113.09713 5758.0 
113.121498 3398.0 
113.139778 871.0 
113.148918 441.0 
113.176338 224.0 
113.18853 171.0 
113.194626 176.0 
113.200722 150.0 
113.215958 162.0 
113.222054 169.0 
113.240341 111.0 
113.252533 95.0 
113.258629 75.0 
113.270821 88.0 
113.286064 65.0 
113.29216 81.0 
113.310455 89.0 
113.322655 81.0 
113.331802 87.0 
113.350098 66.0 
113.365341 99.0 
113.380592 70.0 
113.392792 54.0 
113.398895 63.0 
113.414146 55.0 
113.420242 63.0 
113.423294 63.0 
113.435501 66.0 
113.456856 62.0 
113.469055 71.0 
113.47821 45.0 
113.484314 56.0 
113.502625 66.0 
113.508728 55.0 
113.514832 65.0 
113.533142 45.0 
113.536194 45.0 
113.545349 52.0 
113.560608 65.0 
113.566711 54.0 
113.578926 75.0 
113.588081 49.0 
113.594185 62.0 
113.603348 77.0 
113.621666 77.0 
113.630821 84.0 
113.643036 64.0 
113.652199 88.0 
113.658302 95.0 
113.667465 69.0 
113.673576 66.0 
113.67968 73.0 
113.688843 73.0 
113.694954 72.0 
113.701057 56.0 
113.707169 39.0 
113.71328 48.0 
113.728546 73.0 
113.752991 62.0 
113.765205 39.0 
113.774376 46.0 
113.780479 53.0 
113.786591 69.0 
113.798813 33.0 
113.807983 51.0 
113.829376 68.0 
113.832428 68.0 
113.841599 65.0 
113.850769 52.0 
113.859932 42.0 
113.875214 55.0 
113.881332 45.0 
113.905785 64.0 
113.927185 45.0 
113.936356 43.0 
113.942474 43.0 
113.954704 50.0 
113.973045 68.0 
113.991394 56.0 
114.003632 54.0 
114.012802 65.0 
114.018921 59.0 
114.031151 209.0 
114.049507 176.0 
114.064804 363.0 
114.08316 191.0 
114.098457 433.0 
114.110695 180.0 
114.119873 117.0 
114.132111 320.0 
114.144356 52.0 
114.150475 74.0 
114.165771 55.0 
114.171898 58.0 
114.190262 63.0 
114.205566 65.0 
114.22699 68.0 
114.248421 81.0 
114.257607 69.0 
114.266792 44.0 
114.279037 67.0 
114.297409 39.0 
114.306602 64.0 
114.312721 49.0 
114.321915 31.0 
114.328033 40.0 
114.33416 65.0 
114.349472 32.0 
114.355598 37.0 
114.373978 49.0 
114.380104 53.0 
114.389297 63.0 
114.40155 49.0 
114.41687 47.0 
114.422997 46.0 
114.43219 22.0 
114.444443 41.0 
114.456703 37.0 
114.465897 34.0 
114.47509 38.0 
114.478157 38.0 
114.493477 56.0 
114.508804 46.0 
114.514931 48.0 
114.524132 31.0 
114.533325 45.0 
114.536392 45.0 
114.548653 61.0 
114.554787 47.0 
114.570114 34.0 
114.579308 72.0 
114.591576 63.0 
114.606903 90.0 
114.631439 62.0 
114.652908 53.0 
114.665176 31.0 
114.683578 53.0 
114.698914 45.0 
114.72039 55.0 
114.726524 33.0 
114.729591 33.0 
114.741867 41.0 
114.763344 41.0 
114.778687 45.0 
114.790962 33.0 
114.800171 31.0 
114.809372 37.0 
114.827789 58.0 
114.84314 37.0 
114.855415 50.0 
114.864624 45.0 
114.873833 44.0 
114.886116 31.0 
114.892258 48.0 
114.901466 43.0 
114.91375 60.0 
114.932167 39.0 
114.94445 28.0 
114.950592 37.0 
114.959808 66.0 
114.975166 38.0 
114.978233 38.0 
114.984375 48.0 
114.993591 48.0 
115.015091 53.0 
115.04274 2183.0 
115.058105 1642.0 
115.064247 1699.0 
115.076538 1221.0 
115.10112 230.0 
115.116486 85.0 
115.128777 107.0 
115.134926 103.0 
115.156441 143.0 
115.168739 82.0 
115.18718 74.0 
115.205627 50.0 
115.217926 63.0 
115.221001 63.0 
115.242523 46.0 
115.260971 41.0 
115.264046 41.0 
115.279419 39.0 
115.291725 39.0 
115.297874 38.0 
115.313255 53.0 
115.331711 70.0 
115.356316 79.0 
115.380928 78.0 
115.396317 41.0 
115.405548 33.0 
115.41478 35.0 
115.417854 35.0 
115.424011 33.0 
115.436317 46.0 
115.445549 46.0 
115.454781 38.0 
115.46402 49.0 
115.473251 49.0 
115.482483 34.0 
115.494797 74.0 
115.500954 26.0 
115.510185 42.0 
115.522499 44.0 
115.528656 45.0 
115.537895 44.0 
115.550209 33.0 
115.559448 36.0 
115.568687 71.0 
115.577927 56.0 
115.584084 56.0 
115.596397 60.0 
115.59948 60.0 
115.611801 48.0 
115.62104 46.0 
115.627197 40.0 
115.639519 63.0 
115.657997 43.0 
115.667244 24.0 
115.688805 53.0 
115.694969 45.0 
115.704208 46.0 
115.716537 34.0 
115.722694 102.0 
115.738106 68.0 
115.74427 51.0 
115.75351 99.0 
115.762756 50.0 
115.775085 50.0 
115.793579 50.0 
115.80899 43.0 
115.815155 30.0 
115.82132 34.0 
115.836731 52.0 
115.845978 41.0 
115.855232 77.0 
115.861397 49.0 
115.873726 57.0 
115.886063 49.0 
115.895309 41.0 
115.913811 73.0 
115.923065 39.0 
115.93232 28.0 
115.938484 21.0 
115.944656 42.0 
115.953903 39.0 
115.963158 49.0 
115.972412 32.0 
115.975494 32.0 
115.984749 46.0 
116.003258 87.0 
116.018684 68.0 
116.027939 24.0 
116.037201 79.0 
116.043373 33.0 
116.049538 63.0 
116.064972 181.0 
116.071144 134.0 
116.092743 113.0 
116.105087 62.0 
116.120522 38.0 
116.129784 50.0 
116.139038 56.0 
116.1483 38.0 
116.160652 45.0 
116.169907 42.0 
116.182259 50.0 
116.197693 68.0 
116.210045 30.0 
116.216225 36.0 
116.231659 38.0 
116.244019 20.0 
116.250191 31.0 
116.262543 27.0 
116.277985 38.0 
116.284164 42.0 
116.296516 35.0 
116.305786 27.0 
116.311966 52.0 
116.321236 46.0 
116.327408 30.0 
116.333588 40.0 
116.339767 39.0 
116.352127 37.0 
116.364487 24.0 
116.376846 42.0 
116.383026 40.0 
116.395386 44.0 
116.401566 37.0 
116.410835 41.0 
116.423195 27.0 
116.432472 49.0 
116.447922 28.0 
116.457199 35.0 
116.478836 50.0 
116.494293 33.0 
116.500473 41.0 
116.50975 38.0 
116.515938 52.0 
116.528305 37.0 
116.537575 53.0 
116.54995 26.0 
116.559219 24.0 
116.571594 55.0 
116.590149 57.0 
116.605614 58.0 
116.621078 67.0 
116.633453 29.0 
116.642731 46.0 
116.652016 43.0 
116.658203 31.0 
116.670578 27.0 
116.686043 36.0 
116.695328 35.0 
116.704613 31.0 
116.716988 43.0 
116.735558 34.0 
116.744843 40.0 
116.760315 45.0 
116.763412 45.0 
116.778885 42.0 
116.794365 47.0 
116.806747 38.0 
116.812935 42.0 
116.828415 40.0 
116.8377 34.0 
116.843895 43.0 
116.86557 33.0 
116.884148 30.0 
116.896538 34.0 
116.899635 34.0 
116.912018 44.0 
116.933701 36.0 
116.936798 36.0 
116.942993 33.0 
116.958481 44.0 
116.970871 28.0 
116.986359 47.0 
116.992554 49.0 
117.008049 60.0 
117.014244 40.0 
117.029739 50.0 
117.04213 80.0 
117.070023 9242.0 
117.097916 6976.0 
117.153717 254.0 
117.166115 292.0 
117.194023 240.0 
117.212624 115.0 
117.225029 110.0 
117.231232 100.0 
117.246742 91.0 
117.26535 77.0 
117.277756 100.0 
117.287064 85.0 
117.293266 80.0 
117.305679 136.0 
117.330498 121.0 
117.342903 91.0 
117.364624 93.0 
117.370834 77.0 
117.386345 76.0 
117.392555 60.0 
117.408073 97.0 
117.423592 75.0 
117.429802 91.0 
117.454628 79.0 
117.467049 80.0 
117.473259 54.0 
117.488777 58.0 
117.504303 57.0 
117.519829 45.0 
117.526039 56.0 
117.547775 75.0 
117.560196 47.0 
117.566406 50.0 
117.572624 45.0 
117.578835 43.0 
117.58815 65.0 
117.600578 47.0 
117.619209 50.0 
117.631638 47.0 
117.650276 46.0 
117.659599 54.0 
117.66581 64.0 
117.684456 62.0 
117.693779 34.0 
117.703102 43.0 
117.71553 33.0 
117.724854 49.0 
117.737282 57.0 
117.749718 63.0 
117.755936 43.0 
117.768364 55.0 
117.787018 51.0 
117.796341 47.0 
117.818108 58.0 
117.827431 47.0 
117.836761 56.0 
117.858528 45.0 
117.870964 39.0 
117.886513 53.0 
117.905174 61.0 
117.920723 39.0 
117.936279 37.0 
117.948723 38.0 
117.954941 34.0 
117.964279 52.0 
117.97361 63.0 
117.992279 58.0 
118.004723 39.0 
118.010948 58.0 
118.020279 44.0 
118.029617 60.0 
118.042061 67.0 
118.070068 748.0 
118.098083 900.0 
118.119873 208.0 
118.147888 82.0 
118.163452 73.0 
118.166573 73.0 
118.179024 55.0 
118.194588 86.0 
118.213272 70.0 
118.225731 94.0 
118.231956 84.0 
118.241302 55.0 
118.247528 56.0 
118.253761 81.0 
118.26622 63.0 
118.272446 59.0 
118.288025 71.0 
118.29425 71.0 
118.30983 45.0 
118.322289 80.0 
118.331635 57.0 
118.340981 35.0 
118.350334 54.0 
118.362793 60.0 
118.369026 51.0 
118.381493 44.0 
118.390839 49.0 
118.397072 54.0 
118.415771 79.0 
118.443825 62.0 
118.456291 36.0 
118.459412 36.0 
118.462524 36.0 
118.468765 34.0 
118.481232 38.0 
118.490585 29.0 
118.503059 39.0 
118.512413 28.0 
118.518646 28.0 
118.534233 41.0 
118.549828 36.0 
118.562302 46.0 
118.584129 61.0 
118.602844 58.0 
118.615326 46.0 
118.621559 38.0 
118.634041 58.0 
118.643402 44.0 
118.649635 33.0 
118.658997 31.0 
118.668358 42.0 
118.677719 48.0 
118.690201 36.0 
118.708923 34.0 
118.724525 44.0 
118.740128 29.0 
118.755737 26.0 
118.771339 40.0 
118.77758 38.0 
118.799438 72.0 
118.805679 47.0 
118.81192 52.0 
118.815041 52.0 
118.824409 41.0 
118.833778 37.0 
118.846268 42.0 
118.855637 39.0 
118.858757 39.0 
118.868126 41.0 
118.880615 64.0 
118.899353 47.0 
118.918091 46.0 
118.921211 46.0 
118.936829 47.0 
118.955574 47.0 
118.971191 68.0 
118.996185 34.0 
119.008682 18.0 
119.021179 56.0 
119.049301 1532.0 
119.086807 12533.0 
119.111816 8823.0 
119.171211 293.0 
119.180595 383.0 
119.186844 383.0 
119.208733 383.0 
119.230621 188.0 
119.246262 202.0 
119.252518 119.0 
119.261902 203.0 
119.277542 110.0 
119.283798 78.0 
119.29631 116.0 
119.318207 77.0 
119.330719 135.0 
119.349495 74.0 
119.355751 84.0 
119.362015 85.0 
119.368271 104.0 
119.383919 128.0 
119.390175 77.0 
119.396431 95.0 
119.412079 70.0 
119.418343 95.0 
119.424599 103.0 
119.437119 88.0 
119.452774 65.0 
119.45903 90.0 
119.468422 62.0 
119.487206 80.0 
119.505997 93.0 
119.515388 99.0 
119.534172 116.0 
119.5467 121.0 
119.552963 110.0 
119.568626 121.0 
119.574883 121.0 
119.587418 60.0 
119.603073 65.0 
119.609337 58.0 
119.621872 35.0 
119.637535 89.0 
119.650063 48.0 
119.665726 61.0 
119.671997 65.0 
119.678261 70.0 
119.693932 100.0 
119.700195 88.0 
119.71273 104.0 
119.728401 64.0 
119.737801 54.0 
119.7472 55.0 
119.769142 116.0 
119.781685 46.0 
119.791084 50.0 
119.797356 36.0 
119.803627 53.0 
119.822433 82.0 
119.834976 53.0 
119.841248 66.0 
119.85379 82.0 
119.863197 43.0 
119.869469 45.0 
119.888283 78.0 
119.894554 57.0 
119.900826 66.0 
119.919647 78.0 
119.935326 47.0 
119.94474 53.0 
119.954147 29.0 
119.966698 64.0 
119.976105 65.0 
119.988655 43.0 
119.994934 70.0 
120.007477 49.0 
120.020027 60.0 
120.029442 53.0 
120.05455 94.0 
120.067101 116.0 
120.089073 1212.0 
120.111038 675.0 
120.117317 766.0 
120.148712 151.0 
120.16127 84.0 
120.170692 70.0 
120.176971 73.0 
120.189529 86.0 
120.205231 81.0 
120.214645 53.0 
120.224068 80.0 
120.23349 40.0 
120.246056 42.0 
120.255478 42.0 
120.268036 54.0 
120.277466 53.0 
120.290024 124.0 
120.312019 85.0 
120.318298 42.0 
120.330864 59.0 
120.337151 69.0 
120.352859 53.0 
120.365433 30.0 
120.371712 49.0 
120.384285 63.0 
120.393715 46.0 
120.412567 49.0 
120.42514 34.0 
120.43457 60.0 
120.447144 53.0 
120.45343 49.0 
120.475433 78.0 
120.48172 41.0 
120.488007 35.0 
120.497437 51.0 
120.510017 53.0 
120.516304 39.0 
120.528885 41.0 
120.538315 45.0 
120.547752 71.0 
120.557182 41.0 
120.569763 49.0 
120.588631 30.0 
120.601212 42.0 
120.613792 28.0 
120.632668 49.0 
120.645248 62.0 
120.664131 47.0 
120.676712 43.0 
120.689301 27.0 
120.701881 57.0 
120.708176 56.0 
120.720764 76.0 
120.736504 41.0 
120.739647 41.0 
120.752235 61.0 
120.780563 85.0 
120.793152 38.0 
120.799454 49.0 
120.805748 68.0 
120.812042 45.0 
120.821487 50.0 
120.834076 50.0 
120.840378 54.0 
120.852966 46.0 
120.862419 44.0 
120.871864 36.0 
120.878159 41.0 
120.88446 29.0 
120.900208 57.0 
120.912804 54.0 
120.922249 42.0 
120.931702 40.0 
120.937996 67.0 
120.960045 73.0 
120.9758 42.0 
120.988396 50.0 
121.00415 43.0 
121.010452 64.0 
121.029358 819.0 
121.045113 378.0 
121.067169 5212.0 
121.101837 15308.0 
121.127052 10692.0 
121.164886 872.0 
121.177498 423.0 
121.1838 417.0 
121.199562 427.0 
121.224792 418.0 
121.237404 155.0 
121.253174 195.0 
121.265793 142.0 
121.275253 126.0 
121.281563 120.0 
121.297333 147.0 
121.313103 149.0 
121.319412 125.0 
121.332031 147.0 
121.341499 106.0 
121.35096 150.0 
121.360428 108.0 
121.369896 116.0 
121.376205 115.0 
121.382515 116.0 
121.391983 69.0 
121.404602 157.0 
121.423538 80.0 
121.429855 94.0 
121.439323 80.0 
121.451942 89.0 
121.45826 92.0 
121.464569 138.0 
121.470886 158.0 
121.483513 157.0 
121.502457 176.0 
121.521393 112.0 
121.534027 86.0 
121.540344 76.0 
121.559288 97.0 
121.578232 71.0 
121.600342 87.0 
121.616135 61.0 
121.631927 120.0 
121.650879 115.0 
121.672997 139.0 
121.695107 103.0 
121.707748 117.0 
121.723549 101.0 
121.736191 72.0 
121.745667 105.0 
121.761467 120.0 
121.774109 81.0 
121.780434 72.0 
121.793076 88.0 
121.808884 143.0 
121.82785 96.0 
121.846817 95.0 
121.86895 128.0 
121.887917 138.0 
121.903732 53.0 
121.913216 65.0 
121.929031 85.0 
121.941681 61.0 
121.951172 50.0 
121.96698 79.0 
121.985962 63.0 
122.004944 75.0 
122.014435 54.0 
122.02076 77.0 
122.033417 125.0 
122.046074 91.0 
122.055565 98.0 
122.065056 448.0 
122.087212 275.0 
122.106201 1887.0 
122.131523 1131.0 
122.137848 1065.0 
122.156845 222.0 
122.166336 130.0 
122.175835 139.0 
122.179001 139.0 
122.197998 138.0 
122.207497 127.0 
122.210663 127.0 
122.22966 133.0 
122.235992 107.0 
122.242325 109.0 
122.254997 86.0 
122.26133 65.0 
122.273994 66.0 
122.286667 51.0 
122.302498 47.0 
122.31517 61.0 
122.334175 69.0 
122.343681 62.0 
122.353188 71.0 
122.378532 74.0 
122.394371 69.0 
122.407051 90.0 
122.42289 47.0 
122.43557 90.0 
122.457756 57.0 
122.464096 53.0 
122.473602 47.0 
122.479942 64.0 
122.486282 60.0 
122.502129 81.0 
122.524323 46.0 
122.533836 60.0 
122.546516 47.0 
122.552856 51.0 
122.56237 39.0 
122.56871 39.0 
122.578224 36.0 
122.594078 66.0 
122.613106 47.0 
122.628967 87.0 
122.635307 49.0 
122.641655 65.0 
122.660683 71.0 
122.663857 71.0 
122.67337 41.0 
122.679718 45.0 
122.692406 60.0 
122.705093 55.0 
122.708267 55.0 
122.720963 76.0 
122.73365 39.0 
122.739998 37.0 
122.746346 40.0 
122.752693 40.0 
122.768555 55.0 
122.778076 89.0 
122.787598 76.0 
122.800293 146.0 
122.82251 115.0 
122.84156 71.0 
122.847908 116.0 
122.860603 67.0 
122.866951 75.0 
122.879654 73.0 
122.889175 38.0 
122.898705 94.0 
122.920929 44.0 
122.930458 69.0 
122.936806 52.0 
122.949509 77.0 
122.962219 53.0 
122.971741 62.0 
122.98127 67.0 
122.99398 54.0 
123.00351 29.0 
123.009857 49.0 
123.044807 6052.0 
123.070221 4791.0 
123.079758 6715.0 
123.117889 9250.0 
123.143311 5264.0 
123.210068 380.0 
123.216423 362.0 
123.238678 240.0 
123.267296 183.0 
123.289558 143.0 
123.299095 80.0 
123.305458 117.0 
123.311821 118.0 
123.330902 121.0 
123.353172 127.0 
123.362717 109.0 
123.375435 62.0 
123.384979 106.0 
123.400887 84.0 
123.404068 84.0 
123.410431 89.0 
123.416801 104.0 
123.423164 105.0 
123.43589 108.0 
123.458168 66.0 
123.464531 72.0 
123.470894 81.0 
123.486809 94.0 
123.502724 89.0 
123.518639 83.0 
123.534554 116.0 
123.556839 129.0 
123.579124 98.0 
123.585495 110.0 
123.595047 95.0 
123.601418 102.0 
123.61097 85.0 
123.617332 101.0 
123.623703 98.0 
123.636444 128.0 
123.649185 79.0 
123.658737 96.0 
123.665108 99.0 
123.671478 70.0 
123.68103 127.0 
123.69696 88.0 
123.706512 73.0 
123.716072 97.0 
123.728813 113.0 
123.738373 89.0 
123.744743 70.0 
123.751122 93.0 
123.760674 72.0 
123.773422 82.0 
123.779793 99.0 
123.789352 78.0 
123.81485 64.0 
123.827599 79.0 
123.837158 60.0 
123.849907 53.0 
123.856285 55.0 
123.862656 59.0 
123.878593 65.0 
123.888161 70.0 
123.900909 55.0 
123.907288 62.0 
123.916855 59.0 
123.929604 75.0 
123.945549 77.0 
123.951927 89.0 
123.958305 79.0 
123.974251 79.0 
123.983818 89.0 
123.993385 60.0 
124.009331 66.0 
124.015709 60.0 
124.022087 78.0 
124.031654 65.0 
124.047607 433.0 
124.069939 327.0 
124.082695 567.0 
124.095459 316.0 
124.117798 756.0 
124.13694 403.0 
124.149704 519.0 
124.162468 227.0 
124.178429 100.0 
124.194389 91.0 
124.21035 102.0 
124.216728 85.0 
124.242271 81.0 
124.251846 69.0 
124.261429 76.0 
124.27739 67.0 
124.280586 67.0 
124.293358 52.0 
124.302933 78.0 
124.322098 113.0 
124.338066 64.0 
124.354034 105.0 
124.366806 58.0 
124.373199 64.0 
124.389168 59.0 
124.395554 45.0 
124.405136 81.0 
124.417915 117.0 
124.433891 52.0 
124.449867 60.0 
124.453064 60.0 
124.46904 35.0 
124.478622 48.0 
124.491409 37.0 
124.507385 48.0 
124.513779 37.0 
124.529755 42.0 
124.536148 54.0 
124.542542 49.0 
124.548935 50.0 
124.564919 85.0 
124.571312 58.0 
124.580902 88.0 
124.590492 42.0 
124.596886 39.0 
124.603279 59.0 
124.612869 46.0 
124.622467 72.0 
124.632057 44.0 
124.635254 44.0 
124.644844 70.0 
124.667229 46.0 
124.68322 39.0 
124.696014 59.0 
124.718399 76.0 
124.731194 52.0 
124.750389 42.0 
124.763184 63.0 
124.779182 37.0 
124.78878 53.0 
124.807976 47.0 
124.814377 46.0 
124.827179 46.0 
124.839981 45.0 
124.849579 39.0 
124.862381 66.0 
124.868782 49.0 
124.887985 56.0 
124.903992 48.0 
124.913589 56.0 
124.926399 48.0 
124.9328 60.0 
124.942406 42.0 
124.952011 56.0 
124.971214 62.0 
124.977623 65.0 
124.984024 66.0 
125.006439 69.0 
125.022453 462.0 
125.028854 441.0 
125.041672 260.0 
125.060883 2401.0 
125.099327 14080.0 
125.12175 11021.0 
125.182625 354.0 
125.195442 475.0 
125.224289 402.0 
125.237106 140.0 
125.246727 232.0 
125.25634 163.0 
125.272369 167.0 
125.288399 111.0 
125.298019 191.0 
125.317253 147.0 
125.330078 178.0 
125.349319 125.0 
125.368561 159.0 
125.381386 90.0 
125.394218 135.0 
125.41346 93.0 
125.426292 105.0 
125.432701 109.0 
125.445534 78.0 
125.464783 126.0 
125.480827 94.0 
125.487244 76.0 
125.49366 79.0 
125.506493 76.0 
125.519325 124.0 
125.528954 124.0 
125.541794 119.0 
125.551422 113.0 
125.564255 82.0 
125.573883 114.0 
125.586723 85.0 
125.59314 101.0 
125.60598 136.0 
125.622032 133.0 
125.638084 119.0 
125.641296 119.0 
125.647713 94.0 
125.660553 62.0 
125.666977 72.0 
125.676613 84.0 
125.692665 80.0 
125.711929 67.0 
125.724777 84.0 
125.744049 87.0 
125.756897 69.0 
125.769745 95.0 
125.785805 55.0 
125.801865 64.0 
125.814713 59.0 
125.821136 65.0 
125.833992 50.0 
125.840416 45.0 
125.85006 60.0 
125.862907 62.0 
125.875763 36.0 
125.878975 36.0 
125.895042 41.0 
125.907898 50.0 
125.914322 84.0 
125.933609 68.0 
125.943253 72.0 
125.956108 69.0 
125.968964 76.0 
125.99147 103.0 
126.001114 94.0 
126.010757 87.0 
126.020409 125.0 
126.036484 96.0 
126.049347 136.0 
126.05899 154.0 
126.065422 157.0 
126.071854 161.0 
126.081505 135.0 
126.09758 1336.0 
126.107231 1142.0 
126.110451 1142.0 
126.129745 1566.0 
126.142616 257.0 
126.149048 324.0 
126.165131 165.0 
126.174782 105.0 
126.184433 109.0 
126.203743 117.0 
126.216614 71.0 
126.232697 95.0 
126.252007 98.0 
126.268097 114.0 
126.280975 96.0 
126.287415 74.0 
126.297066 135.0 
126.316383 63.0 
126.326035 78.0 
126.338913 41.0 
126.345352 45.0 
126.351791 40.0 
126.36145 50.0 
126.374329 62.0 
126.380768 79.0 
126.387207 43.0 
126.396866 69.0 
126.403305 96.0 
126.412971 87.0 
126.42263 64.0 
126.432289 41.0 
126.438736 28.0 
126.451614 49.0 
126.4645 39.0 
126.483826 58.0 
126.493484 51.0 
126.506371 60.0 
126.516037 51.0 
126.522484 49.0 
126.538589 59.0 
126.541809 59.0 
126.557922 99.0 
126.567589 54.0 
126.580475 59.0 
126.586922 65.0 
126.603035 79.0 
126.619148 61.0 
126.632042 50.0 
126.648155 46.0 
126.667496 54.0 
126.673943 45.0 
126.686836 54.0 
126.69651 32.0 
126.709404 51.0 
126.719078 66.0 
126.738426 55.0 
126.760994 56.0 
126.773895 36.0 
126.780342 36.0 
126.79969 37.0 
126.809372 32.0 
126.819046 44.0 
126.82872 89.0 
126.838394 50.0 
126.841621 50.0 
126.848076 65.0 
126.85775 38.0 
126.864204 41.0 
126.870659 49.0 
126.890015 42.0 
126.899689 34.0 
126.906143 46.0 
126.915825 77.0 
126.928734 54.0 
126.94809 65.0 
126.960999 42.0 
126.967453 37.0 
126.977142 47.0 
126.990051 37.0 
126.999733 44.0 
127.012642 42.0 
127.038467 459.0 
127.044922 385.0 
127.057838 358.0 
127.073982 1007.0 
127.080437 1020.0 
127.090126 448.0 
127.103043 673.0 
127.112724 851.0 
127.128876 282.0 
127.13533 212.0 
127.141792 269.0 
127.154709 152.0 
127.167625 95.0 
127.177315 96.0 
127.187004 69.0 
127.196701 84.0 
127.209618 75.0 
127.222542 54.0 
127.238693 55.0 
127.24839 57.0 
127.254852 71.0 
127.267776 62.0 
127.277466 35.0 
127.29039 89.0 
127.303314 71.0 
127.325935 66.0 
127.335632 64.0 
127.351791 48.0 
127.371193 62.0 
127.384117 35.0 
127.397049 45.0 
127.406746 24.0 
127.419678 46.0 
127.429382 37.0 
127.439079 30.0 
127.452011 50.0 
127.468178 56.0 
127.481117 34.0 
127.487579 39.0 
127.494049 54.0 
127.503754 47.0 
127.513458 46.0 
127.53286 62.0 
127.552269 53.0 
127.558739 50.0 
127.565208 54.0 
127.584618 88.0 
127.604027 78.0 
127.620209 45.0 
127.629913 56.0 
127.636383 54.0 
127.652565 60.0 
127.681694 50.0 
127.688164 44.0 
127.694633 54.0 
127.710815 71.0 
127.733475 69.0 
127.739952 56.0 
127.752899 62.0 
127.765846 80.0 
127.772324 64.0 
127.788513 53.0 
127.798225 83.0 
127.807938 40.0 
127.817657 55.0 
127.837082 43.0 
127.846802 37.0 
127.859749 61.0 
127.875946 38.0 
127.885666 57.0 
127.898621 68.0 
127.918053 49.0 
127.931015 68.0 
127.940727 33.0 
127.947212 59.0 
127.960167 47.0 
127.973129 36.0 
127.979607 44.0 
127.986092 57.0 
127.992569 63.0 
128.012009 50.0 
128.021729 51.0 
128.028214 38.0 
128.037933 174.0 
128.063873 631.0 
128.070343 666.0 
128.093033 651.0 
128.112488 141.0 
128.122223 87.0 
128.135178 95.0 
128.148148 65.0 
128.167603 71.0 
128.183823 75.0 
128.196793 55.0 
128.216248 74.0 
128.232468 35.0 
128.238953 41.0 
128.255173 44.0 
128.261658 48.0 
128.271393 64.0 
128.290848 86.0 
128.307068 71.0 
128.323288 99.0 
128.333023 64.0 
128.346008 65.0 
128.352493 58.0 
128.365479 47.0 
128.381699 67.0 
128.388199 57.0 
128.401169 63.0 
128.414154 54.0 
128.420654 49.0 
128.430389 41.0 
128.436874 49.0 
128.440125 49.0 
128.44986 61.0 
128.459595 33.0 
128.47583 47.0 
128.48233 36.0 
128.505051 96.0 
128.534271 85.0 
128.553757 21.0 
128.560257 30.0 
128.566742 39.0 
128.576492 40.0 
128.595978 49.0 
128.605713 27.0 
128.612213 43.0 
128.621964 37.0 
128.631699 49.0 
128.641449 39.0 
128.6577 65.0 
128.677185 75.0 
128.690186 56.0 
128.696686 52.0 
128.706436 33.0 
128.716171 24.0 
128.725922 23.0 
128.742172 37.0 
128.755173 55.0 
128.761673 42.0 
128.764923 42.0 
128.777924 55.0 
128.800674 59.0 
128.810425 25.0 
128.820175 29.0 
128.829926 56.0 
128.842941 33.0 
128.862442 52.0 
128.872192 33.0 
128.881958 38.0 
128.904709 38.0 
128.914474 43.0 
128.927475 37.0 
128.937241 41.0 
128.943741 35.0 
128.950241 34.0 
128.953491 34.0 
128.963257 38.0 
128.976257 26.0 
128.982773 33.0 
128.989273 42.0 
128.999039 46.0 
129.008789 72.0 
129.021805 187.0 
129.070618 8497.0 
129.096649 5805.0 
129.132446 603.0 
129.151978 303.0 
129.161743 266.0 
129.174759 260.0 
129.19754 240.0 
129.220337 166.0 
129.223587 166.0 
129.233353 121.0 
129.249634 101.0 
129.256149 107.0 
129.26918 112.0 
129.278946 81.0 
129.295227 81.0 
129.304993 55.0 
129.318024 76.0 
129.321289 76.0 
129.34082 88.0 
129.360367 61.0 
129.370148 68.0 
129.389694 53.0 
129.39621 61.0 
129.412491 48.0 
129.422272 56.0 
129.432053 60.0 
129.445084 109.0 
129.46138 70.0 
129.471161 86.0 
129.477676 88.0 
129.490707 50.0 
129.510269 73.0 
129.5233 53.0 
129.536346 82.0 
129.546127 39.0 
129.555893 57.0 
129.568939 58.0 
129.57872 58.0 
129.595016 109.0 
129.601547 45.0 
129.608063 91.0 
129.624374 130.0 
129.627625 130.0 
129.640671 72.0 
129.653717 63.0 
129.663498 82.0 
129.673294 73.0 
129.67981 69.0 
129.696121 43.0 
129.702637 37.0 
129.715698 54.0 
129.728745 45.0 
129.738525 61.0 
129.761368 65.0 
129.767883 69.0 
129.777679 46.0 
129.78746 32.0 
129.793991 47.0 
129.800522 53.0 
129.813568 62.0 
129.823364 69.0 
129.839676 110.0 
129.846207 109.0 
129.856003 69.0 
129.862518 51.0 
129.869049 52.0 
129.87558 82.0 
129.898438 56.0 
129.908218 55.0 
129.918015 36.0 
129.931076 79.0 
129.937607 50.0 
129.944138 68.0 
129.96373 115.0 
129.983322 51.0 
129.996384 101.0 
130.015976 43.0 
130.029037 66.0 
130.051895 445.0 
130.081299 1078.0 
130.100891 891.0 
130.113968 364.0 
130.140106 119.0 
130.156433 77.0 
130.166245 79.0 
130.16951 79.0 
130.176041 70.0 
130.192383 73.0 
130.20546 59.0 
130.218536 24.0 
130.228333 50.0 
130.231613 50.0 
130.251221 55.0 
130.264297 45.0 
130.277374 70.0 
130.28717 55.0 
130.300247 38.0 
130.310059 78.0 
130.332947 63.0 
130.342758 40.0 
130.365646 46.0 
130.372192 36.0 
130.382004 34.0 
130.38855 39.0 
130.404892 46.0 
130.411438 60.0 
130.431061 54.0 
130.440872 51.0 
130.447418 45.0 
130.46051 43.0 
130.463776 43.0 
130.470322 37.0 
130.486679 87.0 
130.493225 54.0 
130.503036 70.0 
130.509583 67.0 
130.522675 70.0 
130.532486 64.0 
130.542297 47.0 
130.548843 52.0 
130.561935 67.0 
130.571762 61.0 
130.597946 54.0 
130.617584 79.0 
130.627396 47.0 
130.643768 67.0 
130.660141 69.0 
130.679779 43.0 
130.689606 38.0 
130.699432 52.0 
130.712524 42.0 
130.725616 41.0 
130.732178 46.0 
130.74527 69.0 
130.761642 60.0 
130.781296 70.0 
130.787842 67.0 
130.797668 43.0 
130.80423 37.0 
130.810776 38.0 
130.814056 38.0 
130.820602 39.0 
130.83371 46.0 
130.850098 66.0 
130.86319 38.0 
130.869751 42.0 
130.876297 67.0 
130.886139 40.0 
130.895966 68.0 
130.909073 49.0 
130.928726 36.0 
130.932007 36.0 
130.938568 35.0 
130.951675 39.0 
130.961502 44.0 
130.968063 39.0 
130.974625 44.0 
130.981171 42.0 
130.987732 46.0 
131.000839 47.0 
131.013962 37.0 
131.03363 637.0 
131.050018 1884.0 
131.08609 13511.0 
131.109039 7306.0 
131.118881 6144.0 
131.145126 856.0 
131.174637 317.0 
131.187759 447.0 
131.214005 275.0 
131.230408 146.0 
131.240265 149.0 
131.250107 145.0 
131.259949 133.0 
131.273071 137.0 
131.279633 121.0 
131.286194 121.0 
131.299332 91.0 
131.305893 117.0 
131.309174 117.0 
131.322296 80.0 
131.328857 85.0 
131.335434 74.0 
131.345276 74.0 
131.358414 110.0 
131.368256 96.0 
131.384674 125.0 
131.404373 113.0 
131.420792 84.0 
131.430634 103.0 
131.443771 54.0 
131.456909 96.0 
131.476608 121.0 
131.493027 149.0 
131.512741 108.0 
131.519302 70.0 
131.52916 102.0 
131.548874 96.0 
131.565292 126.0 
131.581726 112.0 
131.60144 69.0 
131.611298 89.0 
131.634293 74.0 
131.64415 62.0 
131.650726 70.0 
131.66716 100.0 
131.686874 81.0 
131.693451 86.0 
131.703308 81.0 
131.716461 109.0 
131.723038 94.0 
131.732895 98.0 
131.755905 71.0 
131.769058 162.0 
131.785492 100.0 
131.805222 125.0 
131.821671 25.0 
131.831528 49.0 
131.8414 50.0 
131.857849 86.0 
131.877579 81.0 
131.887436 62.0 
131.897308 74.0 
131.907181 69.0 
131.917053 49.0 
131.930206 95.0 
131.949951 51.0 
131.959824 61.0 
131.982849 46.0 
131.989426 57.0 
131.996017 53.0 
132.00589 47.0 
132.019043 71.0 
132.032211 63.0 
132.055252 207.0 
132.061829 164.0 
132.06842 128.0 
132.088165 1438.0 
132.101334 693.0 
132.114502 1224.0 
132.124374 809.0 
132.147415 216.0 
132.177063 59.0 
132.180344 59.0 
132.190231 94.0 
132.196808 78.0 
132.200104 78.0 
132.206696 61.0 
132.219864 94.0 
132.233047 59.0 
132.239624 42.0 
132.252808 36.0 
132.26268 61.0 
132.272568 73.0 
132.27916 58.0 
132.289032 92.0 
132.305511 88.0 
132.321976 119.0 
132.335159 54.0 
132.345047 61.0 
132.354935 56.0 
132.368103 53.0 
132.374695 57.0 
132.387878 79.0 
132.39447 77.0 
132.407654 38.0 
132.417542 58.0 
132.430725 53.0 
132.443909 28.0 
132.457092 54.0 
132.46698 47.0 
132.473572 54.0 
132.493362 78.0 
132.506546 56.0 
132.523026 80.0 
132.536224 44.0 
132.546112 47.0 
132.556 52.0 
132.562607 49.0 
132.579086 24.0 
132.585678 45.0 
132.598877 43.0 
132.608765 46.0 
132.618668 51.0 
132.631866 43.0 
132.64505 52.0 
132.651657 47.0 
132.674744 62.0 
132.687943 45.0 
132.694534 53.0 
132.701141 54.0 
132.711029 45.0 
132.727539 76.0 
132.734131 87.0 
132.757233 55.0 
132.773727 54.0 
132.790237 41.0 
132.796844 34.0 
132.806732 47.0 
132.823242 41.0 
132.829849 52.0 
132.846344 34.0 
132.852951 38.0 
132.859558 39.0 
132.872757 36.0 
132.879364 32.0 
132.892578 99.0 
132.902481 25.0 
132.91568 52.0 
132.93219 67.0 
132.945404 52.0 
132.952011 43.0 
132.965225 60.0 
132.978424 28.0 
132.988342 68.0 
133.011459 57.0 
133.024673 130.0 
133.034592 56.0 
133.064316 6557.0 
133.100662 13321.0 
133.127106 8244.0 
133.193207 439.0 
133.199814 447.0 
133.229568 367.0 
133.252701 170.0 
133.259323 179.0 
133.275848 142.0 
133.285767 166.0 
133.308914 119.0 
133.322144 98.0 
133.332062 145.0 
133.341995 95.0 
133.348602 105.0 
133.358521 82.0 
133.365143 94.0 
133.375061 75.0 
133.384995 92.0 
133.391602 88.0 
133.404831 102.0 
133.414764 97.0 
133.434616 79.0 
133.444534 132.0 
133.464386 111.0 
133.474319 91.0 
133.484238 107.0 
133.494171 105.0 
133.504105 114.0 
133.514023 64.0 
133.523956 102.0 
133.537201 75.0 
133.547119 99.0 
133.570297 90.0 
133.590149 89.0 
133.600082 53.0 
133.610016 104.0 
133.629883 69.0 
133.636505 73.0 
133.643127 54.0 
133.653061 132.0 
133.662994 73.0 
133.672928 105.0 
133.676239 105.0 
133.699417 77.0 
133.706039 86.0 
133.735855 96.0 
133.755722 85.0 
133.765671 42.0 
133.772293 57.0 
133.785538 50.0 
133.788849 50.0 
133.798798 57.0 
133.808731 82.0 
133.831924 74.0 
133.855118 68.0 
133.865067 44.0 
133.878311 62.0 
133.891571 69.0 
133.898209 56.0 
133.908142 109.0 
133.928024 78.0 
133.931351 78.0 
133.937973 61.0 
133.951233 67.0 
133.967804 79.0 
133.974442 87.0 
133.981064 84.0 
133.99765 83.0 
134.000961 83.0 
134.01091 88.0 
134.027481 69.0 
134.070602 712.0 
134.10376 1693.0 
134.126984 1074.0 
134.173416 163.0 
134.193329 95.0 
134.203278 96.0 
134.213242 85.0 
134.236465 89.0 
134.253052 88.0 
134.263016 73.0 
134.276291 71.0 
134.292892 79.0 
134.316116 90.0 
134.336044 64.0 
134.355957 68.0 
134.369232 74.0 
134.382523 150.0 
134.395798 103.0 
134.402435 162.0 
134.415726 69.0 
134.429001 51.0 
134.435638 54.0 
134.445602 44.0 
134.462219 74.0 
134.468857 68.0 
134.478821 44.0 
134.485458 57.0 
134.495422 75.0 
134.502075 71.0 
134.515366 71.0 
134.531967 70.0 
134.545258 35.0 
134.555222 54.0 
134.568512 43.0 
134.585129 56.0 
134.601746 56.0 
134.61171 30.0 
134.625 53.0 
134.631653 42.0 
134.641617 29.0 
134.654907 61.0 
134.668213 60.0 
134.67485 52.0 
134.68483 58.0 
134.701447 56.0 
134.714737 68.0 
134.728043 43.0 
134.741333 68.0 
134.761292 67.0 
134.774582 40.0 
134.791214 53.0 
134.797867 55.0 
134.807846 45.0 
134.821136 83.0 
134.841095 67.0 
134.857727 66.0 
134.877686 53.0 
134.897644 47.0 
134.904297 44.0 
134.917603 50.0 
134.924255 54.0 
134.940887 34.0 
134.94754 47.0 
134.954208 79.0 
134.974167 60.0 
134.994125 168.0 
135.00412 46.0 
135.014099 87.0 
135.044052 1692.0 
135.080673 7874.0 
135.117279 29303.0 
135.140594 17296.0 
135.177216 1971.0 
135.217178 1053.0 
135.247162 821.0 
135.273804 302.0 
135.283798 241.0 
135.290466 213.0 
135.303787 245.0 
135.323776 232.0 
135.343765 254.0 
135.360428 132.0 
135.37709 191.0 
135.397095 235.0 
135.413757 193.0 
135.420425 240.0 
135.433762 169.0 
135.447083 149.0 
135.457092 130.0 
135.467087 129.0 
135.477081 146.0 
135.497086 171.0 
135.51709 134.0 
135.523758 136.0 
135.540436 167.0 
135.557114 115.0 
135.563782 129.0 
135.57045 140.0 
135.573776 140.0 
135.593796 159.0 
135.610474 147.0 
135.627151 128.0 
135.643829 175.0 
135.660507 79.0 
135.677185 120.0 
135.690536 101.0 
135.700546 114.0 
135.710556 165.0 
135.727234 158.0 
135.740585 159.0 
135.757263 136.0 
135.770615 133.0 
135.787308 106.0 
135.803986 126.0 
135.827362 113.0 
135.84404 117.0 
135.860733 63.0 
135.870758 63.0 
135.877426 88.0 
135.890778 58.0 
135.900803 64.0 
135.914154 97.0 
135.927521 95.0 
135.947556 106.0 
135.960907 89.0 
135.964249 89.0 
135.980942 74.0 
136.004333 99.0 
136.017685 48.0 
136.02771 46.0 
136.041077 313.0 
136.051102 292.0 
136.064453 124.0 
136.081161 898.0 
136.11792 3626.0 
136.144653 2413.0 
136.161362 1020.0 
136.17807 383.0 
136.191437 228.0 
136.201477 165.0 
136.221527 162.0 
136.231552 136.0 
136.244934 196.0 
136.254959 148.0 
136.264984 130.0 
136.278366 142.0 
136.295074 81.0 
136.301773 88.0 
136.338547 112.0 
136.351929 98.0 
136.361969 85.0 
136.382034 89.0 
136.408798 58.0 
136.418823 55.0 
136.428864 49.0 
136.438904 66.0 
136.448944 60.0 
136.462326 60.0 
136.472351 70.0 
136.485748 73.0 
136.502472 68.0 
136.519211 76.0 
136.539291 79.0 
136.556015 37.0 
136.566055 70.0 
136.579453 106.0 
136.589493 66.0 
136.596191 78.0 
136.61293 96.0 
136.629669 64.0 
136.646408 97.0 
136.653091 69.0 
136.666489 48.0 
136.676544 83.0 
136.699982 92.0 
136.710022 49.0 
136.720078 70.0 
136.740158 77.0 
136.753555 68.0 
136.760254 60.0 
136.777008 85.0 
136.790405 49.0 
136.797104 51.0 
136.810501 88.0 
136.823914 77.0 
136.844009 91.0 
136.850708 78.0 
136.857407 92.0 
136.867462 70.0 
136.884216 128.0 
136.907684 106.0 
136.917725 69.0 
136.92778 61.0 
136.937836 57.0 
136.94455 59.0 
136.964661 75.0 
136.984772 110.0 
136.994827 65.0 
137.004883 103.0 
137.014938 116.0 
137.018295 116.0 
137.024994 109.0 
137.031708 69.0 
137.058533 5844.0 
137.088699 5089.0 
137.122238 3016.0 
137.132309 2863.0 
137.162491 1516.0 
137.202744 302.0 
137.216171 158.0 
137.226242 196.0 
137.239655 189.0 
137.263138 135.0 
137.283279 73.0 
137.286636 73.0 
137.300064 84.0 
137.313477 116.0 
137.326904 133.0 
137.336975 107.0 
137.343689 173.0 
137.357117 134.0 
137.370544 133.0 
137.400757 92.0 
137.420898 79.0 
137.430969 102.0 
137.441055 102.0 
137.451126 77.0 
137.461197 72.0 
137.474625 81.0 
137.484711 97.0 
137.491425 108.0 
137.508209 78.0 
137.518295 86.0 
137.541809 75.0 
137.561951 91.0 
137.56868 85.0 
137.578751 72.0 
137.58548 69.0 
137.592194 72.0 
137.598907 105.0 
137.619064 62.0 
137.639236 74.0 
137.649307 37.0 
137.666107 88.0 
137.676193 83.0 
137.706436 107.0 
137.726608 98.0 
137.733337 96.0 
137.743423 104.0 
137.75351 74.0 
137.773666 64.0 
137.783752 57.0 
137.797211 55.0 
137.817383 88.0 
137.840912 66.0 
137.844284 66.0 
137.857727 64.0 
137.867828 60.0 
137.881271 46.0 
137.888 80.0 
137.901459 71.0 
137.921631 104.0 
137.931732 50.0 
137.938446 43.0 
137.951904 44.0 
137.965363 43.0 
137.978821 84.0 
137.995651 55.0 
138.009109 94.0 
138.015839 91.0 
138.025925 85.0 
138.032654 90.0 
138.039383 95.0 
138.046112 130.0 
138.059586 539.0 
138.066315 564.0 
138.083145 457.0 
138.096603 672.0 
138.113434 245.0 
138.130264 700.0 
138.150452 222.0 
138.153824 222.0 
138.167297 308.0 
138.197586 119.0 
138.21106 82.0 
138.231262 101.0 
138.248108 46.0 
138.261581 36.0 
138.271683 66.0 
138.281784 45.0 
138.301987 68.0 
138.308731 57.0 
138.325577 49.0 
138.33905 85.0 
138.359253 70.0 
138.372726 57.0 
138.379471 55.0 
138.386215 86.0 
138.40979 76.0 
138.419907 35.0 
138.436752 77.0 
138.453598 81.0 
138.467087 42.0 
138.487305 96.0 
138.504166 73.0 
138.514282 29.0 
138.524384 72.0 
138.547989 46.0 
138.558105 46.0 
138.568222 42.0 
138.581696 99.0 
138.608673 89.0 
138.61879 122.0 
138.628906 71.0 
138.639023 110.0 
138.659256 42.0 
138.679504 48.0 
138.696365 44.0 
138.70311 60.0 
138.716599 60.0 
138.719971 60.0 
138.736847 50.0 
138.746964 39.0 
138.75708 57.0 
138.76384 64.0 
138.777328 51.0 
138.787445 46.0 
138.800949 61.0 
138.811066 53.0 
138.82457 70.0 
138.834702 27.0 
138.838074 27.0 
138.84819 41.0 
138.85495 44.0 
138.878571 34.0 
138.885315 44.0 
138.898819 37.0 
138.908951 61.0 
138.929199 66.0 
138.946091 59.0 
138.959595 52.0 
138.966339 54.0 
138.979843 63.0 
139.003479 34.0 
139.013611 52.0 
139.037262 2350.0 
139.074402 8612.0 
139.104813 6659.0 
139.138596 2082.0 
139.162247 499.0 
139.179138 413.0 
139.202789 258.0 
139.209549 263.0 
139.223068 147.0 
139.23996 182.0 
139.260239 105.0 
139.266998 117.0 
139.287277 99.0 
139.297424 104.0 
139.307571 83.0 
139.321091 101.0 
139.33461 98.0 
139.344757 100.0 
139.351517 90.0 
139.365036 102.0 
139.381943 84.0 
139.388718 62.0 
139.402237 122.0 
139.419144 80.0 
139.429291 51.0 
139.439438 68.0 
139.449585 73.0 
139.459732 66.0 
139.483414 117.0 
139.496933 68.0 
139.510468 91.0 
139.520615 101.0 
139.530777 99.0 
139.540924 69.0 
139.551071 95.0 
139.567993 61.0 
139.574753 62.0 
139.591675 119.0 
139.59845 72.0 
139.615372 81.0 
139.622131 79.0 
139.628906 67.0 
139.639053 72.0 
139.645828 87.0 
139.652588 62.0 
139.66275 72.0 
139.676285 59.0 
139.68306 68.0 
139.686447 68.0 
139.706757 61.0 
139.716904 103.0 
139.730453 88.0 
139.740616 81.0 
139.747375 84.0 
139.757538 64.0 
139.774475 65.0 
139.78801 72.0 
139.801559 64.0 
139.811722 70.0 
139.835434 62.0 
139.845596 57.0 
139.852371 57.0 
139.865906 77.0 
139.88623 86.0 
139.896393 53.0 
139.90657 68.0 
139.913345 65.0 
139.926895 42.0 
139.937057 32.0 
139.940445 32.0 
139.950607 52.0 
139.967545 72.0 
139.987885 81.0 
139.994659 85.0 
140.011597 88.0 
140.031937 161.0 
140.042114 265.0 
140.079391 1045.0 
140.099731 825.0 
140.109909 759.0 
140.126862 268.0 
140.147202 377.0 
140.164154 95.0 
140.174332 129.0 
140.198059 68.0 
140.204849 68.0 
140.215027 87.0 
140.231979 105.0 
140.23877 81.0 
140.245544 69.0 
140.252335 60.0 
140.2659 94.0 
140.27269 95.0 
140.286255 56.0 
140.30661 136.0 
140.320175 67.0 
140.330353 100.0 
140.34053 64.0 
140.357498 49.0 
140.367676 68.0 
140.388046 52.0 
140.405014 68.0 
140.411804 76.0 
140.428772 44.0 
140.43895 56.0 
140.44574 48.0 
140.449127 48.0 
140.469498 95.0 
140.489868 77.0 
140.500061 61.0 
140.513641 82.0 
140.520432 61.0 
140.540802 98.0 
140.547592 49.0 
140.554382 42.0 
140.571365 80.0 
140.588333 46.0 
140.598526 92.0 
140.612106 74.0 
140.632492 89.0 
140.656265 71.0 
140.669861 52.0 
140.676651 55.0 
140.683441 42.0 
140.693634 42.0 
140.70723 56.0 
140.72081 47.0 
140.731003 45.0 
140.744598 58.0 
140.751389 43.0 
140.764984 57.0 
140.775177 61.0 
140.792175 70.0 
140.815964 53.0 
140.826157 30.0 
140.832962 26.0 
140.843155 39.0 
140.84996 44.0 
140.85675 49.0 
140.866943 47.0 
140.873749 43.0 
140.877151 43.0 
140.897552 50.0 
140.904343 59.0 
140.917953 65.0 
140.931549 47.0 
140.938354 47.0 
140.95195 60.0 
140.968948 72.0 
140.989349 46.0 
140.996155 43.0 
141.006363 45.0 
141.019958 37.0 
141.053986 5489.0 
141.070984 4688.0 
141.087997 4726.0 
141.118622 1409.0 
141.125427 1372.0 
141.142441 474.0 
141.156052 498.0 
141.169662 246.0 
141.176468 289.0 
141.190079 230.0 
141.200287 240.0 
141.220703 147.0 
141.234329 102.0 
141.254745 105.0 
141.281982 80.0 
141.295609 75.0 
141.312622 81.0 
141.322845 86.0 
141.34668 64.0 
141.367111 86.0 
141.380722 60.0 
141.390945 59.0 
141.397751 73.0 
141.407974 62.0 
141.431824 90.0 
141.448853 79.0 
141.469284 56.0 
141.479507 54.0 
141.48291 54.0 
141.489731 52.0 
141.499954 83.0 
141.50676 84.0 
141.520386 60.0 
141.530609 45.0 
141.54425 75.0 
141.551056 63.0 
141.564697 58.0 
141.5681 58.0 
141.571503 58.0 
141.585144 74.0 
141.608994 48.0 
141.622635 58.0 
141.636261 74.0 
141.67717 110.0 
141.697632 73.0 
141.711258 50.0 
141.728317 60.0 
141.741959 60.0 
141.748764 87.0 
141.759003 42.0 
141.772644 55.0 
141.782867 64.0 
141.793106 45.0 
141.806747 57.0 
141.813568 51.0 
141.823807 63.0 
141.830627 50.0 
141.837448 72.0 
141.85791 71.0 
141.878387 35.0 
141.892029 35.0 
141.912506 66.0 
141.932968 47.0 
141.939804 53.0 
141.950027 69.0 
141.960266 41.0 
141.973923 60.0 
141.984161 70.0 
141.990982 55.0 
142.004639 55.0 
142.011459 58.0 
142.042191 100.0 
142.055847 655.0 
142.076324 566.0 
142.089981 476.0 
142.10022 537.0 
142.117294 318.0 
142.134369 173.0 
142.151443 115.0 
142.168518 87.0 
142.178757 115.0 
142.185593 70.0 
142.199249 88.0 
142.22316 89.0 
142.243652 54.0 
142.24707 54.0 
142.260742 73.0 
142.267563 77.0 
142.294907 54.0 
142.311981 66.0 
142.332489 62.0 
142.349579 92.0 
142.376907 59.0 
142.380325 59.0 
142.397415 37.0 
142.407669 66.0 
142.421341 56.0 
142.438431 55.0 
142.445267 48.0 
142.455521 63.0 
142.469208 60.0 
142.486298 45.0 
142.499969 63.0 
142.510223 48.0 
142.527328 111.0 
142.534164 86.0 
142.547836 77.0 
142.558105 47.0 
142.571777 60.0 
142.588882 64.0 
142.595718 47.0 
142.605988 53.0 
142.612823 44.0 
142.619659 98.0 
142.629929 78.0 
142.6436 96.0 
142.65387 80.0 
142.660706 80.0 
142.681244 60.0 
142.694916 71.0 
142.712036 59.0 
142.725723 68.0 
142.73941 41.0 
142.746246 41.0 
142.753098 43.0 
142.770203 46.0 
142.78389 34.0 
142.804428 55.0 
142.814697 32.0 
142.842087 69.0 
142.855774 58.0 
142.866043 56.0 
142.879745 69.0 
142.890015 55.0 
142.900284 40.0 
142.910553 46.0 
142.920822 49.0 
142.927673 49.0 
142.937943 24.0 
142.955063 54.0 
142.972183 49.0 
142.982468 54.0 
142.999588 35.0 
143.01329 34.0 
143.02356 23.0 
143.047546 216.0 
143.054398 206.0 
143.085236 8776.0 
143.109207 6315.0 
143.153763 448.0 
143.188034 337.0 
143.198318 197.0 
143.218872 249.0 
143.23259 101.0 
143.236023 101.0 
143.249725 106.0 
143.263443 75.0 
143.277161 61.0 
143.294296 79.0 
143.318298 76.0 
143.321732 76.0 
143.328583 57.0 
143.3423 69.0 
143.349152 81.0 
143.362869 134.0 
143.383453 75.0 
143.400604 89.0 
143.417755 91.0 
143.438324 79.0 
143.44519 83.0 
143.458908 84.0 
143.469208 74.0 
143.476074 75.0 
143.486359 67.0 
143.493225 86.0 
143.500076 74.0 
143.513809 54.0 
143.527527 83.0 
143.548126 75.0 
143.554977 64.0 
143.561844 57.0 
143.56871 59.0 
143.575577 56.0 
143.57901 56.0 
143.58931 49.0 
143.603027 141.0 
143.623627 76.0 
143.633926 116.0 
143.647659 88.0 
143.654526 94.0 
143.661392 100.0 
143.668259 94.0 
143.678558 66.0 
143.685425 59.0 
143.695724 72.0 
143.726624 75.0 
143.73349 64.0 
143.74379 51.0 
143.750656 70.0 
143.757523 60.0 
143.767822 73.0 
143.785004 40.0 
143.795303 42.0 
143.805603 48.0 
143.826218 33.0 
143.846832 49.0 
143.860565 37.0 
143.877747 65.0 
143.884613 29.0 
143.891495 41.0 
143.901794 32.0 
143.915543 62.0 
143.932724 57.0 
143.953339 74.0 
143.97052 47.0 
143.980835 48.0 
143.994583 55.0 
144.004883 37.0 
144.008331 37.0 
144.015198 55.0 
144.028946 56.0 
144.042694 55.0 
144.053009 103.0 
144.083954 568.0 
144.094269 586.0 
144.114899 671.0 
144.128647 245.0 
144.14241 168.0 
144.156158 65.0 
144.173355 59.0 
144.176788 59.0 
144.187103 83.0 
144.200867 53.0 
144.2043 53.0 
144.228378 66.0 
144.242142 44.0 
144.249023 47.0 
144.255905 47.0 
144.26622 72.0 
144.286865 49.0 
144.304062 64.0 
144.314392 53.0 
144.328156 58.0 
144.33847 50.0 
144.345352 95.0 
144.369446 55.0 
144.383209 60.0 
144.396973 66.0 
144.414185 33.0 
144.421066 44.0 
144.431396 36.0 
144.452057 72.0 
144.46582 65.0 
144.472702 38.0 
144.479599 46.0 
144.489929 36.0 
144.500244 86.0 
144.520905 68.0 
144.531235 48.0 
144.555344 64.0 
144.579453 49.0 
144.60701 56.0 
144.613892 43.0 
144.624222 46.0 
144.634552 48.0 
144.651779 25.0 
144.662109 34.0 
144.679337 56.0 
144.686234 45.0 
144.696564 60.0 
144.703461 33.0 
144.72757 81.0 
144.741364 49.0 
144.751694 48.0 
144.758591 42.0 
144.765488 45.0 
144.775818 61.0 
144.782715 92.0 
144.799942 54.0 
144.817184 105.0 
144.83786 35.0 
144.844757 35.0 
144.858536 51.0 
144.865433 50.0 
144.879227 21.0 
144.889572 29.0 
144.893021 29.0 
144.906815 51.0 
144.924042 61.0 
144.941284 66.0 
144.955078 54.0 
144.968872 36.0 
144.979218 42.0 
144.982666 42.0 
144.993011 54.0 
144.999908 71.0 
145.024063 68.0 
145.037857 88.0 
145.065445 3408.0 
145.099945 13504.0 
145.127548 8393.0 
145.168961 787.0 
145.189667 326.0 
145.193115 326.0 
145.206924 431.0 
145.234528 379.0 
145.262146 145.0 
145.279404 138.0 
145.300125 139.0 
145.313934 139.0 
145.320847 120.0 
145.338104 151.0 
145.351913 68.0 
145.369186 114.0 
145.386444 152.0 
145.400269 97.0 
145.414078 106.0 
145.427887 81.0 
145.434799 76.0 
145.44516 88.0 
145.469345 93.0 
145.49353 81.0 
145.500443 81.0 
145.510803 77.0 
145.517715 89.0 
145.53154 132.0 
145.541901 66.0 
145.555725 141.0 
145.566086 57.0 
145.576462 90.0 
145.590286 97.0 
145.600647 82.0 
145.607559 67.0 
145.614471 101.0 
145.624832 49.0 
145.635208 64.0 
145.652496 71.0 
145.666321 97.0 
145.683609 124.0 
145.69397 69.0 
145.704346 85.0 
145.71817 80.0 
145.745834 94.0 
145.759674 47.0 
145.766586 74.0 
145.783875 50.0 
145.801163 78.0 
145.80809 91.0 
145.825378 88.0 
145.842667 94.0 
145.849594 67.0 
145.856506 88.0 
145.877258 73.0 
145.880722 73.0 
145.891098 67.0 
145.894562 67.0 
145.898026 67.0 
145.918777 76.0 
145.92569 86.0 
145.939529 93.0 
145.949921 46.0 
145.960297 91.0 
145.970673 64.0 
145.987976 39.0 
146.001831 53.0 
146.008743 49.0 
146.022598 54.0 
146.036438 78.0 
146.050278 129.0 
146.081436 1923.0 
146.102203 2919.0 
146.122986 1353.0 
146.129898 1190.0 
146.136826 1010.0 
146.157608 325.0 
146.174911 196.0 
146.195694 123.0 
146.213013 103.0 
146.230331 106.0 
146.254578 99.0 
146.271896 81.0 
146.296143 96.0 
146.306534 68.0 
146.313461 73.0 
146.330795 74.0 
146.337723 79.0 
146.348114 73.0 
146.355042 63.0 
146.361969 89.0 
146.368896 88.0 
146.375839 62.0 
146.38623 53.0 
146.400085 76.0 
146.413956 81.0 
146.434753 81.0 
146.455551 65.0 
146.476349 57.0 
146.483276 43.0 
146.50061 64.0 
146.507538 44.0 
146.514481 49.0 
146.521408 68.0 
146.531815 85.0 
146.542206 38.0 
146.545685 38.0 
146.559555 72.0 
146.576889 76.0 
146.583817 45.0 
146.590759 103.0 
146.615036 88.0 
146.621964 61.0 
146.642776 78.0 
146.653183 49.0 
146.660126 92.0 
146.670532 58.0 
146.684402 71.0 
146.691345 81.0 
146.705215 36.0 
146.715622 50.0 
146.732971 56.0 
146.739914 51.0 
146.764206 67.0 
146.778076 39.0 
146.791962 51.0 
146.798904 46.0 
146.812775 49.0 
146.823196 62.0 
146.837082 48.0 
146.847488 52.0 
146.864838 71.0 
146.875259 70.0 
146.889145 61.0 
146.899551 75.0 
146.923859 60.0 
146.934265 68.0 
146.948151 70.0 
146.958572 32.0 
146.965515 38.0 
146.968994 38.0 
146.986359 55.0 
147.010666 46.0 
147.017609 96.0 
147.041916 862.0 
147.048859 899.0 
147.055817 549.0 
147.080124 5610.0 
147.114868 9510.0 
147.142654 5910.0 
147.184357 601.0 
147.2052 323.0 
147.219101 387.0 
147.236481 191.0 
147.25386 290.0 
147.278183 123.0 
147.285141 130.0 
147.302521 99.0 
147.309464 115.0 
147.312943 115.0 
147.319901 120.0 
147.347717 97.0 
147.361618 123.0 
147.372055 117.0 
147.389435 131.0 
147.403351 72.0 
147.420731 114.0 
147.438126 123.0 
147.445068 102.0 
147.455505 102.0 
147.465942 70.0 
147.483337 108.0 
147.50769 76.0 
147.528564 101.0 
147.545959 103.0 
147.566833 130.0 
147.573792 91.0 
147.58075 64.0 
147.594666 142.0 
147.605103 73.0 
147.619019 85.0 
147.629456 95.0 
147.639908 59.0 
147.643387 59.0 
147.653824 111.0 
147.681671 103.0 
147.688629 154.0 
147.709518 78.0 
147.730392 101.0 
147.740845 50.0 
147.754776 77.0 
147.765213 65.0 
147.775665 55.0 
147.789581 125.0 
147.813965 103.0 
147.827896 71.0 
147.841827 66.0 
147.848785 66.0 
147.855759 50.0 
147.866196 69.0 
147.873169 76.0 
147.883621 66.0 
147.897552 78.0 
147.908005 66.0 
147.918442 111.0 
147.928894 65.0 
147.939346 55.0 
147.953278 87.0 
147.970703 72.0 
147.988129 62.0 
148.00206 93.0 
148.016006 94.0 
148.036911 212.0 
148.050842 314.0 
148.071762 563.0 
148.085709 692.0 
148.12056 1532.0 
148.144958 717.0 
148.158905 484.0 
148.172852 223.0 
148.183304 115.0 
148.190277 163.0 
148.207718 93.0 
148.225159 102.0 
148.246078 78.0 
148.256531 58.0 
148.270493 69.0 
148.280945 65.0 
148.287918 63.0 
148.305359 71.0 
148.312347 75.0 
148.319321 79.0 
148.336761 58.0 
148.354202 66.0 
148.375137 55.0 
148.378616 55.0 
148.385605 48.0 
148.399551 62.0 
148.410019 53.0 
148.420486 75.0 
148.444916 65.0 
148.455383 61.0 
148.469345 47.0 
148.479813 51.0 
148.493774 63.0 
148.504242 61.0 
148.514725 53.0 
148.525192 51.0 
148.542648 62.0 
148.553116 43.0 
148.563583 66.0 
148.57756 62.0 
148.591522 52.0 
148.60199 62.0 
148.633423 84.0 
148.654373 108.0 
148.675323 66.0 
148.682312 57.0 
148.689301 91.0 
148.706757 48.0 
148.713745 46.0 
148.720734 44.0 
148.724228 44.0 
148.731216 40.0 
148.745178 48.0 
148.759155 64.0 
148.773132 49.0 
148.783615 52.0 
148.80806 41.0 
148.822037 41.0 
148.836014 36.0 
148.843002 58.0 
148.863968 40.0 
148.870956 28.0 
148.877945 38.0 
148.888443 60.0 
148.898926 40.0 
148.912903 51.0 
148.919891 52.0 
148.944366 57.0 
148.954849 46.0 
148.961838 42.0 
148.975815 49.0 
148.982819 50.0 
148.989807 54.0 
149.007278 64.0 
149.024765 153.0 
149.059738 3069.0 
149.094711 4732.0 
149.126175 5053.0 
149.15416 2643.0 
149.199646 374.0 
149.213638 220.0 
149.227631 250.0 
149.248627 169.0 
149.262619 161.0 
149.283615 112.0 
149.294113 112.0 
149.311615 121.0 
149.318619 124.0 
149.332611 125.0 
149.360611 111.0 
149.367615 108.0 
149.388626 108.0 
149.406128 97.0 
149.42363 100.0 
149.434128 92.0 
149.451645 86.0 
149.465652 48.0 
149.483154 85.0 
149.500671 82.0 
149.511169 59.0 
149.525177 80.0 
149.539185 133.0 
149.556702 109.0 
149.574219 111.0 
149.588226 60.0 
149.59874 84.0 
149.605743 84.0 
149.633774 70.0 
149.647797 84.0 
149.6548 70.0 
149.661804 74.0 
149.689835 77.0 
149.700348 43.0 
149.707352 56.0 
149.714371 53.0 
149.724884 72.0 
149.74942 63.0 
149.756424 54.0 
149.770447 66.0 
149.78447 77.0 
149.794983 107.0 
149.805496 101.0 
149.823029 73.0 
149.837051 62.0 
149.847565 71.0 
149.865097 70.0 
149.886139 73.0 
149.893158 50.0 
149.900162 64.0 
149.91069 81.0 
149.917694 83.0 
149.931732 69.0 
149.952774 70.0 
149.963303 62.0 
149.991364 72.0 
150.012405 53.0 
150.022934 49.0 
150.033447 76.0 
150.040466 65.0 
150.065033 394.0 
150.100113 659.0 
150.128189 713.0 
150.152756 291.0 
150.163284 491.0 
150.173813 254.0 
150.19487 161.0 
150.205414 86.0 
150.212433 97.0 
150.226471 110.0 
150.244019 179.0 
150.265091 157.0 
150.293182 118.0 
150.30722 98.0 
150.328293 78.0 
150.345856 67.0 
150.359894 32.0 
150.370438 73.0 
150.398529 72.0 
150.423126 40.0 
150.43718 53.0 
150.444199 60.0 
150.465286 44.0 
150.475815 80.0 
150.486359 71.0 
150.500412 39.0 
150.507446 96.0 
150.5215 79.0 
150.535553 66.0 
150.546097 68.0 
150.56015 76.0 
150.567184 72.0 
150.581238 49.0 
150.595306 56.0 
150.60936 34.0 
150.616394 31.0 
150.637482 57.0 
150.65506 48.0 
150.669128 72.0 
150.686707 46.0 
150.704285 53.0 
150.711319 40.0 
150.714828 40.0 
150.725388 52.0 
150.732407 41.0 
150.739441 37.0 
150.75351 69.0 
150.764069 47.0 
150.774612 49.0 
150.795715 76.0 
150.823853 111.0 
150.830887 124.0 
150.84848 86.0 
150.866074 92.0 
150.883652 34.0 
150.901245 57.0 
150.915329 40.0 
150.925888 42.0 
150.932922 38.0 
150.946991 63.0 
150.95755 51.0 
150.978668 60.0 
150.989227 35.0 
151.003296 57.0 
151.013855 55.0 
151.038498 1329.0 
151.045547 1240.0 
151.0737 8326.0 
151.108902 16854.0 
151.13707 10497.0 
151.168762 1792.0 
151.218079 651.0 
151.246246 477.0 
151.277954 251.0 
151.288528 187.0 
151.295578 255.0 
151.306137 209.0 
151.313187 262.0 
151.330795 184.0 
151.348419 244.0 
151.362518 103.0 
151.369568 157.0 
151.390701 151.0 
151.401276 105.0 
151.41185 142.0 
151.425949 109.0 
151.436523 129.0 
151.450623 157.0 
151.457672 200.0 
151.471771 127.0 
151.482346 138.0 
151.496445 169.0 
151.510544 160.0 
151.528183 114.0 
151.535233 133.0 
151.545807 70.0 
151.559906 139.0 
151.570496 101.0 
151.58107 64.0 
151.595169 108.0 
151.623383 120.0 
151.644547 105.0 
151.669235 100.0 
151.679825 126.0 
151.690399 84.0 
151.700989 102.0 
151.715103 157.0 
151.732742 134.0 
151.739792 145.0 
151.753906 119.0 
151.771545 140.0 
151.7892 114.0 
151.799774 84.0 
151.810364 115.0 
151.824478 136.0 
151.842133 97.0 
151.856247 70.0 
151.866837 59.0 
151.877426 88.0 
151.888016 96.0 
151.909195 83.0 
151.919785 96.0 
151.933914 76.0 
151.940964 71.0 
151.948029 123.0 
151.965683 71.0 
151.983337 77.0 
152.000992 96.0 
152.015121 75.0 
152.018646 75.0 
152.039841 117.0 
152.05397 293.0 
152.075165 777.0 
152.114014 1857.0 
152.138748 1432.0 
152.170547 339.0 
152.181137 167.0 
152.191742 192.0 
152.209412 179.0 
152.223541 165.0 
152.241211 98.0 
152.251816 100.0 
152.262421 77.0 
152.28363 86.0 
152.311905 69.0 
152.31897 64.0 
152.336639 54.0 
152.354324 77.0 
152.364929 66.0 
152.389679 98.0 
152.403824 84.0 
152.414429 84.0 
152.428574 71.0 
152.435638 83.0 
152.446259 108.0 
152.453323 107.0 
152.471008 74.0 
152.478088 79.0 
152.492233 135.0 
152.506378 93.0 
152.524063 157.0 
152.545288 89.0 
152.555908 67.0 
152.566513 72.0 
152.584198 54.0 
152.598358 74.0 
152.619583 66.0 
152.640823 86.0 
152.651428 64.0 
152.662048 58.0 
152.672668 75.0 
152.690369 58.0 
152.704514 109.0 
152.715134 69.0 
152.722214 63.0 
152.732834 53.0 
152.739914 68.0 
152.746994 87.0 
152.771774 53.0 
152.782394 47.0 
152.789474 67.0 
152.800095 68.0 
152.821335 67.0 
152.82843 80.0 
152.84259 56.0 
152.85321 91.0 
152.863831 58.0 
152.870911 50.0 
152.881546 40.0 
152.892166 66.0 
152.899246 68.0 
152.913422 76.0 
152.934662 49.0 
152.959457 83.0 
152.973633 61.0 
152.984253 56.0 
152.991348 47.0 
153.005508 80.0 
153.051575 1600.0 
153.07283 1671.0 
153.087006 2567.0 
153.115372 2064.0 
153.125992 1460.0 
153.147263 829.0 
153.161438 472.0 
153.196884 176.0 
153.211075 99.0 
153.22879 115.0 
153.235886 122.0 
153.264252 98.0 
153.274887 40.0 
153.285538 65.0 
153.324539 67.0 
153.33873 69.0 
153.345825 67.0 
153.360001 118.0 
153.377747 110.0 
153.388382 87.0 
153.391937 87.0 
153.399033 75.0 
153.409668 83.0 
153.420319 80.0 
153.445145 60.0 
153.45224 61.0 
153.459335 47.0 
153.477081 85.0 
153.494827 67.0 
153.512558 82.0 
153.530304 74.0 
153.537415 52.0 
153.551605 100.0 
153.569351 114.0 
153.590652 96.0 
153.611954 71.0 
153.63324 93.0 
153.64035 93.0 
153.658096 49.0 
153.668747 52.0 
153.682953 43.0 
153.690048 40.0 
153.711365 47.0 
153.725571 64.0 
153.743317 75.0 
153.750427 61.0 
153.757523 70.0 
153.778839 66.0 
153.78949 50.0 
153.814362 53.0 
153.825012 67.0 
153.839218 52.0 
153.849884 76.0 
153.86409 66.0 
153.871201 56.0 
153.881851 60.0 
153.896072 56.0 
153.906723 28.0 
153.917389 71.0 
153.93515 56.0 
153.956482 69.0 
153.974243 82.0 
153.984909 48.0 
153.995575 62.0 
154.020462 52.0 
154.031113 61.0 
154.034668 61.0 
154.048889 157.0 
154.056 131.0 
154.06311 221.0 
154.091553 483.0 
154.11644 314.0 
154.134216 211.0 
154.155563 221.0 
154.169785 42.0 
154.176895 54.0 
154.191116 69.0 
154.216019 41.0 
154.230255 61.0 
154.240921 30.0 
154.248032 37.0 
154.255142 48.0 
154.265823 69.0 
154.272934 76.0 
154.297836 51.0 
154.308517 56.0 
154.326309 76.0 
154.336975 50.0 
154.351212 63.0 
154.358322 74.0 
154.369003 39.0 
154.38324 71.0 
154.39035 59.0 
154.397476 55.0 
154.415268 102.0 
154.440186 46.0 
154.450867 45.0 
154.461548 58.0 
154.475784 38.0 
154.482895 62.0 
154.486465 62.0 
154.500702 47.0 
154.511383 54.0 
154.518494 82.0 
154.532745 41.0 
154.543427 104.0 
154.550552 57.0 
154.564789 37.0 
154.582596 58.0 
154.600403 44.0 
154.611084 34.0 
154.61821 54.0 
154.643143 68.0 
154.66095 71.0 
154.682327 78.0 
154.696564 59.0 
154.710815 109.0 
154.728638 121.0 
154.742889 74.0 
154.753571 90.0 
154.767822 33.0 
154.778519 58.0 
154.79277 31.0 
154.807022 61.0 
154.817719 36.0 
154.83197 66.0 
154.842667 66.0 
154.849792 52.0 
154.867615 57.0 
154.878311 43.0 
154.885437 55.0 
154.896133 43.0 
154.903259 43.0 
154.910385 42.0 
154.924652 50.0 
154.935349 43.0 
154.9496 62.0 
154.956741 37.0 
154.970993 58.0 
154.98526 56.0 
154.995956 39.0 
155.006653 49.0 
155.017349 137.0 
155.042313 500.0 
155.067276 3725.0 
155.085114 6733.0 
155.09581 4841.0 
155.110092 5084.0 
155.145752 764.0 
155.174301 344.0 
155.192139 251.0 
155.19928 211.0 
155.206406 196.0 
155.220688 172.0 
155.245667 135.0 
155.263504 100.0 
155.281357 105.0 
155.288498 70.0 
155.29921 119.0 
155.320618 121.0 
155.327759 89.0 
155.345612 69.0 
155.359879 67.0 
155.377731 107.0 
155.402725 102.0 
155.417007 101.0 
155.424149 94.0 
155.442001 88.0 
155.445572 88.0 
155.46701 77.0 
155.477722 84.0 
155.484863 104.0 
155.492004 89.0 
155.499146 99.0 
155.509857 104.0 
155.517014 90.0 
155.524155 83.0 
155.534866 61.0 
155.545578 100.0 
155.559875 71.0 
155.567017 71.0 
155.581314 44.0 
155.588455 78.0 
155.595596 73.0 
155.602737 64.0 
155.613464 71.0 
155.627762 102.0 
155.652771 93.0 
155.663483 68.0 
155.681351 54.0 
155.688507 58.0 
155.702805 54.0 
155.713516 84.0 
155.731384 68.0 
155.749268 72.0 
155.756409 73.0 
155.767136 61.0 
155.777863 77.0 
155.795731 80.0 
155.802887 65.0 
155.813614 47.0 
155.827911 71.0 
155.831482 71.0 
155.842209 61.0 
155.856522 94.0 
155.877975 69.0 
155.899429 54.0 
155.910156 67.0 
155.93161 84.0 
155.942352 41.0 
155.967392 53.0 
155.981689 43.0 
155.996002 80.0 
156.017471 64.0 
156.024628 63.0 
156.031784 66.0 
156.049667 113.0 
156.060394 143.0 
156.085449 1256.0 
156.096176 854.0 
156.117661 842.0 
156.160599 113.0 
156.174927 104.0 
156.19281 119.0 
156.207138 62.0 
156.214294 64.0 
156.235779 106.0 
156.253677 104.0 
156.26442 58.0 
156.275162 69.0 
156.285904 66.0 
156.307388 103.0 
156.31813 60.0 
156.325287 86.0 
156.336029 106.0 
156.346771 93.0 
156.350357 93.0 
156.357529 99.0 
156.371841 59.0 
156.379013 73.0 
156.389755 51.0 
156.407669 61.0 
156.429153 82.0 
156.439911 43.0 
156.454239 53.0 
156.464981 41.0 
156.472153 36.0 
156.493652 70.0 
156.50798 52.0 
156.515152 59.0 
156.52948 49.0 
156.540237 45.0 
156.55098 66.0 
156.565323 53.0 
156.579651 38.0 
156.586823 43.0 
156.59758 37.0 
156.608322 38.0 
156.615494 40.0 
156.622665 38.0 
156.633423 62.0 
156.662094 71.0 
156.672852 61.0 
156.690781 93.0 
156.712296 54.0 
156.730225 37.0 
156.737396 56.0 
156.748154 81.0 
156.769669 65.0 
156.784012 43.0 
156.794769 47.0 
156.805527 45.0 
156.816284 36.0 
156.827042 50.0 
156.837814 53.0 
156.848572 63.0 
156.862915 64.0 
156.873688 38.0 
156.884445 51.0 
156.891617 67.0 
156.916733 90.0 
156.931076 57.0 
156.94902 63.0 
156.959793 36.0 
156.963379 36.0 
156.988495 60.0 
156.999268 44.0 
157.017212 43.0 
157.024384 57.0 
157.067459 2279.0 
157.099762 10318.0 
157.124893 6813.0 
157.17157 698.0 
157.203888 309.0 
157.211075 323.0 
157.239807 297.0 
157.264954 157.0 
157.275726 126.0 
157.286499 142.0 
157.293686 153.0 
157.311646 118.0 
157.329605 112.0 
157.343979 65.0 
157.351166 97.0 
157.361938 120.0 
157.369125 107.0 
157.376312 110.0 
157.383499 63.0 
157.397873 97.0 
157.408661 63.0 
157.415848 76.0 
157.433807 79.0 
157.451782 80.0 
157.458969 74.0 
157.466156 65.0 
157.473343 66.0 
157.484131 88.0 
157.498505 76.0 
157.505692 67.0 
157.516479 109.0 
157.538055 107.0 
157.552429 111.0 
157.559616 122.0 
157.570404 83.0 
157.577591 94.0 
157.588379 78.0 
157.599167 82.0 
157.617142 76.0 
157.638718 69.0 
157.660309 62.0 
157.681885 73.0 
157.69986 101.0 
157.714249 55.0 
157.725037 78.0 
157.743027 52.0 
157.761017 64.0 
157.768204 66.0 
157.775406 47.0 
157.782608 47.0 
157.793396 94.0 
157.807785 60.0 
157.814987 66.0 
157.825775 76.0 
157.829376 76.0 
157.843765 75.0 
157.854568 98.0 
157.865356 55.0 
157.879761 66.0 
157.890549 64.0 
157.901352 83.0 
157.91214 47.0 
157.922943 63.0 
157.933746 53.0 
157.94455 83.0 
157.958939 67.0 
157.980545 118.0 
157.994934 82.0 
158.020142 73.0 
158.041748 56.0 
158.059753 421.0 
158.077759 325.0 
158.099365 1348.0 
158.110168 917.0 
158.131775 870.0 
158.146179 476.0 
158.1642 201.0 
158.178604 129.0 
158.189407 82.0 
158.203827 125.0 
158.211029 121.0 
158.229034 79.0 
158.243454 114.0 
158.254257 66.0 
158.265076 104.0 
158.286697 82.0 
158.297501 50.0 
158.315521 61.0 
158.322723 61.0 
158.329941 57.0 
158.337143 63.0 
158.347961 61.0 
158.355164 70.0 
158.362381 80.0 
158.376785 80.0 
158.387604 96.0 
158.409241 132.0 
158.430862 82.0 
158.452499 57.0 
158.466919 49.0 
158.492157 74.0 
158.495758 74.0 
158.517395 68.0 
158.546249 60.0 
158.567886 72.0 
158.585922 52.0 
158.600357 61.0 
158.607559 63.0 
158.625595 59.0 
158.643646 34.0 
158.647247 34.0 
158.661682 94.0 
158.679718 81.0 
158.694153 48.0 
158.70137 38.0 
158.715805 49.0 
158.726624 52.0 
158.744675 50.0 
158.751892 58.0 
158.762711 49.0 
158.773544 36.0 
158.787979 44.0 
158.795197 44.0 
158.820465 45.0 
158.827682 38.0 
158.838501 50.0 
158.849335 48.0 
158.867386 56.0 
158.87822 58.0 
158.889053 54.0 
158.899887 65.0 
158.903488 65.0 
158.921539 67.0 
158.932373 36.0 
158.93959 40.0 
158.957657 56.0 
158.968491 48.0 
158.975708 38.0 
158.982925 43.0 
158.993759 57.0 
159.000992 50.0 
159.011826 55.0 
159.08046 3739.0 
159.112976 11340.0 
159.145493 7152.0 
159.185242 700.0 
159.224991 456.0 
159.243057 165.0 
159.253906 368.0 
159.275589 144.0 
159.282822 134.0 
159.290054 177.0 
159.293671 177.0 
159.308121 130.0 
159.315353 142.0 
159.333435 159.0 
159.340668 155.0 
159.355133 89.0 
159.362366 94.0 
159.373199 80.0 
159.387665 75.0 
159.398514 87.0 
159.409363 65.0 
159.416595 90.0 
159.427444 119.0 
159.44191 94.0 
159.452759 136.0 
159.470856 113.0 
159.485321 61.0 
159.49617 139.0 
159.503403 149.0 
159.517868 128.0 
159.535965 94.0 
159.554047 82.0 
159.561279 67.0 
159.572144 78.0 
159.590225 78.0 
159.601089 75.0 
159.608322 58.0 
159.615555 56.0 
159.626419 51.0 
159.633652 54.0 
159.648132 53.0 
159.655365 74.0 
159.662598 83.0 
159.673462 59.0 
159.687943 112.0 
159.698792 102.0 
159.709656 155.0 
159.731369 120.0 
159.74585 76.0 
159.756714 47.0 
159.771194 120.0 
159.792923 87.0 
159.81102 104.0 
159.836365 104.0 
159.839996 104.0 
159.858093 109.0 
159.872589 80.0 
159.883453 57.0 
159.894318 141.0 
159.901566 178.0 
159.92691 106.0 
159.937775 105.0 
159.955887 70.0 
159.966751 64.0 
159.988495 48.0 
160.002991 73.0 
160.024719 122.0 
160.039215 76.0 
160.053711 89.0 
160.071823 428.0 
160.082703 631.0 
160.089951 442.0 
160.118942 2130.0 
160.144318 1216.0 
160.155182 1001.0 
160.180557 218.0 
160.198685 142.0 
160.220444 131.0 
160.231323 132.0 
160.242188 65.0 
160.256699 75.0 
160.267578 72.0 
160.278458 66.0 
160.292953 110.0 
160.318344 97.0 
160.336472 103.0 
160.358231 98.0 
160.380005 86.0 
160.401764 67.0 
160.416275 46.0 
160.427155 75.0 
160.441666 38.0 
160.456177 41.0 
160.459808 41.0 
160.467072 48.0 
160.474319 50.0 
160.488831 44.0 
160.496094 33.0 
160.506973 66.0 
160.525116 65.0 
160.528748 65.0 
160.539642 40.0 
160.54689 44.0 
160.554153 42.0 
160.565048 85.0 
160.594086 67.0 
160.608597 53.0 
160.61586 64.0 
160.626755 44.0 
160.637634 49.0 
160.655792 33.0 
160.663055 48.0 
160.677567 49.0 
160.688461 60.0 
160.699356 45.0 
160.713882 74.0 
160.721146 56.0 
160.73204 51.0 
160.750198 68.0 
160.771988 39.0 
160.77562 39.0 
160.790146 77.0 
160.804672 83.0 
160.82283 110.0 
160.85553 96.0 
160.877319 74.0 
160.895477 77.0 
160.906387 54.0 
160.917282 64.0 
160.928177 54.0 
160.942719 41.0 
160.94635 41.0 
160.953613 49.0 
160.971786 35.0 
160.97905 39.0 
160.98996 33.0 
161.004501 38.0 
161.008133 38.0 
161.019028 96.0 
161.026306 76.0 
161.059021 2839.0 
161.091736 3970.0 
161.131729 22022.0 
161.160812 13800.0 
161.193542 1905.0 
161.240814 775.0 
161.269913 538.0 
161.291733 289.0 
161.313568 237.0 
161.331757 173.0 
161.346298 192.0 
161.368134 130.0 
161.379044 191.0 
161.389969 104.0 
161.400879 130.0 
161.415436 137.0 
161.422714 117.0 
161.437271 123.0 
161.45546 147.0 
161.462738 115.0 
161.47731 135.0 
161.499146 165.0 
161.520981 169.0 
161.539185 138.0 
161.553741 151.0 
161.568314 129.0 
161.586517 148.0 
161.597427 115.0 
161.630203 96.0 
161.637482 104.0 
161.648407 88.0 
161.659332 103.0 
161.677551 85.0 
161.68483 108.0 
161.692108 109.0 
161.70668 130.0 
161.724899 176.0 
161.743103 185.0 
161.754028 104.0 
161.764969 173.0 
161.779541 91.0 
161.786819 81.0 
161.801392 89.0 
161.812332 94.0 
161.819611 88.0 
161.830536 96.0 
161.845123 133.0 
161.856049 99.0 
161.866974 90.0 
161.877914 105.0 
161.907074 119.0 
161.932587 81.0 
161.939865 123.0 
161.950806 75.0 
161.961746 65.0 
161.969025 71.0 
161.976318 88.0 
161.994553 89.0 
162.016418 141.0 
162.041946 189.0 
162.060181 685.0 
162.096634 718.0 
162.111221 488.0 
162.133102 2970.0 
162.162277 2227.0 
162.198761 248.0 
162.213348 207.0 
162.242538 193.0 
162.257126 148.0 
162.26442 114.0 
162.275375 173.0 
162.282669 131.0 
162.308212 115.0 
162.319153 119.0 
162.333755 112.0 
162.348358 129.0 
162.359299 98.0 
162.373901 66.0 
162.388504 89.0 
162.395798 59.0 
162.399445 59.0 
162.414047 104.0 
162.421356 99.0 
162.435944 69.0 
162.446899 65.0 
162.457855 54.0 
162.468811 65.0 
162.479767 82.0 
162.490707 87.0 
162.50531 109.0 
162.527222 95.0 
162.541824 50.0 
162.556442 79.0 
162.571045 51.0 
162.578354 86.0 
162.58931 68.0 
162.607574 89.0 
162.629486 52.0 
162.636795 45.0 
162.647751 47.0 
162.658707 68.0 
162.673309 115.0 
162.680618 78.0 
162.687927 90.0 
162.706192 143.0 
162.713501 113.0 
162.724472 83.0 
162.742737 119.0 
162.764664 70.0 
162.771973 61.0 
162.782928 82.0 
162.793884 98.0 
162.808517 121.0 
162.823135 85.0 
162.830444 104.0 
162.8414 75.0 
162.85968 113.0 
162.881607 107.0 
162.899887 98.0 
162.910858 66.0 
162.918167 55.0 
162.925476 51.0 
162.936447 64.0 
162.943756 74.0 
162.962036 42.0 
162.96936 53.0 
162.976669 47.0 
162.98764 46.0 
162.994949 39.0 
163.009583 72.0 
163.038834 836.0 
163.071747 6280.0 
163.104675 5617.0 
163.141251 3420.0 
163.166855 1409.0 
163.174179 1478.0 
163.181488 1387.0 
163.218079 350.0 
163.251022 197.0 
163.261993 171.0 
163.269318 145.0 
163.283951 142.0 
163.302261 138.0 
163.324219 82.0 
163.335205 102.0 
163.349838 89.0 
163.360825 106.0 
163.382797 111.0 
163.390121 116.0 
163.39743 93.0 
163.404755 96.0 
163.426727 115.0 
163.445038 96.0 
163.46701 77.0 
163.481659 95.0 
163.492645 122.0 
163.503632 77.0 
163.51828 93.0 
163.529266 140.0 
163.540253 83.0 
163.547577 75.0 
163.562241 140.0 
163.584213 81.0 
163.609863 100.0 
163.617188 84.0 
163.628174 109.0 
163.635498 93.0 
163.653824 109.0 
163.66481 100.0 
163.686798 129.0 
163.701462 55.0 
163.712448 75.0 
163.727112 77.0 
163.745438 80.0 
163.756439 76.0 
163.767426 57.0 
163.778427 81.0 
163.782089 81.0 
163.804092 79.0 
163.811417 61.0 
163.83342 82.0 
163.844406 76.0 
163.855408 149.0 
163.873749 82.0 
163.881073 90.0 
163.895737 57.0 
163.906738 99.0 
163.91774 55.0 
163.936081 60.0 
163.94342 56.0 
163.954422 84.0 
163.969086 58.0 
163.976425 94.0 
163.998428 64.0 
164.00943 52.0 
164.016769 45.0 
164.027771 65.0 
164.038788 94.0 
164.046112 90.0 
164.082809 937.0 
164.090149 1060.0 
164.097473 1008.0 
164.115829 1179.0 
164.134171 703.0 
164.14151 620.0 
164.148849 607.0 
164.159866 351.0 
164.167206 321.0 
164.181885 360.0 
164.192886 178.0 
164.211243 122.0 
164.218582 107.0 
164.22226 107.0 
164.233261 150.0 
164.258957 83.0 
164.28833 72.0 
164.299347 41.0 
164.310349 54.0 
164.325043 53.0 
164.33606 42.0 
164.343399 47.0 
164.350739 60.0 
164.365433 61.0 
164.372772 57.0 
164.383789 64.0 
164.394806 71.0 
164.405823 69.0 
164.41684 92.0 
164.427856 106.0 
164.446228 103.0 
164.460922 84.0 
164.468262 82.0 
164.479279 55.0 
164.490311 62.0 
164.505005 54.0 
164.523361 61.0 
164.541733 116.0 
164.556442 83.0 
164.563782 96.0 
164.578476 137.0 
164.589508 56.0 
164.604202 90.0 
164.618896 58.0 
164.633606 100.0 
164.651978 89.0 
164.674026 92.0 
164.685059 84.0 
164.699753 65.0 
164.710785 48.0 
164.732849 97.0 
164.743866 63.0 
164.751221 85.0 
164.769608 54.0 
164.776962 50.0 
164.787994 49.0 
164.795349 43.0 
164.806381 61.0 
164.832108 56.0 
164.85051 174.0 
164.865219 91.0 
164.876251 80.0 
164.887283 105.0 
164.90567 38.0 
164.916702 49.0 
164.927734 44.0 
164.938766 44.0 
164.942459 44.0 
164.960846 66.0 
164.968201 65.0 
164.979233 126.0 
164.993958 79.0 
165.001312 103.0 
165.008667 102.0 
165.052826 1977.0 
165.063858 1537.0 
165.08963 7569.0 
165.119064 4925.0 
165.155869 847.0 
165.196365 391.0 
165.229507 286.0 
165.270004 166.0 
165.273682 166.0 
165.295776 126.0 
165.303146 111.0 
165.321548 75.0 
165.336288 118.0 
165.362061 103.0 
165.376801 188.0 
165.384171 91.0 
165.395218 132.0 
165.413635 160.0 
165.435745 75.0 
165.446793 78.0 
165.45047 78.0 
165.45784 112.0 
165.476273 56.0 
165.483643 56.0 
165.50206 54.0 
165.50943 55.0 
165.5168 64.0 
165.527847 53.0 
165.542587 77.0 
165.56102 102.0 
165.58313 84.0 
165.5905 69.0 
165.601562 63.0 
165.619995 88.0 
165.649475 89.0 
165.66423 47.0 
165.675293 69.0 
165.68634 69.0 
165.701096 35.0 
165.708466 39.0 
165.723221 64.0 
165.730591 64.0 
165.745346 64.0 
165.752716 67.0 
165.756409 67.0 
165.763779 77.0 
165.778534 54.0 
165.789597 63.0 
165.800659 84.0 
165.83017 58.0 
165.83754 74.0 
165.852295 59.0 
165.86705 57.0 
165.878113 66.0 
165.892868 54.0 
165.907623 61.0 
165.911316 61.0 
165.933456 59.0 
165.948212 67.0 
165.955597 44.0 
165.974045 55.0 
165.9888 45.0 
165.999878 66.0 
166.007248 40.0 
166.025711 88.0 
166.044159 133.0 
166.055237 274.0 
166.08107 532.0 
166.09584 755.0 
166.121674 600.0 
166.151215 282.0 
166.177048 95.0 
166.199203 93.0 
166.210281 66.0 
166.221359 65.0 
166.232437 81.0 
166.254593 117.0 
166.265686 49.0 
166.280457 74.0 
166.29892 37.0 
166.306305 27.0 
166.321075 55.0 
166.332169 57.0 
166.346939 130.0 
166.365417 90.0 
166.391266 62.0 
166.406052 78.0 
166.41713 56.0 
166.428223 45.0 
166.446701 65.0 
166.454086 56.0 
166.461472 47.0 
166.472565 66.0 
166.502136 58.0 
166.509521 47.0 
166.520615 57.0 
166.539093 31.0 
166.542786 31.0 
166.561264 63.0 
166.57605 50.0 
166.579758 50.0 
166.590836 41.0 
166.598236 48.0 
166.605637 69.0 
166.627808 43.0 
166.642609 47.0 
166.649994 62.0 
166.664795 98.0 
166.675888 44.0 
166.686981 68.0 
166.690674 68.0 
166.698074 65.0 
166.71286 61.0 
166.720261 48.0 
166.735046 76.0 
166.74614 74.0 
166.75354 67.0 
166.768341 59.0 
166.779434 64.0 
166.786835 68.0 
166.794235 87.0 
166.812729 60.0 
166.820129 56.0 
166.831223 121.0 
166.853424 54.0 
166.857117 54.0 
166.864517 61.0 
166.875626 43.0 
166.886719 33.0 
166.90892 46.0 
166.927429 37.0 
166.949631 52.0 
166.960739 50.0 
166.96814 58.0 
166.979233 75.0 
166.982941 75.0 
166.997742 62.0 
167.005142 98.0 
167.012543 88.0 
167.027359 192.0 
167.038467 139.0 
167.068069 9103.0 
167.079178 7384.0 
167.101395 7937.0 
167.179153 555.0 
167.201385 267.0 
167.208786 367.0 
167.22731 298.0 
167.245819 236.0 
167.264343 206.0 
167.27916 147.0 
167.297684 89.0 
167.3125 81.0 
167.319916 83.0 
167.331039 109.0 
167.353256 135.0 
167.360672 161.0 
167.375488 93.0 
167.382904 93.0 
167.401428 138.0 
167.41626 72.0 
167.434784 120.0 
167.457031 91.0 
167.46814 103.0 
167.475555 170.0 
167.497803 115.0 
167.516342 120.0 
167.538574 73.0 
167.553406 82.0 
167.571945 122.0 
167.594193 90.0 
167.601608 86.0 
167.620148 85.0 
167.638687 138.0 
167.649811 98.0 
167.657242 111.0 
167.668365 141.0 
167.690613 108.0 
167.705444 109.0 
167.720291 95.0 
167.727707 136.0 
167.738831 97.0 
167.753677 68.0 
167.761093 108.0 
167.772217 108.0 
167.77594 108.0 
167.787064 65.0 
167.794479 74.0 
167.82045 98.0 
167.827881 72.0 
167.842712 78.0 
167.857559 62.0 
167.872406 83.0 
167.894669 47.0 
167.909515 76.0 
167.920654 64.0 
167.939209 79.0 
167.968903 47.0 
167.976334 54.0 
167.987473 49.0 
168.00975 57.0 
168.024597 89.0 
168.039444 133.0 
168.06543 1238.0 
168.087723 1060.0 
168.098862 1085.0 
168.110001 1092.0 
168.132278 553.0 
168.150848 119.0 
168.161987 151.0 
168.180557 126.0 
168.195419 94.0 
168.20285 96.0 
168.213989 77.0 
168.225143 69.0 
168.240005 52.0 
168.251144 43.0 
168.258575 64.0 
168.26973 54.0 
168.273438 54.0 
168.284576 65.0 
168.292023 51.0 
168.299454 55.0 
168.310593 73.0 
168.332886 73.0 
168.351471 64.0 
168.366333 51.0 
168.377487 55.0 
168.384918 82.0 
168.407227 91.0 
168.418365 67.0 
168.42952 62.0 
168.440674 41.0 
168.451828 58.0 
168.477844 67.0 
168.496445 71.0 
168.511307 42.0 
168.522461 44.0 
168.533615 78.0 
168.544769 61.0 
168.559647 46.0 
168.567093 54.0 
168.570801 54.0 
168.589401 40.0 
168.604279 66.0 
168.615433 66.0 
168.63031 98.0 
168.645187 54.0 
168.652634 94.0 
168.667511 44.0 
168.671234 44.0 
168.678665 56.0 
168.689835 70.0 
168.693542 70.0 
168.704712 42.0 
168.712143 39.0 
168.727036 99.0 
168.73819 54.0 
168.749359 61.0 
168.760513 78.0 
168.779114 78.0 
168.797729 68.0 
168.808884 54.0 
168.81633 49.0 
168.831223 67.0 
168.838669 58.0 
168.853546 73.0 
168.875885 59.0 
168.887054 46.0 
168.890778 46.0 
168.905655 80.0 
168.913101 50.0 
168.920547 51.0 
168.939163 77.0 
168.961502 77.0 
168.968948 66.0 
168.983841 49.0 
168.998734 67.0 
169.021072 37.0 
169.043411 421.0 
169.058319 1055.0 
169.099289 8108.0 
169.125351 6427.0 
169.203583 336.0 
169.211044 305.0 
169.225937 232.0 
169.240845 235.0 
169.259476 133.0 
169.266937 125.0 
169.274384 117.0 
169.293015 132.0 
169.300476 88.0 
169.307922 77.0 
169.315384 87.0 
169.326553 107.0 
169.3452 126.0 
169.360107 110.0 
169.367554 119.0 
169.378738 106.0 
169.393646 129.0 
169.404831 126.0 
169.416016 106.0 
169.442123 119.0 
169.44957 79.0 
169.460754 108.0 
169.471939 146.0 
169.486862 83.0 
169.509232 166.0 
169.535339 87.0 
169.550262 75.0 
169.557724 59.0 
169.56517 68.0 
169.572632 70.0 
169.583832 59.0 
169.595016 71.0 
169.617401 95.0 
169.628586 103.0 
169.647232 112.0 
169.662155 97.0 
169.68454 110.0 
169.710663 73.0 
169.718124 47.0 
169.733047 90.0 
169.744247 62.0 
169.751709 83.0 
169.766647 96.0 
169.777832 85.0 
169.785294 73.0 
169.79277 79.0 
169.807693 83.0 
169.826355 82.0 
169.833817 83.0 
169.848755 79.0 
169.859955 52.0 
169.871155 78.0 
169.897278 89.0 
169.912216 51.0 
169.930878 45.0 
169.949554 68.0 
169.971954 72.0 
169.998093 67.0 
170.009308 45.0 
170.039185 82.0 
170.065323 260.0 
170.0728 101.0 
170.095215 762.0 
170.102676 890.0 
170.110153 969.0 
170.12883 902.0 
170.151245 294.0 
170.169922 166.0 
170.181137 137.0 
170.188614 122.0 
170.207291 102.0 
170.214767 101.0 
170.225983 58.0 
170.237183 75.0 
170.248398 60.0 
170.255875 56.0 
170.278305 52.0 
170.285767 46.0 
170.293243 36.0 
170.304459 49.0 
170.319412 41.0 
170.338104 63.0 
170.345581 70.0 
170.364273 35.0 
170.37175 61.0 
170.386703 52.0 
170.397919 57.0 
170.405396 73.0 
170.420349 78.0 
170.442795 77.0 
170.461487 75.0 
170.468964 61.0 
170.483932 60.0 
170.495148 54.0 
170.502625 91.0 
170.51384 55.0 
170.521332 104.0 
170.540024 58.0 
170.558731 75.0 
170.573685 53.0 
170.581177 26.0 
170.592392 41.0 
170.607361 62.0 
170.618591 43.0 
170.626068 66.0 
170.644775 74.0 
170.656006 62.0 
170.663483 96.0 
170.674713 61.0 
170.68219 65.0 
170.697159 72.0 
170.704651 61.0 
170.71962 76.0 
170.730835 53.0 
170.742065 92.0 
170.757034 81.0 
170.798218 80.0 
170.805695 64.0 
170.813187 68.0 
170.824417 73.0 
170.839386 117.0 
170.865601 113.0 
170.876831 49.0 
170.888062 68.0 
170.903046 46.0 
170.914276 42.0 
170.929245 93.0 
170.940491 53.0 
170.951721 68.0 
170.966705 61.0 
170.974197 55.0 
170.977936 55.0 
170.985428 55.0 
171.007904 53.0 
171.015396 41.0 
171.037857 126.0 
171.052841 243.0 
171.082825 3190.0 
171.116531 10459.0 
171.142761 7320.0 
171.18399 741.0 
171.21022 349.0 
171.228958 480.0 
171.258942 286.0 
171.285187 175.0 
171.303925 137.0 
171.318924 136.0 
171.337662 131.0 
171.352661 123.0 
171.360153 118.0 
171.38266 106.0 
171.390152 108.0 
171.397659 131.0 
171.423904 97.0 
171.438904 110.0 
171.457657 134.0 
171.480164 157.0 
171.498917 117.0 
171.513916 86.0 
171.525177 70.0 
171.536423 71.0 
171.551437 43.0 
171.566437 77.0 
171.57019 77.0 
171.577698 58.0 
171.581451 58.0 
171.596451 79.0 
171.618973 67.0 
171.630219 51.0 
171.637726 88.0 
171.667755 88.0 
171.675262 87.0 
171.679001 87.0 
171.690262 75.0 
171.697769 64.0 
171.70903 72.0 
171.716537 68.0 
171.724045 55.0 
171.739059 58.0 
171.742813 58.0 
171.757828 69.0 
171.769089 72.0 
171.784103 90.0 
171.795364 85.0 
171.806625 75.0 
171.817886 117.0 
171.840424 105.0 
171.855438 138.0 
171.877975 160.0 
171.889236 65.0 
171.900497 91.0 
171.938049 98.0 
171.960587 102.0 
171.983124 67.0 
172.009415 145.0 
172.031967 111.0 
172.043228 89.0 
172.050751 91.0 
172.065765 206.0 
172.084564 728.0 
172.114624 1420.0 
172.125885 1446.0 
172.144684 1121.0 
172.174744 216.0 
172.182266 193.0 
172.193542 168.0 
172.223602 146.0 
172.246155 97.0 
172.2612 103.0 
172.287521 101.0 
172.302551 70.0 
172.32135 76.0 
172.328873 88.0 
172.343918 67.0 
172.358948 65.0 
172.362717 65.0 
172.370239 55.0 
172.385269 58.0 
172.396561 58.0 
172.407837 72.0 
172.422882 51.0 
172.434174 98.0 
172.441696 107.0 
172.449219 103.0 
172.468018 84.0 
172.486832 89.0 
172.509399 72.0 
172.516922 77.0 
172.528214 58.0 
172.547012 75.0 
172.558304 47.0 
172.569595 56.0 
172.584641 66.0 
172.603455 40.0 
172.610992 30.0 
172.622269 56.0 
172.641098 71.0 
172.648621 76.0 
172.674957 73.0 
172.686249 82.0 
172.705078 59.0 
172.71637 50.0 
172.727661 52.0 
172.73143 52.0 
172.742722 43.0 
172.754013 56.0 
172.765305 57.0 
172.780365 67.0 
172.791656 33.0 
172.806717 101.0 
172.821777 91.0 
172.829315 55.0 
172.844376 77.0 
172.855667 99.0 
172.874496 75.0 
172.893326 118.0 
172.912155 52.0 
172.923462 74.0 
172.94606 60.0 
172.957367 64.0 
172.96489 97.0 
172.979965 69.0 
172.991257 125.0 
173.01387 78.0 
173.021408 108.0 
173.025177 108.0 
173.055313 1450.0 
173.070389 1060.0 
173.092987 5695.0 
173.130676 9123.0 
173.157059 4871.0 
173.198517 599.0 
173.206055 581.0 
173.224915 289.0 
173.232452 263.0 
173.243759 321.0 
173.258835 169.0 
173.277695 267.0 
173.304077 197.0 
173.326706 137.0 
173.364426 102.0 
173.379501 99.0 
173.387039 77.0 
173.398361 113.0 
173.42099 148.0 
173.428543 109.0 
173.43985 118.0 
173.447403 128.0 
173.45871 117.0 
173.470032 154.0 
173.500214 110.0 
173.511536 81.0 
173.522842 73.0 
173.537933 103.0 
173.55304 201.0 
173.56813 123.0 
173.575668 112.0 
173.590775 156.0 
173.613419 131.0 
173.617188 131.0 
173.624741 116.0 
173.651154 148.0 
173.662476 107.0 
173.673798 83.0 
173.68512 140.0 
173.700226 75.0 
173.707779 83.0 
173.734192 115.0 
173.741745 88.0 
173.753082 109.0 
173.768173 80.0 
173.77951 113.0 
173.790833 82.0 
173.817261 111.0 
173.828598 66.0 
173.847473 81.0 
173.855026 80.0 
173.889023 98.0 
173.904129 83.0 
173.919235 85.0 
173.926788 125.0 
173.934341 104.0 
173.94191 68.0 
173.953232 132.0 
173.968353 106.0 
173.991013 67.0 
173.998566 67.0 
174.013687 122.0 
174.028793 97.0 
174.059021 276.0 
174.066589 284.0 
174.093033 1248.0 
174.111938 591.0 
174.134613 1631.0 
174.161072 773.0 
174.183746 309.0 
174.195084 111.0 
174.210205 144.0 
174.217773 123.0 
174.236679 122.0 
174.240463 122.0 
174.255585 80.0 
174.266922 70.0 
174.278259 88.0 
174.308517 111.0 
174.331207 81.0 
174.353897 139.0 
174.376587 72.0 
174.387939 52.0 
174.403061 69.0 
174.414413 62.0 
174.433334 76.0 
174.440903 68.0 
174.444672 68.0 
174.463593 66.0 
174.474945 54.0 
174.493866 70.0 
174.508987 32.0 
174.52034 42.0 
174.527908 59.0 
174.543045 45.0 
174.554398 68.0 
174.573318 47.0 
174.588455 66.0 
174.61496 94.0 
174.626312 44.0 
174.641449 78.0 
174.652802 67.0 
174.675522 102.0 
174.690659 76.0 
174.702011 42.0 
174.713379 69.0 
174.724731 65.0 
174.739883 53.0 
174.747452 49.0 
174.75502 51.0 
174.773956 62.0 
174.781525 51.0 
174.789108 57.0 
174.804245 68.0 
174.815613 50.0 
174.830765 76.0 
174.842117 65.0 
174.853485 72.0 
174.87999 83.0 
174.895142 91.0 
174.906509 64.0 
174.917877 63.0 
174.933029 54.0 
174.948181 68.0 
174.978485 67.0 
175.012589 64.0 
175.016373 64.0 
175.03154 357.0 
175.050476 650.0 
175.073227 5238.0 
175.103546 5958.0 
175.141449 5820.0 
175.149033 5385.0 
175.175568 4023.0 
175.224854 457.0 
175.251389 273.0 
175.262756 243.0 
175.293106 199.0 
175.312057 129.0 
175.327225 86.0 
175.342407 84.0 
175.353775 116.0 
175.365158 75.0 
175.376541 93.0 
175.391708 121.0 
175.399292 135.0 
175.414474 125.0 
175.437225 148.0 
175.463791 112.0 
175.471375 73.0 
175.486557 108.0 
175.509323 101.0 
175.52829 60.0 
175.539673 50.0 
175.547272 83.0 
175.551056 83.0 
175.573837 112.0 
175.58902 72.0 
175.600403 105.0 
175.611786 140.0 
175.626968 103.0 
175.64975 79.0 
175.661133 103.0 
175.680115 66.0 
175.687714 85.0 
175.702896 78.0 
175.721878 69.0 
175.748459 173.0 
175.763641 88.0 
175.77504 84.0 
175.794022 137.0 
175.828201 88.0 
175.843399 60.0 
175.862396 84.0 
175.877579 87.0 
175.888977 69.0 
175.892776 69.0 
175.904175 94.0 
175.923172 77.0 
175.942169 77.0 
175.957367 77.0 
175.968765 55.0 
175.991562 110.0 
176.014359 85.0 
176.025757 88.0 
176.044754 262.0 
176.075165 1166.0 
176.101761 740.0 
176.113174 702.0 
176.151184 923.0 
176.162582 439.0 
176.177795 760.0 
176.21582 154.0 
176.231018 109.0 
176.242432 79.0 
176.257645 110.0 
176.265244 94.0 
176.280457 74.0 
176.29567 106.0 
176.310883 63.0 
176.333694 50.0 
176.345108 75.0 
176.386948 56.0 
176.402161 64.0 
176.417389 54.0 
176.432602 85.0 
176.45163 91.0 
176.474457 85.0 
176.48587 58.0 
176.493484 64.0 
176.512512 70.0 
176.535339 33.0 
176.550568 95.0 
176.569595 46.0 
176.577209 54.0 
176.584808 43.0 
176.603851 41.0 
176.615265 58.0 
176.626678 70.0 
176.664749 82.0 
176.683792 124.0 
176.70282 105.0 
176.725677 101.0 
176.740906 66.0 
176.752319 68.0 
176.759933 63.0 
176.763748 63.0 
176.782791 61.0 
176.809448 40.0 
176.824677 39.0 
176.832306 35.0 
176.83992 43.0 
176.851349 36.0 
176.858963 52.0 
176.866577 60.0 
176.874207 51.0 
176.881821 40.0 
176.885635 40.0 
176.897049 52.0 
176.908478 56.0 
176.919922 53.0 
176.931351 70.0 
176.946579 72.0 
176.958008 40.0 
176.969437 50.0 
176.988495 72.0 
177.003738 48.0 
177.022797 76.0 
177.049469 714.0 
177.057098 743.0 
177.087585 2846.0 
177.129517 4673.0 
177.15239 3308.0 
177.194321 609.0 
177.213379 298.0 
177.240082 250.0 
177.274399 160.0 
177.301102 92.0 
177.323975 76.0 
177.346863 111.0 
177.358307 67.0 
177.381195 108.0 
177.407898 106.0 
177.430786 55.0 
177.446045 130.0 
177.465134 100.0 
177.488022 119.0 
177.499466 82.0 
177.518555 81.0 
177.533813 70.0 
177.541443 82.0 
177.560532 86.0 
177.568161 100.0 
177.598694 152.0 
177.617783 114.0 
177.636871 85.0 
177.648331 84.0 
177.65596 79.0 
177.667419 64.0 
177.686508 68.0 
177.709412 81.0 
177.736145 79.0 
177.747589 58.0 
177.766693 65.0 
177.785782 75.0 
177.804886 41.0 
177.82016 71.0 
177.835434 82.0 
177.850708 79.0 
177.862167 112.0 
177.869812 98.0 
177.892731 62.0 
177.90419 62.0 
177.915649 41.0 
177.927124 36.0 
177.946228 46.0 
177.961502 70.0 
177.969147 49.0 
177.976791 48.0 
177.988251 56.0 
177.99971 71.0 
178.007355 58.0 
178.022644 34.0 
178.034103 58.0 
178.049393 196.0 
178.072327 122.0 
178.083801 260.0 
178.095261 324.0 
178.106735 319.0 
178.129669 1039.0 
178.152603 654.0 
178.164078 332.0 
178.175537 296.0 
178.206131 137.0 
178.213776 108.0 
178.236725 103.0 
178.252014 49.0 
178.263489 81.0 
178.274963 90.0 
178.294083 66.0 
178.313202 90.0 
178.336151 74.0 
178.3591 80.0 
178.38205 56.0 
178.401184 52.0 
178.412659 58.0 
178.424133 70.0 
178.439438 60.0 
178.450928 56.0 
178.473877 69.0 
178.481537 65.0 
178.493011 70.0 
178.500671 69.0 
178.519806 93.0 
178.53511 41.0 
178.546585 52.0 
178.554245 52.0 
178.56572 47.0 
178.592514 60.0 
178.600174 40.0 
178.604004 40.0 
178.619308 40.0 
178.630798 37.0 
178.638458 38.0 
178.653763 52.0 
178.665253 61.0 
178.680573 55.0 
178.692047 73.0 
178.715027 63.0 
178.726517 50.0 
178.757156 93.0 
178.776291 67.0 
178.795441 66.0 
178.81076 51.0 
178.81842 57.0 
178.83374 50.0 
178.849075 31.0 
178.860565 46.0 
178.868225 42.0 
178.887375 76.0 
178.906525 88.0 
178.92186 95.0 
178.93335 55.0 
178.944839 117.0 
178.960175 63.0 
178.967834 54.0 
178.979324 63.0 
178.990829 75.0 
179.006149 80.0 
179.017654 89.0 
179.029144 106.0 
179.067474 5768.0 
179.098129 5497.0 
179.136475 4107.0 
179.170975 2531.0 
179.21698 464.0 
179.23616 217.0 
179.251495 185.0 
179.259171 200.0 
179.270676 195.0 
179.286011 204.0 
179.297516 113.0 
179.312851 209.0 
179.320526 122.0 
179.339706 144.0 
179.347382 127.0 
179.362717 90.0 
179.374222 132.0 
179.393402 88.0 
179.404922 95.0 
179.412598 79.0 
179.427933 90.0 
179.443283 78.0 
179.450958 85.0 
179.462463 77.0 
179.489334 92.0 
179.497009 76.0 
179.508514 99.0 
179.523865 82.0 
179.53154 64.0 
179.539215 81.0 
179.554565 82.0 
179.566086 77.0 
179.573761 96.0 
179.581436 75.0 
179.589111 66.0 
179.596786 88.0 
179.604462 81.0 
179.612137 69.0 
179.635178 76.0 
179.650528 97.0 
179.669724 133.0 
179.681244 106.0 
179.692764 77.0 
179.700439 82.0 
179.719635 101.0 
179.738846 108.0 
179.750366 86.0 
179.761887 58.0 
179.773407 57.0 
179.784927 114.0 
179.807968 96.0 
179.815643 68.0 
179.823334 91.0 
179.842529 81.0 
179.857895 73.0 
179.869431 42.0 
179.877106 52.0 
179.892471 131.0 
179.907837 63.0 
179.927048 114.0 
179.942413 64.0 
179.957794 70.0 
179.969315 59.0 
179.977005 58.0 
179.980835 58.0 
179.996216 85.0 
180.019272 74.0 
180.034637 39.0 
180.065384 709.0 
180.080765 995.0 
180.103821 1266.0 
180.142273 812.0 
180.169174 493.0 
180.176865 463.0 
180.1884 276.0 
180.203781 186.0 
180.211472 146.0 
180.223007 171.0 
180.257614 116.0 
180.265305 116.0 
180.303757 139.0 
180.322998 136.0 
180.346069 118.0 
180.369156 82.0 
180.376846 75.0 
180.396072 99.0 
180.411469 50.0 
180.434555 106.0 
180.442245 98.0 
180.457642 68.0 
180.469177 114.0 
180.484573 50.0 
180.492264 61.0 
180.496109 61.0 
180.511505 70.0 
180.534592 71.0 
180.549988 49.0 
180.565384 78.0 
180.584625 64.0 
180.603882 72.0 
180.626968 58.0 
180.634674 51.0 
180.638519 51.0 
180.65007 68.0 
180.657776 49.0 
180.669312 46.0 
180.684723 83.0 
180.723221 85.0 
180.738617 73.0 
180.765579 196.0 
180.780991 58.0 
180.788681 66.0 
180.807938 130.0 
180.819504 46.0 
180.842606 66.0 
180.858017 49.0 
180.861862 49.0 
180.877274 73.0 
180.888824 98.0 
180.900391 84.0 
180.915802 39.0 
180.927353 73.0 
180.938919 42.0 
180.958176 60.0 
180.965881 83.0 
180.981293 69.0 
180.988998 64.0 
181.00827 71.0 
181.015976 61.0 
181.042953 568.0 
181.089203 7975.0 
181.096909 7751.0 
181.104614 7450.0 
181.112335 7678.0 
181.189438 415.0 
181.201004 385.0 
181.216415 386.0 
181.231842 281.0 
181.247269 217.0 
181.266541 220.0 
181.285828 161.0 
181.301254 100.0 
181.308975 91.0 
181.316681 94.0 
181.332108 123.0 
181.351395 99.0 
181.362961 111.0 
181.374542 92.0 
181.386108 66.0 
181.401535 85.0 
181.409256 82.0 
181.424683 62.0 
181.436264 117.0 
181.447845 91.0 
181.459412 91.0 
181.474854 90.0 
181.494141 100.0 
181.513428 88.0 
181.525009 81.0 
181.53273 98.0 
181.552017 86.0 
181.57132 84.0 
181.590622 74.0 
181.613785 85.0 
181.629227 98.0 
181.644653 66.0 
181.663956 86.0 
181.671677 75.0 
181.679398 74.0 
181.694839 84.0 
181.702576 73.0 
181.710297 66.0 
181.718018 75.0 
181.73732 84.0 
181.748901 66.0 
181.760483 101.0 
181.77594 104.0 
181.795242 97.0 
181.810684 65.0 
181.822281 95.0 
181.845444 63.0 
181.85704 111.0 
181.884079 63.0 
181.8918 63.0 
181.922714 112.0 
181.942017 70.0 
181.949753 63.0 
181.957474 85.0 
181.972931 58.0 
181.980667 52.0 
181.988388 54.0 
181.999985 72.0 
182.023163 78.0 
182.030899 81.0 
182.03862 92.0 
182.050217 177.0 
182.065674 176.0 
182.096588 1610.0 
182.135254 1326.0 
182.162308 308.0 
182.177765 213.0 
182.197098 138.0 
182.220291 119.0 
182.235764 89.0 
182.255096 72.0 
182.278305 92.0 
182.297638 94.0 
182.316971 51.0 
182.328568 61.0 
182.34404 75.0 
182.355652 49.0 
182.371124 95.0 
182.398193 78.0 
182.413666 63.0 
182.421402 64.0 
182.436874 84.0 
182.444626 78.0 
182.456223 62.0 
182.463959 51.0 
182.475571 58.0 
182.483307 57.0 
182.494919 54.0 
182.502655 46.0 
182.518127 87.0 
182.529739 58.0 
182.545227 69.0 
182.556839 57.0 
182.568436 43.0 
182.587799 59.0 
182.595535 71.0 
182.607147 57.0 
182.618759 48.0 
182.626495 50.0 
182.638107 61.0 
182.645859 28.0 
182.661331 49.0 
182.672943 31.0 
182.692307 65.0 
182.700043 69.0 
182.71167 80.0 
182.719406 52.0 
182.723282 52.0 
182.734894 45.0 
182.750381 53.0 
182.758133 47.0 
182.769745 50.0 
182.792969 93.0 
182.816208 88.0 
182.827835 71.0 
182.839447 82.0 
182.854935 53.0 
182.862686 55.0 
182.874313 94.0 
182.889801 44.0 
182.897552 54.0 
182.909164 70.0 
182.920792 61.0 
182.928543 56.0 
182.951782 94.0 
182.978897 79.0 
182.986649 80.0 
183.009903 86.0 
183.02153 64.0 
183.029266 57.0 
183.079651 2429.0 
183.114532 8374.0 
183.141663 5670.0 
183.199814 401.0 
183.211441 230.0 
183.223068 358.0 
183.250214 188.0 
183.261841 248.0 
183.296738 214.0 
183.312256 123.0 
183.320007 117.0 
183.339401 128.0 
183.362671 104.0 
183.385941 88.0 
183.397583 88.0 
183.416977 114.0 
183.436371 71.0 
183.448013 72.0 
183.455765 93.0 
183.471283 115.0 
183.482925 66.0 
183.494568 74.0 
183.502319 98.0 
183.513962 75.0 
183.529495 111.0 
183.545013 124.0 
183.556656 114.0 
183.568298 112.0 
183.579941 111.0 
183.599335 99.0 
183.618744 69.0 
183.638153 85.0 
183.649796 62.0 
183.661438 91.0 
183.684738 58.0 
183.708023 84.0 
183.723557 63.0 
183.735199 59.0 
183.750732 61.0 
183.762375 62.0 
183.774033 45.0 
183.789551 87.0 
183.812851 97.0 
183.828384 114.0 
183.843918 66.0 
183.851685 78.0 
183.867233 59.0 
183.878876 44.0 
183.886642 43.0 
183.902176 65.0 
183.925491 105.0 
183.941025 83.0 
183.952682 93.0 
183.960449 96.0 
183.979874 67.0 
183.98764 69.0 
183.999298 50.0 
184.003189 50.0 
184.007065 50.0 
184.014847 48.0 
184.026505 77.0 
184.045929 94.0 
184.053696 55.0 
184.084793 726.0 
184.115875 1486.0 
184.143082 1071.0 
184.185837 128.0 
184.201385 100.0 
184.213058 85.0 
184.232483 113.0 
184.255814 80.0 
184.279144 92.0 
184.290802 46.0 
184.298584 51.0 
184.325806 54.0 
184.337479 69.0 
184.349136 78.0 
184.3647 62.0 
184.391922 62.0 
184.399704 53.0 
184.423035 85.0 
184.44249 69.0 
184.469711 71.0 
184.481384 63.0 
184.496948 52.0 
184.508621 46.0 
184.512512 46.0 
184.524185 39.0 
184.535858 54.0 
184.555313 64.0 
184.563095 60.0 
184.574768 68.0 
184.586441 60.0 
184.602005 81.0 
184.617569 59.0 
184.625351 65.0 
184.64093 63.0 
184.656494 59.0 
184.668167 53.0 
184.67984 71.0 
184.695419 76.0 
184.707092 71.0 
184.722672 66.0 
184.734344 111.0 
184.746017 81.0 
184.757706 113.0 
184.765488 76.0 
184.77327 70.0 
184.788849 59.0 
184.804428 39.0 
184.81221 36.0 
184.823898 56.0 
184.839462 49.0 
184.858932 70.0 
184.86673 60.0 
184.878418 76.0 
184.890091 72.0 
184.909576 50.0 
184.917358 51.0 
184.936829 43.0 
184.952408 45.0 
184.964096 53.0 
184.975784 69.0 
184.991364 47.0 
184.999161 59.0 
185.018646 46.0 
185.06929 1624.0 
185.088776 3576.0 
185.131638 9422.0 
185.15892 6266.0 
185.205688 634.0 
185.244675 386.0 
185.27977 271.0 
185.307053 165.0 
185.330444 152.0 
185.338257 121.0 
185.346054 167.0 
185.369446 128.0 
185.388947 149.0 
185.408447 142.0 
185.435745 155.0 
185.443542 107.0 
185.455246 75.0 
185.470856 135.0 
185.478653 105.0 
185.494263 112.0 
185.505966 138.0 
185.529373 114.0 
185.544968 91.0 
185.556671 81.0 
185.576187 129.0 
185.591797 93.0 
185.599594 66.0 
185.607407 75.0 
185.61911 73.0 
185.63472 86.0 
185.642517 91.0 
185.654236 75.0 
185.665939 77.0 
185.681549 77.0 
185.689362 85.0 
185.704971 79.0 
185.7323 77.0 
185.74791 64.0 
185.759613 109.0 
185.771332 63.0 
185.779144 50.0 
185.794754 105.0 
185.806473 99.0 
185.818176 58.0 
185.825989 61.0 
185.833801 61.0 
185.845505 79.0 
185.876755 65.0 
185.884567 50.0 
185.892365 60.0 
185.90799 63.0 
185.915802 68.0 
185.927521 67.0 
185.947052 78.0 
185.958771 90.0 
185.97049 56.0 
185.982208 111.0 
185.997833 77.0 
186.009552 90.0 
186.017365 64.0 
186.025177 90.0 
186.040802 57.0 
186.056427 144.0 
186.06424 159.0 
186.079865 356.0 
186.09549 684.0 
186.134567 1301.0 
186.154114 791.0 
186.161926 739.0 
186.177551 621.0 
186.208832 122.0 
186.216644 129.0 
186.228363 104.0 
186.251816 114.0 
186.259644 111.0 
186.283096 118.0 
186.298737 109.0 
186.314377 78.0 
186.322189 98.0 
186.341736 62.0 
186.357376 71.0 
186.36911 64.0 
186.380844 64.0 
186.396484 93.0 
186.408218 53.0 
186.423859 61.0 
186.435593 60.0 
186.447327 69.0 
186.462967 48.0 
186.466873 48.0 
186.482513 47.0 
186.498169 64.0 
186.509903 64.0 
186.521637 61.0 
186.537277 42.0 
186.552933 61.0 
186.56076 58.0 
186.580322 60.0 
186.595963 100.0 
186.615524 64.0 
186.63118 34.0 
186.642914 98.0 
186.654663 83.0 
186.670319 73.0 
186.682053 86.0 
186.709442 50.0 
186.721191 63.0 
186.729019 60.0 
186.736847 41.0 
186.744675 41.0 
186.748581 41.0 
186.756424 57.0 
186.779907 48.0 
186.791641 58.0 
186.799469 54.0 
186.807312 53.0 
186.81514 55.0 
186.826874 46.0 
186.842545 47.0 
186.854279 74.0 
186.889526 83.0 
186.916931 51.0 
186.92868 72.0 
186.9561 55.0 
186.971756 58.0 
186.983505 63.0 
186.99527 57.0 
187.003098 71.0 
187.026596 90.0 
187.042267 81.0 
187.073608 2477.0 
187.10495 3721.0 
187.144135 8277.0 
187.175476 4426.0 
187.222504 472.0 
187.242096 235.0 
187.249939 170.0 
187.269531 280.0 
187.296967 241.0 
187.324417 152.0 
187.336182 122.0 
187.344009 117.0 
187.359695 115.0 
187.37146 92.0 
187.383224 124.0 
187.422424 114.0 
187.430267 96.0 
187.445953 66.0 
187.465561 100.0 
187.477325 110.0 
187.50087 86.0 
187.516556 136.0 
187.540085 149.0 
187.555771 114.0 
187.563614 111.0 
187.575394 120.0 
187.598923 93.0 
187.622467 83.0 
187.638153 123.0 
187.661697 73.0 
187.685242 83.0 
187.697021 70.0 
187.712708 50.0 
187.73233 122.0 
187.751953 70.0 
187.759811 77.0 
187.771576 69.0 
187.775513 69.0 
187.783356 61.0 
187.799057 105.0 
187.81868 85.0 
187.822601 85.0 
187.838318 61.0 
187.854019 101.0 
187.86972 52.0 
187.873642 52.0 
187.885422 90.0 
187.893265 81.0 
187.912903 78.0 
187.932541 89.0 
187.944321 112.0 
187.952164 101.0 
187.96788 67.0 
187.983582 90.0 
188.00322 70.0 
188.022858 70.0 
188.030716 68.0 
188.042496 103.0 
188.058212 129.0 
188.07785 232.0 
188.113205 802.0 
188.14856 1299.0 
188.179993 833.0 
188.207489 180.0 
188.227142 123.0 
188.246796 92.0 
188.266434 96.0 
188.290024 76.0 
188.297882 74.0 
188.309677 96.0 
188.313599 96.0 
188.321472 59.0 
188.333252 50.0 
188.348984 52.0 
188.372574 110.0 
188.38829 64.0 
188.400085 71.0 
188.407944 96.0 
188.419739 41.0 
188.435471 35.0 
188.443329 38.0 
188.455124 41.0 
188.482651 85.0 
188.498383 39.0 
188.510178 62.0 
188.521973 74.0 
188.533783 58.0 
188.553436 63.0 
188.569168 63.0 
188.580978 54.0 
188.59671 141.0 
188.608505 80.0 
188.628174 77.0 
188.636047 86.0 
188.651779 68.0 
188.667511 43.0 
188.679321 57.0 
188.691132 40.0 
188.702927 30.0 
188.7108 47.0 
188.718674 84.0 
188.738342 55.0 
188.746216 55.0 
188.758011 66.0 
188.789505 93.0 
188.81311 77.0 
188.828857 60.0 
188.840668 58.0 
188.856415 47.0 
188.86821 81.0 
188.88002 48.0 
188.89183 96.0 
188.911514 77.0 
188.931198 83.0 
188.946945 54.0 
188.958771 49.0 
188.970581 72.0 
188.982391 50.0 
189.002075 91.0 
189.009949 76.0 
189.017822 69.0 
189.037521 315.0 
189.053268 615.0 
189.088715 5489.0 
189.116287 4668.0 
189.15567 3446.0 
189.183258 1616.0 
189.195068 1533.0 
189.238419 338.0 
189.254166 208.0 
189.27388 223.0 
189.297516 112.0 
189.313278 111.0 
189.340866 112.0 
189.36058 83.0 
189.38028 99.0 
189.399994 82.0 
189.411819 57.0 
189.427582 72.0 
189.439407 102.0 
189.463074 78.0 
189.478836 34.0 
189.494614 108.0 
189.510376 52.0 
189.526154 77.0 
189.534042 98.0 
189.545868 57.0 
189.561646 99.0 
189.573471 92.0 
189.58136 129.0 
189.605026 86.0 
189.628693 68.0 
189.64447 98.0 
189.652359 80.0 
189.668137 101.0 
189.691803 72.0 
189.711533 49.0 
189.723358 52.0 
189.731247 39.0 
189.739151 46.0 
189.754929 78.0 
189.766769 40.0 
189.782547 129.0 
189.798325 93.0 
189.810165 58.0 
189.822006 88.0 
189.837799 70.0 
189.849625 83.0 
189.877258 72.0 
189.889099 74.0 
189.904892 66.0 
189.916733 86.0 
189.928574 48.0 
189.940414 81.0 
189.960144 60.0 
189.983841 71.0 
189.995682 62.0 
190.015427 52.0 
190.023315 61.0 
190.04306 141.0 
190.058853 134.0 
190.070694 196.0 
190.094391 862.0 
190.114136 742.0 
190.125992 823.0 
190.133881 831.0 
190.165482 718.0 
190.189178 325.0 
190.204987 168.0 
190.244492 117.0 
190.287949 82.0 
190.299805 45.0 
190.311661 67.0 
190.319565 67.0 
190.327469 71.0 
190.335358 62.0 
190.35907 90.0 
190.370926 47.0 
190.382782 65.0 
190.39859 67.0 
190.406494 60.0 
190.422302 49.0 
190.442078 77.0 
190.46579 70.0 
190.48555 48.0 
190.493454 47.0 
190.513229 53.0 
190.525085 38.0 
190.536942 42.0 
190.548813 58.0 
190.556717 59.0 
190.576492 73.0 
190.604172 97.0 
190.61998 91.0 
190.631851 60.0 
190.643707 85.0 
190.655579 46.0 
190.667435 49.0 
190.691177 58.0 
190.695129 58.0 
190.710953 54.0 
190.730728 42.0 
190.742599 58.0 
190.766327 39.0 
190.778198 25.0 
190.794022 67.0 
190.821716 39.0 
190.833588 46.0 
190.849411 37.0 
190.861282 38.0 
190.873154 50.0 
190.885025 39.0 
190.892944 52.0 
190.904816 60.0 
190.928558 49.0 
190.952316 73.0 
190.976059 67.0 
190.99585 103.0 
191.007721 70.0 
191.02356 211.0 
191.067108 3863.0 
191.075027 3508.0 
191.098785 6274.0 
191.134415 4545.0 
191.174026 1144.0 
191.197784 386.0 
191.205704 415.0 
191.221542 330.0 
191.237396 224.0 
191.253235 230.0 
191.261154 243.0 
191.273041 155.0 
191.288879 138.0 
191.31662 101.0 
191.328506 138.0 
191.336426 131.0 
191.35228 105.0 
191.364166 106.0 
191.376053 130.0 
191.387939 80.0 
191.403778 96.0 
191.411713 76.0 
191.431519 138.0 
191.447372 73.0 
191.459259 98.0 
191.471161 79.0 
191.487015 70.0 
191.502869 89.0 
191.52269 69.0 
191.534576 95.0 
191.554398 101.0 
191.570251 63.0 
191.598007 100.0 
191.613861 68.0 
191.625763 79.0 
191.63765 79.0 
191.653519 75.0 
191.681274 114.0 
191.693176 112.0 
191.720932 95.0 
191.728867 127.0 
191.748688 106.0 
191.764557 54.0 
191.772491 86.0 
191.784393 55.0 
191.80423 58.0 
191.812149 73.0 
191.820084 77.0 
191.83992 94.0 
191.847855 70.0 
191.859756 63.0 
191.88356 71.0 
191.891495 72.0 
191.919281 58.0 
191.931183 48.0 
191.954987 108.0 
191.978806 84.0 
191.994675 59.0 
192.010559 74.0 
192.030396 54.0 
192.062149 612.0 
192.082001 700.0 
192.10582 1293.0 
192.129639 644.0 
192.145523 476.0 
192.169342 170.0 
192.181259 248.0 
192.201111 158.0 
192.22493 140.0 
192.240814 91.0 
192.264648 65.0 
192.280533 67.0 
192.288483 116.0 
192.29245 116.0 
192.312302 53.0 
192.324219 47.0 
192.332169 73.0 
192.344086 56.0 
192.348053 56.0 
192.36792 57.0 
192.37587 53.0 
192.391754 124.0 
192.411621 51.0 
192.427521 54.0 
192.435455 52.0 
192.459305 37.0 
192.467255 44.0 
192.475204 43.0 
192.491089 56.0 
192.503021 46.0 
192.518906 71.0 
192.526855 79.0 
192.538788 57.0 
192.558655 72.0 
192.566605 72.0 
192.586472 59.0 
192.594421 47.0 
192.606354 51.0 
192.622253 70.0 
192.646103 88.0 
192.658035 90.0 
192.669952 52.0 
192.681885 64.0 
192.70575 103.0 
192.721649 46.0 
192.733582 86.0 
192.745499 69.0 
192.761414 91.0 
192.781296 87.0 
192.801178 56.0 
192.81311 42.0 
192.825043 36.0 
192.829025 36.0 
192.840958 48.0 
192.864822 44.0 
192.872772 36.0 
192.896637 52.0 
192.920517 66.0 
192.928467 50.0 
192.936432 54.0 
192.948364 60.0 
192.960297 61.0 
192.976212 69.0 
192.988144 57.0 
193.000092 66.0 
193.016006 39.0 
193.027939 95.0 
193.043854 507.0 
193.079681 8015.0 
193.103561 6563.0 
193.115494 7395.0 
193.183167 657.0 
193.203079 516.0 
193.234924 322.0 
193.25882 218.0 
193.270767 157.0 
193.282715 184.0 
193.302628 124.0 
193.314575 153.0 
193.338455 139.0 
193.358383 100.0 
193.362366 100.0 
193.370331 84.0 
193.378296 100.0 
193.390244 124.0 
193.406174 71.0 
193.414139 72.0 
193.434052 101.0 
193.446014 80.0 
193.449997 80.0 
193.461945 84.0 
193.473892 113.0 
193.489838 77.0 
193.50975 68.0 
193.529678 82.0 
193.537643 104.0 
193.553589 92.0 
193.577499 117.0 
193.59343 74.0 
193.609375 50.0 
193.617355 80.0 
193.645248 102.0 
193.661194 60.0 
193.669159 58.0 
193.685104 77.0 
193.697067 64.0 
193.705032 50.0 
193.716995 81.0 
193.736938 75.0 
193.748886 73.0 
193.756866 85.0 
193.772812 105.0 
193.780792 115.0 
193.808701 145.0 
193.824646 64.0 
193.840607 110.0 
193.856552 88.0 
193.884476 94.0 
193.892441 90.0 
193.912384 94.0 
193.920364 68.0 
193.936325 75.0 
193.956268 123.0 
193.972214 64.0 
193.980194 90.0 
193.996155 117.0 
194.016098 115.0 
194.032059 57.0 
194.044037 63.0 
194.052017 80.0 
194.083939 1497.0 
194.111862 1240.0 
194.12384 962.0 
194.139801 537.0 
194.16774 108.0 
194.17572 100.0 
194.183701 101.0 
194.211639 128.0 
194.243576 115.0 
194.255554 83.0 
194.271515 102.0 
194.287491 83.0 
194.311447 65.0 
194.327423 73.0 
194.347382 86.0 
194.367355 94.0 
194.383316 60.0 
194.391312 56.0 
194.40329 75.0 
194.407288 75.0 
194.431244 74.0 
194.44722 66.0 
194.455215 55.0 
194.471191 53.0 
194.48317 62.0 
194.49115 70.0 
194.499146 59.0 
194.507141 64.0 
194.527115 51.0 
194.551086 72.0 
194.559067 61.0 
194.567062 87.0 
194.587036 82.0 
194.60701 63.0 
194.626999 56.0 
194.634979 40.0 
194.65097 79.0 
194.670944 84.0 
194.67894 56.0 
194.690933 64.0 
194.702927 39.0 
194.7229 64.0 
194.738892 42.0 
194.758881 79.0 
194.766876 59.0 
194.782867 34.0 
194.794861 52.0 
194.81485 44.0 
194.822845 47.0 
194.842834 41.0 
194.85083 53.0 
194.866821 58.0 
194.874817 59.0 
194.890808 67.0 
194.91481 48.0 
194.930801 57.0 
194.95079 65.0 
194.966797 40.0 
194.97879 65.0 
195.00679 43.0 
195.022781 42.0 
195.026794 42.0 
195.050781 266.0 
195.070786 1365.0 
195.106796 7698.0 
195.118805 5631.0 
195.142807 5662.0 
195.194824 392.0 
195.226837 241.0 
195.234848 237.0 
195.246841 220.0 
195.262863 163.0 
195.286865 147.0 
195.314896 119.0 
195.322891 126.0 
195.346924 113.0 
195.358932 110.0 
195.374939 82.0 
195.390961 80.0 
195.402969 106.0 
195.422989 57.0 
195.426987 57.0 
195.434998 70.0 
195.447006 105.0 
195.455017 116.0 
195.45903 116.0 
195.471039 102.0 
195.491058 103.0 
195.515091 94.0 
195.5271 72.0 
195.547134 113.0 
195.563156 136.0 
195.583176 137.0 
195.611221 88.0 
195.623245 96.0 
195.635254 59.0 
195.647278 53.0 
195.6633 102.0 
195.675323 83.0 
195.679337 83.0 
195.703369 91.0 
195.719406 92.0 
195.731415 99.0 
195.755463 74.0 
195.767487 58.0 
195.783524 79.0 
195.815582 124.0 
195.851654 132.0 
195.867691 107.0 
195.887726 126.0 
195.907776 78.0 
195.931839 93.0 
195.93985 77.0 
195.955887 69.0 
195.967911 55.0 
195.97995 69.0 
195.995987 122.0 
196.008011 43.0 
196.016037 101.0 
196.0401 88.0 
196.06015 141.0 
196.0802 525.0 
196.092239 430.0 
196.120316 1198.0 
196.144379 940.0 
196.164444 520.0 
196.200546 139.0 
196.224625 95.0 
196.240662 88.0 
196.256714 60.0 
196.268753 75.0 
196.276779 61.0 
196.292831 69.0 
196.304871 76.0 
196.332962 77.0 
196.340988 68.0 
196.35704 60.0 
196.365067 63.0 
196.377106 75.0 
196.393173 60.0 
196.405212 57.0 
196.421265 82.0 
196.445358 63.0 
196.457397 45.0 
196.477478 70.0 
196.485504 66.0 
196.49353 62.0 
196.505569 35.0 
196.517624 61.0 
196.541718 58.0 
196.561798 60.0 
196.573837 77.0 
196.593918 92.0 
196.609985 101.0 
196.618011 103.0 
196.630066 77.0 
196.638092 68.0 
196.650146 92.0 
196.666214 67.0 
196.682281 50.0 
196.698349 46.0 
196.710403 27.0 
196.722458 52.0 
196.746552 79.0 
196.766647 46.0 
196.778702 40.0 
196.786728 34.0 
196.794769 32.0 
196.814865 53.0 
196.830933 37.0 
196.847015 50.0 
196.863083 54.0 
196.875137 29.0 
196.883179 77.0 
196.911316 49.0 
196.931412 50.0 
196.939453 58.0 
196.951508 46.0 
196.963562 68.0 
196.975632 47.0 
196.991699 39.0 
196.995728 39.0 
197.015823 87.0 
197.084183 7537.0 
197.104279 6877.0 
197.11232 7041.0 
197.12439 11343.0 
197.15657 5590.0 
197.204834 876.0 
197.228958 444.0 
197.249069 429.0 
197.269196 219.0 
197.285278 286.0 
197.313446 177.0 
197.321487 140.0 
197.337585 171.0 
197.349655 167.0 
197.361725 120.0 
197.373795 139.0 
197.389893 165.0 
197.41806 171.0 
197.430145 91.0 
197.446243 180.0 
197.46637 111.0 
197.490509 143.0 
197.506607 86.0 
197.514664 84.0 
197.542847 105.0 
197.558945 90.0 
197.57103 59.0 
197.583099 125.0 
197.611282 103.0 
197.627396 100.0 
197.65155 129.0 
197.67572 91.0 
197.691818 99.0 
197.71196 106.0 
197.740158 181.0 
197.756256 150.0 
197.764313 151.0 
197.780426 163.0 
197.788483 158.0 
197.800568 147.0 
197.816681 152.0 
197.828766 143.0 
197.844894 132.0 
197.869064 89.0 
197.885178 63.0 
197.893234 58.0 
197.901291 56.0 
197.913376 82.0 
197.921448 64.0 
197.933533 79.0 
197.945618 62.0 
197.973831 106.0 
197.993988 66.0 
198.010101 67.0 
198.018158 60.0 
198.02623 108.0 
198.042343 61.0 
198.054443 116.0 
198.082657 1028.0 
198.094757 1004.0 
198.106842 789.0 
198.114914 955.0 
198.131027 1982.0 
198.163284 1146.0 
198.183456 520.0 
198.219742 131.0 
198.23587 118.0 
198.251999 131.0 
198.280243 105.0 
198.3004 74.0 
198.308472 71.0 
198.316544 77.0 
198.3367 143.0 
198.364944 99.0 
198.393188 83.0 
198.401245 68.0 
198.413361 74.0 
198.437561 90.0 
198.445633 81.0 
198.453705 74.0 
198.469849 69.0 
198.490021 66.0 
198.506165 87.0 
198.514236 65.0 
198.53038 74.0 
198.546524 105.0 
198.562668 97.0 
198.574768 82.0 
198.586884 77.0 
198.603027 99.0 
198.635315 80.0 
198.659546 49.0 
198.67569 52.0 
198.687805 46.0 
198.699905 56.0 
198.712021 71.0 
198.732208 86.0 
198.748367 87.0 
198.776627 67.0 
198.788742 90.0 
198.800858 61.0 
198.812973 74.0 
198.833176 52.0 
198.841248 66.0 
198.849335 61.0 
198.857407 64.0 
198.869522 63.0 
198.889725 64.0 
198.90184 83.0 
198.917999 40.0 
198.930115 53.0 
198.94223 64.0 
198.954361 94.0 
198.978592 83.0 
198.994751 83.0 
199.014954 52.0 
199.027084 122.0 
199.0392 93.0 
199.071533 3028.0 
199.103867 7051.0 
199.144287 10457.0 
199.172577 6451.0 
199.241302 385.0 
199.253433 401.0 
199.26152 430.0 
199.289825 204.0 
199.301956 297.0 
199.31813 181.0 
199.330261 185.0 
199.342392 186.0 
199.350479 156.0 
199.366653 128.0 
199.374741 146.0 
199.378784 146.0 
199.386871 153.0 
199.394974 123.0 
199.411148 102.0 
199.419235 90.0 
199.427322 155.0 
199.439453 90.0 
199.451599 164.0 
199.475861 209.0 
199.49205 121.0 
199.504181 150.0 
199.512268 142.0 
199.528458 136.0 
199.540604 124.0 
199.556778 150.0 
199.568924 137.0 
199.577011 151.0 
199.589157 116.0 
199.597244 122.0 
199.605331 125.0 
199.617477 117.0 
199.6539 123.0 
199.666046 92.0 
199.682236 127.0 
199.698425 111.0 
199.710571 104.0 
199.726761 68.0 
199.734848 103.0 
199.746994 76.0 
199.75914 85.0 
199.77533 73.0 
199.779388 73.0 
199.795578 86.0 
199.815826 93.0 
199.823914 107.0 
199.83606 108.0 
199.844162 106.0 
199.860367 72.0 
199.872513 157.0 
199.896805 117.0 
199.921097 102.0 
199.937302 81.0 
199.945404 90.0 
199.95755 113.0 
199.973755 150.0 
199.994003 138.0 
200.018311 97.0 
200.026413 96.0 
200.046677 123.0 
200.066925 330.0 
200.075027 336.0 
200.107437 1220.0 
200.123642 921.0 
200.147964 2282.0 
200.180374 1355.0 
200.204697 514.0 
200.220901 228.0 
200.229019 218.0 
200.249283 175.0 
200.265488 145.0 
200.269547 145.0 
200.301971 130.0 
200.30603 130.0 
200.326294 115.0 
200.346573 78.0 
200.358734 79.0 
200.366837 75.0 
200.387115 84.0 
200.399277 103.0 
200.407379 87.0 
200.427658 92.0 
200.435776 64.0 
200.447937 107.0 
200.451996 107.0 
200.468216 158.0 
200.480377 77.0 
200.492538 112.0 
200.508774 145.0 
200.516876 130.0 
200.529053 67.0 
200.541214 96.0 
200.561493 64.0 
200.565552 64.0 
200.593948 67.0 
200.622345 86.0 
200.63858 105.0 
200.675095 94.0 
200.691315 82.0 
200.70755 126.0 
200.719727 101.0 
200.727844 117.0 
200.740021 88.0 
200.748138 103.0 
200.772476 80.0 
200.79277 69.0 
200.817123 70.0 
200.8293 81.0 
200.845535 92.0 
200.869904 66.0 
200.886139 100.0 
200.902374 63.0 
200.910492 58.0 
200.930801 68.0 
200.963272 97.0 
200.98764 92.0 
201.00795 90.0 
201.052612 686.0 
201.060745 616.0 
201.085114 3840.0 
201.121658 4115.0 
201.162292 6394.0 
201.186661 3763.0 
201.198853 3447.0 
201.276047 266.0 
201.28418 281.0 
201.316681 240.0 
201.345139 130.0 
201.361389 181.0 
201.385788 143.0 
201.406113 82.0 
201.418304 112.0 
201.442688 151.0 
201.45488 153.0 
201.483353 124.0 
201.499603 87.0 
201.51181 165.0 
201.528076 114.0 
201.548401 114.0 
201.564667 85.0 
201.585007 142.0 
201.601273 99.0 
201.609406 108.0 
201.613464 108.0 
201.625671 88.0 
201.637878 108.0 
201.666336 80.0 
201.682617 72.0 
201.707016 62.0 
201.735489 91.0 
201.747696 62.0 
201.759903 72.0 
201.784317 130.0 
201.808731 121.0 
201.825012 60.0 
201.845352 90.0 
201.857559 88.0 
201.865707 104.0 
201.886047 123.0 
201.89418 87.0 
201.906403 111.0 
201.926743 86.0 
201.938965 174.0 
201.955246 110.0 
201.975586 137.0 
201.991882 88.0 
202.004089 106.0 
202.024445 88.0 
202.040726 131.0 
202.052948 145.0 
202.073303 306.0 
202.089584 752.0 
202.118088 829.0 
202.126236 744.0 
202.146591 497.0 
202.162888 1184.0 
202.187317 616.0 
202.199539 676.0 
202.215836 387.0 
202.244339 140.0 
202.264709 86.0 
202.276932 82.0 
202.289154 92.0 
202.297302 88.0 
202.30545 83.0 
202.321747 73.0 
202.342117 90.0 
202.350266 47.0 
202.362488 96.0 
202.370636 54.0 
202.378784 103.0 
202.403229 69.0 
202.411392 86.0 
202.427689 62.0 
202.443985 55.0 
202.452133 63.0 
202.468445 100.0 
202.488815 79.0 
202.496964 83.0 
202.501053 83.0 
202.517349 92.0 
202.541809 70.0 
202.562195 79.0 
202.570343 72.0 
202.578491 95.0 
202.598877 80.0 
202.615189 50.0 
202.623337 43.0 
202.635574 59.0 
202.647812 42.0 
202.65596 56.0 
202.664108 57.0 
202.672272 53.0 
202.68042 54.0 
202.692657 59.0 
202.708969 66.0 
202.713043 66.0 
202.721207 74.0 
202.737518 124.0 
202.75383 69.0 
202.778305 129.0 
202.790543 43.0 
202.798691 57.0 
202.810928 77.0 
202.819092 92.0 
202.835403 57.0 
202.847641 71.0 
202.872131 86.0 
202.892517 83.0 
202.90477 44.0 
202.921082 41.0 
202.929245 39.0 
202.941483 45.0 
202.95372 40.0 
202.97821 35.0 
202.982285 35.0 
202.990448 31.0 
202.998611 40.0 
203.019012 30.0 
203.027176 33.0 
203.05983 814.0 
203.072083 931.0 
203.096573 2014.0 
203.129227 1508.0 
203.13739 1785.0 
203.16597 1681.0 
203.174133 1821.0 
203.182297 1404.0 
203.19455 975.0 
203.223129 620.0 
203.255798 174.0 
203.268051 127.0 
203.284378 130.0 
203.292542 106.0 
203.308884 81.0 
203.321136 84.0 
203.333389 100.0 
203.345642 90.0 
203.357895 80.0 
203.374237 83.0 
203.38649 112.0 
203.398743 56.0 
203.419174 69.0 
203.435501 73.0 
203.447769 81.0 
203.464111 61.0 
203.476364 75.0 
203.488617 72.0 
203.500885 54.0 
203.509048 40.0 
203.517227 62.0 
203.533569 53.0 
203.545822 60.0 
203.55809 56.0 
203.566254 45.0 
203.578522 76.0 
203.5867 58.0 
203.594864 53.0 
203.603043 56.0 
203.615295 58.0 
203.623474 44.0 
203.635742 88.0 
203.660263 92.0 
203.688873 84.0 
203.701141 65.0 
203.705231 65.0 
203.729752 106.0 
203.750198 81.0 
203.762466 85.0 
203.774734 88.0 
203.778824 88.0 
203.795181 107.0 
203.80336 77.0 
203.811539 96.0 
203.83197 91.0 
203.852417 96.0 
203.86879 81.0 
203.889236 93.0 
203.905594 51.0 
203.913773 71.0 
203.93013 59.0 
203.950577 79.0 
203.979218 83.0 
203.987396 78.0 
203.99968 84.0 
204.007858 81.0 
204.024216 64.0 
204.044678 86.0 
204.06514 386.0 
204.089691 337.0 
204.114243 455.0 
204.138794 526.0 
204.159256 331.0 
204.175629 413.0 
204.204269 252.0 
204.228836 140.0 
204.245209 97.0 
204.265671 47.0 
204.273865 78.0 
204.290237 79.0 
204.30661 60.0 
204.314804 55.0 
204.331177 58.0 
204.355743 72.0 
204.372116 34.0 
204.388504 58.0 
204.408981 46.0 
204.41716 33.0 
204.433548 60.0 
204.445831 56.0 
204.474503 78.0 
204.486786 51.0 
204.499084 46.0 
204.511368 55.0 
204.519562 64.0 
204.53595 68.0 
204.548233 66.0 
204.564621 67.0 
204.572815 58.0 
204.585098 40.0 
204.60968 57.0 
204.630173 78.0 
204.638367 90.0 
204.658859 61.0 
204.667053 73.0 
204.679337 77.0 
204.69574 82.0 
204.712128 72.0 
204.724426 58.0 
204.73671 106.0 
204.761307 45.0 
204.781799 64.0 
204.789993 54.0 
204.802292 83.0 
204.810486 58.0 
204.818695 69.0 
204.826889 54.0 
204.839188 44.0 
204.847382 47.0 
204.855591 76.0 
204.867889 70.0 
204.884277 50.0 
204.896576 71.0 
204.912979 100.0 
204.937592 110.0 
204.962189 45.0 
204.974487 41.0 
204.990891 59.0 
205.019592 58.0 
205.027802 49.0 
205.048309 97.0 
205.08522 2773.0 
205.113937 2994.0 
205.130341 2217.0 
205.142654 1994.0 
205.18779 878.0 
205.212402 344.0 
205.224716 205.0 
205.241119 204.0 
205.265747 121.0 
205.278061 147.0 
205.302673 83.0 
205.319092 110.0 
205.331406 88.0 
205.347824 74.0 
205.360138 102.0 
205.376556 58.0 
205.384766 86.0 
205.401184 167.0 
205.429932 132.0 
205.44635 118.0 
205.458664 91.0 
205.483292 80.0 
205.499725 77.0 
205.516144 90.0 
205.536682 93.0 
205.56131 89.0 
205.577744 60.0 
205.585953 52.0 
205.594177 52.0 
205.606491 68.0 
205.6147 79.0 
205.627029 62.0 
205.643463 98.0 
205.655777 61.0 
205.668106 68.0 
205.68454 56.0 
205.696854 100.0 
205.721512 65.0 
205.733826 87.0 
205.750259 73.0 
205.758484 58.0 
205.774918 83.0 
205.787247 57.0 
205.799561 66.0 
205.807785 44.0 
205.824219 105.0 
205.836548 81.0 
205.852982 44.0 
205.865311 83.0 
205.889969 56.0 
205.898193 52.0 
205.906418 58.0 
205.918747 58.0 
205.935181 100.0 
205.943405 82.0 
205.963959 63.0 
205.980408 61.0 
205.988632 75.0 
206.005066 50.0 
206.02562 59.0 
206.037964 44.0 
206.050293 53.0 
206.066742 74.0 
206.09964 650.0 
206.124313 438.0 
206.140762 375.0 
206.161316 151.0 
206.17366 162.0 
206.190109 232.0 
206.210678 79.0 
206.223007 91.0 
206.260025 99.0 
206.280594 66.0 
206.288834 82.0 
206.309402 51.0 
206.321747 52.0 
206.334091 57.0 
206.34642 56.0 
206.367004 51.0 
206.375229 56.0 
206.395798 48.0 
206.404037 48.0 
206.428726 50.0 
206.44519 46.0 
206.449295 46.0 
206.461655 54.0 
206.469879 45.0 
206.478104 54.0 
206.486343 61.0 
206.498688 59.0 
206.506927 62.0 
206.523392 67.0 
206.543961 79.0 
206.564545 44.0 
206.576904 39.0 
206.589249 49.0 
206.605713 61.0 
206.613953 43.0 
206.626297 44.0 
206.638657 72.0 
206.655121 57.0 
206.66748 63.0 
206.683945 53.0 
206.700424 50.0 
206.708664 41.0 
206.716888 56.0 
206.737488 88.0 
206.762192 47.0 
206.774551 45.0 
206.786911 50.0 
206.803391 63.0 
206.807495 63.0 
206.828094 61.0 
206.848694 34.0 
206.856934 40.0 
206.865173 45.0 
206.881653 74.0 
206.906372 90.0 
206.914612 51.0 
206.926971 68.0 
206.943451 49.0 
206.951691 42.0 
206.96817 44.0 
206.980545 69.0 
207.001144 39.0 
207.017624 165.0 
207.058838 2078.0 
207.095932 8557.0 
207.104187 8546.0 
207.120667 6867.0 
207.133041 6950.0 
207.19075 810.0 
207.22374 454.0 
207.240234 295.0 
207.256729 309.0 
207.293839 181.0 
207.310333 141.0 
207.318573 137.0 
207.326828 130.0 
207.347443 159.0 
207.355698 128.0 
207.368073 130.0 
207.380447 119.0 
207.401077 97.0 
207.413452 76.0 
207.425827 118.0 
207.438202 109.0 
207.450577 78.0 
207.467072 104.0 
207.500076 75.0 
207.512466 85.0 
207.520706 97.0 
207.537216 55.0 
207.549591 67.0 
207.557846 74.0 
207.570221 74.0 
207.582611 125.0 
207.603241 48.0 
207.615631 91.0 
207.632126 85.0 
207.652771 88.0 
207.681656 72.0 
207.698166 92.0 
207.706436 60.0 
207.718811 90.0 
207.735321 38.0 
207.760101 99.0 
207.789001 78.0 
207.805511 77.0 
207.817902 92.0 
207.826157 87.0 
207.834412 125.0 
207.842682 135.0 
207.863327 84.0 
207.879837 109.0 
207.896362 73.0 
207.904617 73.0 
207.917007 75.0 
207.929398 100.0 
207.941788 49.0 
207.954178 72.0 
207.966568 67.0 
207.974838 114.0 
207.983093 108.0 
208.003754 106.0 
208.024399 100.0 
208.040924 91.0 
208.061584 331.0 
208.094635 1086.0 
208.10704 1285.0 
208.115295 1375.0 
208.131836 1338.0 
208.144226 1007.0 
208.169022 390.0 
208.193817 266.0 
208.210342 138.0 
208.218613 120.0 
208.239288 129.0 
208.259949 70.0 
208.276489 80.0 
208.284744 81.0 
208.29715 101.0 
208.317825 101.0 
208.334351 115.0 
208.342621 82.0 
208.363297 87.0 
208.371567 102.0 
208.383972 92.0 
208.408783 83.0 
208.429459 104.0 
208.437729 104.0 
208.445999 135.0 
208.458405 80.0 
208.474945 182.0 
208.499756 83.0 
208.520432 75.0 
208.549393 90.0 
208.561798 56.0 
208.574219 81.0 
208.582489 77.0 
208.603165 73.0 
208.61972 87.0 
208.644547 64.0 
208.652817 62.0 
208.665222 58.0 
208.681778 70.0 
208.690048 73.0 
208.706604 62.0 
208.719025 51.0 
208.735565 68.0 
208.747986 58.0 
208.764542 33.0 
208.789368 56.0 
208.805923 52.0 
208.814209 63.0 
208.822479 49.0 
208.8349 41.0 
208.847321 43.0 
208.855591 47.0 
208.863876 76.0 
208.876297 47.0 
208.892853 63.0 
208.913544 56.0 
208.930115 61.0 
208.942535 54.0 
208.954956 80.0 
208.971512 56.0 
208.983932 77.0 
208.996353 65.0 
209.000504 65.0 
209.008774 77.0 
209.037766 202.0 
209.079178 7237.0 
209.10817 7054.0 
209.120605 9561.0 
209.157883 5516.0 
209.215881 525.0 
209.240738 374.0 
209.253174 353.0 
209.27388 222.0 
209.282166 242.0 
209.302887 156.0 
209.315323 172.0 
209.331894 154.0 
209.340179 146.0 
209.360901 140.0 
209.377487 109.0 
209.394058 87.0 
209.414795 170.0 
209.435516 164.0 
209.456238 137.0 
209.48111 121.0 
209.497696 78.0 
209.518417 54.0 
209.539154 146.0 
209.55574 93.0 
209.568176 92.0 
209.580612 159.0 
209.597198 75.0 
209.60965 81.0 
209.622086 94.0 
209.638672 80.0 
209.646973 80.0 
209.655258 82.0 
209.663559 96.0 
209.675995 98.0 
209.684296 100.0 
209.692596 106.0 
209.713333 111.0 
209.73407 102.0 
209.746506 79.0 
209.758957 94.0 
209.771408 121.0 
209.792145 123.0 
209.800446 105.0 
209.808746 108.0 
209.833633 93.0 
209.850235 89.0 
209.870972 101.0 
209.887573 109.0 
209.908325 85.0 
209.920776 67.0 
209.933228 110.0 
209.949829 129.0 
209.95813 131.0 
209.995483 152.0 
210.012085 113.0 
210.036987 146.0 
210.049438 86.0 
210.078506 1151.0 
210.090958 1135.0 
210.128326 2277.0 
210.157394 964.0 
210.165695 1010.0 
210.173996 952.0 
210.194763 295.0 
210.219681 215.0 
210.227982 222.0 
210.25705 166.0 
210.281967 109.0 
210.294434 61.0 
210.3069 68.0 
210.323517 119.0 
210.344284 82.0 
210.35675 120.0 
210.365051 123.0 
210.377518 78.0 
210.394135 76.0 
210.402451 53.0 
210.406601 53.0 
210.419067 48.0 
210.431534 71.0 
210.452301 97.0 
210.460617 94.0 
210.481384 62.0 
210.4897 60.0 
210.506317 84.0 
210.518784 70.0 
210.539566 123.0 
210.556198 103.0 
210.581131 100.0 
210.585297 100.0 
210.593597 92.0 
210.601913 103.0 
210.618546 74.0 
210.639328 75.0 
210.65596 44.0 
210.668427 58.0 
210.680893 74.0 
210.689209 69.0 
210.705841 53.0 
210.730789 68.0 
210.739105 69.0 
210.747421 52.0 
210.755737 41.0 
210.768219 60.0 
210.789001 38.0 
210.801483 53.0 
210.813965 54.0 
210.826431 57.0 
210.847229 54.0 
210.872192 40.0 
210.888824 40.0 
210.913788 56.0 
210.926254 54.0 
210.938736 52.0 
210.955383 75.0 
210.967865 53.0 
210.976181 77.0 
210.996979 92.0 
211.013626 79.0 
211.034424 69.0 
211.042755 122.0 
211.07605 2195.0 
211.096848 5640.0 
211.113495 4528.0 
211.138474 8706.0 
211.171768 5004.0 
211.213394 770.0 
211.234207 419.0 
211.25502 316.0 
211.271667 334.0 
211.284164 172.0 
211.296646 222.0 
211.309143 223.0 
211.334122 152.0 
211.35495 160.0 
211.375763 135.0 
211.392426 131.0 
211.400757 124.0 
211.417404 110.0 
211.429901 78.0 
211.446564 126.0 
211.459061 100.0 
211.471558 135.0 
211.484055 90.0 
211.504883 96.0 
211.534042 115.0 
211.559036 89.0 
211.579865 105.0 
211.596527 88.0 
211.61319 108.0 
211.638199 168.0 
211.654861 110.0 
211.667374 75.0 
211.675705 95.0 
211.679871 95.0 
211.700699 121.0 
211.717377 88.0 
211.73822 85.0 
211.750717 115.0 
211.763229 65.0 
211.775726 116.0 
211.79657 66.0 
211.813248 106.0 
211.821579 102.0 
211.842422 91.0 
211.854935 71.0 
211.863266 77.0 
211.879944 111.0 
211.900787 60.0 
211.921646 149.0 
211.929977 74.0 
211.94249 62.0 
211.959167 140.0 
211.984192 147.0 
211.996704 79.0 
212.013382 154.0 
212.025894 121.0 
212.042572 113.0 
212.071777 459.0 
212.100967 937.0 
212.121826 771.0 
212.142685 2075.0 
212.167725 931.0 
212.184418 1016.0 
212.205276 271.0 
212.226135 212.0 
212.251175 170.0 
212.276215 122.0 
212.297073 125.0 
212.317947 125.0 
212.33046 110.0 
212.342987 79.0 
212.35968 83.0 
212.372208 69.0 
212.380554 69.0 
212.401428 129.0 
212.426468 102.0 
212.451523 86.0 
212.468216 43.0 
212.484924 119.0 
212.509964 82.0 
212.522491 64.0 
212.5392 72.0 
212.560074 70.0 
212.568436 53.0 
212.585144 79.0 
212.606018 47.0 
212.622726 50.0 
212.635254 40.0 
212.647781 59.0 
212.66449 54.0 
212.685379 76.0 
212.702087 50.0 
212.710434 52.0 
212.731323 63.0 
212.760574 73.0 
212.777283 47.0 
212.793991 70.0 
212.806534 51.0 
212.814896 61.0 
212.844147 68.0 
212.869217 71.0 
212.890106 64.0 
212.898468 94.0 
212.90683 88.0 
212.936081 87.0 
212.948624 49.0 
212.969513 81.0 
213.00296 62.0 
213.032227 43.0 
213.04895 318.0 
213.057312 183.0 
213.090759 2963.0 
213.115845 4227.0 
213.157654 8814.0 
213.195297 5607.0 
213.287323 422.0 
213.316605 290.0 
213.354248 176.0 
213.379349 119.0 
213.408646 137.0 
213.425385 149.0 
213.450485 112.0 
213.467224 111.0 
213.483963 104.0 
213.49234 106.0 
213.504898 115.0 
213.521637 146.0 
213.550934 108.0 
213.567673 110.0 
213.580231 90.0 
213.609528 102.0 
213.630463 131.0 
213.651398 117.0 
213.663956 103.0 
213.672333 133.0 
213.689087 114.0 
213.701645 172.0 
213.710022 122.0 
213.726761 149.0 
213.739334 145.0 
213.747711 180.0 
213.76445 133.0 
213.7854 86.0 
213.797958 55.0 
213.806335 64.0 
213.827271 120.0 
213.852402 186.0 
213.881729 151.0 
213.890106 126.0 
213.902679 130.0 
213.919434 153.0 
213.931992 132.0 
213.952942 106.0 
213.961319 94.0 
213.978088 85.0 
213.994843 101.0 
214.007416 92.0 
214.015793 77.0 
214.02417 99.0 
214.053513 165.0 
214.070267 158.0 
214.087036 480.0 
214.095413 432.0 
214.124756 845.0 
214.166672 2614.0 
214.196014 1601.0 
214.250504 237.0 
214.284058 157.0 
214.296631 132.0 
214.317596 105.0 
214.342758 110.0 
214.363724 91.0 
214.384689 122.0 
214.405655 101.0 
214.42244 69.0 
214.435028 61.0 
214.451797 99.0 
214.468582 64.0 
214.49794 99.0 
214.523117 68.0 
214.548279 75.0 
214.577652 74.0 
214.594437 74.0 
214.602829 66.0 
214.615417 72.0 
214.628006 80.0 
214.640594 75.0 
214.665771 56.0 
214.669968 56.0 
214.682556 83.0 
214.695145 60.0 
214.707733 72.0 
214.720337 66.0 
214.728729 67.0 
214.737122 60.0 
214.74971 83.0 
214.766495 66.0 
214.783295 89.0 
214.808487 133.0 
214.829468 87.0 
214.850464 77.0 
214.875656 113.0 
214.888245 96.0 
214.917633 132.0 
214.930237 83.0 
214.942841 41.0 
214.959641 37.0 
214.968033 41.0 
214.980637 51.0 
214.989029 52.0 
215.001633 48.0 
215.018433 84.0 
215.031036 92.0 
215.064636 1145.0 
215.102432 6872.0 
215.131851 7382.0 
215.173859 5316.0 
215.21167 2682.0 
215.241089 631.0 
215.2621 420.0 
215.283112 212.0 
215.299927 267.0 
215.337753 232.0 
215.358765 116.0 
215.367172 125.0 
215.396591 143.0 
215.413406 126.0 
215.421814 120.0 
215.430237 148.0 
215.451248 134.0 
215.468063 91.0 
215.476471 99.0 
215.501709 113.0 
215.514313 97.0 
215.526932 114.0 
215.535339 138.0 
215.55217 134.0 
215.564774 77.0 
215.581604 143.0 
215.590012 144.0 
215.611038 92.0 
215.619461 94.0 
215.636276 74.0 
215.644684 85.0 
215.661514 74.0 
215.674133 70.0 
215.682541 84.0 
215.69516 55.0 
215.703583 89.0 
215.71199 89.0 
215.728821 68.0 
215.737228 67.0 
215.749863 72.0 
215.766678 63.0 
215.783508 58.0 
215.791931 60.0 
215.800339 68.0 
215.829803 94.0 
215.846634 111.0 
215.859253 84.0 
215.876083 86.0 
215.888718 128.0 
215.901337 89.0 
215.913971 61.0 
215.935013 102.0 
215.943436 104.0 
215.968689 101.0 
215.989731 75.0 
215.998154 90.0 
216.006577 101.0 
216.014984 89.0 
216.027618 70.0 
216.036041 75.0 
216.044464 62.0 
216.057083 158.0 
216.065506 121.0 
216.103409 1713.0 
216.120239 1077.0 
216.132874 1524.0 
216.141296 1291.0 
216.179199 937.0 
216.204468 434.0 
216.225525 341.0 
216.263443 192.0 
216.288712 155.0 
216.31398 121.0 
216.330841 85.0 
216.339264 75.0 
216.35611 119.0 
216.381393 99.0 
216.394028 86.0 
216.423523 119.0 
216.440384 147.0 
216.465668 82.0 
216.474091 51.0 
216.48674 72.0 
216.495163 68.0 
216.503601 66.0 
216.516235 61.0 
216.533096 91.0 
216.545746 54.0 
216.554169 51.0 
216.575256 80.0 
216.596329 74.0 
216.604752 53.0 
216.621613 97.0 
216.630051 84.0 
216.646912 52.0 
216.659561 106.0 
216.672211 58.0 
216.68486 60.0 
216.693298 60.0 
216.701721 65.0 
216.718582 55.0 
216.72702 57.0 
216.743896 55.0 
216.756546 69.0 
216.773407 56.0 
216.786057 109.0 
216.807144 86.0 
216.82402 75.0 
216.840881 108.0 
216.853546 105.0 
216.866196 77.0 
216.883072 40.0 
216.895721 94.0 
216.908371 52.0 
216.916809 49.0 
216.929474 55.0 
216.94635 50.0 
216.954788 69.0 
216.971664 53.0 
216.988541 67.0 
216.996979 75.0 
217.009628 50.0 
217.026505 122.0 
217.034958 106.0 
217.043396 172.0 
217.047607 172.0 
217.081375 5819.0 
217.115128 6203.0 
217.148895 3101.0 
217.195328 1328.0 
217.216431 567.0 
217.224884 573.0 
217.245987 361.0 
217.262878 192.0 
217.279755 251.0 
217.305099 162.0 
217.321991 194.0 
217.330429 150.0 
217.351547 130.0 
217.359985 121.0 
217.37265 126.0 
217.389542 91.0 
217.397995 127.0 
217.402222 127.0 
217.414886 100.0 
217.42334 95.0 
217.448669 109.0 
217.465576 102.0 
217.486694 92.0 
217.499359 62.0 
217.516266 89.0 
217.537384 65.0 
217.554276 72.0 
217.571182 146.0 
217.588074 105.0 
217.5923 105.0 
217.617661 133.0 
217.638779 98.0 
217.672592 106.0 
217.697952 99.0 
217.706406 106.0 
217.71907 109.0 
217.727524 102.0 
217.748657 80.0 
217.752884 80.0 
217.761337 82.0 
217.782471 102.0 
217.790924 91.0 
217.799377 73.0 
217.820526 65.0 
217.837433 104.0 
217.845886 95.0 
217.85434 87.0 
217.862793 76.0 
217.875473 74.0 
217.883942 128.0 
217.896622 98.0 
217.905075 88.0 
217.917755 72.0 
217.934677 93.0 
217.955811 74.0 
217.964279 48.0 
217.972733 45.0 
217.993881 97.0 
218.010788 80.0 
218.023483 63.0 
218.044632 170.0 
218.082687 1147.0 
218.099609 1050.0 
218.125 1257.0 
218.141922 667.0 
218.154602 645.0 
218.167297 378.0 
218.179993 287.0 
218.196915 288.0 
218.213837 162.0 
218.256149 141.0 
218.273071 65.0 
218.285767 74.0 
218.298462 68.0 
218.311172 92.0 
218.323868 82.0 
218.34079 101.0 
218.353485 96.0 
218.36618 69.0 
218.383118 89.0 
218.404282 39.0 
218.41275 37.0 
218.429672 63.0 
218.438141 76.0 
218.45932 71.0 
218.472015 54.0 
218.484711 68.0 
218.497421 44.0 
218.50589 41.0 
218.535522 90.0 
218.556702 49.0 
218.56517 57.0 
218.582108 64.0 
218.607513 104.0 
218.620209 80.0 
218.637161 65.0 
218.662567 67.0 
218.692215 71.0 
218.709167 76.0 
218.734573 67.0 
218.747284 54.0 
218.764236 43.0 
218.776947 53.0 
218.793884 37.0 
218.802368 35.0 
218.815079 64.0 
218.827789 64.0 
218.8405 51.0 
218.848969 47.0 
218.865921 62.0 
218.878632 51.0 
218.895584 67.0 
218.908295 77.0 
218.912537 77.0 
218.921005 90.0 
218.929489 92.0 
218.950668 80.0 
218.971863 68.0 
218.988815 27.0 
218.997299 44.0 
219.01001 63.0 
219.018494 44.0 
219.035446 209.0 
219.056641 644.0 
219.099045 7255.0 
219.128723 5682.0 
219.175354 1692.0 
219.196564 951.0 
219.217773 603.0 
219.255936 339.0 
219.285629 148.0 
219.302597 128.0 
219.323807 104.0 
219.336533 114.0 
219.361984 99.0 
219.378952 124.0 
219.391678 152.0 
219.400162 180.0 
219.41713 145.0 
219.425613 139.0 
219.438354 136.0 
219.446838 138.0 
219.459564 116.0 
219.489273 148.0 
219.497757 110.0 
219.506241 125.0 
219.531708 165.0 
219.557175 73.0 
219.561417 73.0 
219.578384 107.0 
219.586884 64.0 
219.599609 108.0 
219.608093 78.0 
219.625076 80.0 
219.646301 132.0 
219.667526 96.0 
219.680267 101.0 
219.69725 128.0 
219.705734 94.0 
219.726959 72.0 
219.735458 102.0 
219.748199 106.0 
219.765182 109.0 
219.773666 113.0 
219.782166 101.0 
219.803391 41.0 
219.820389 85.0 
219.828873 89.0 
219.841614 85.0 
219.854355 128.0 
219.867096 100.0 
219.905319 113.0 
219.926559 143.0 
219.952042 88.0 
219.96904 136.0 
219.99028 82.0 
220.007278 111.0 
220.028519 102.0 
220.049759 121.0 
220.104996 1006.0 
220.113495 1049.0 
220.13475 974.0 
220.151749 579.0 
220.177246 251.0 
220.198502 132.0 
220.211243 149.0 
220.223999 123.0 
220.240997 78.0 
220.253754 74.0 
220.26651 91.0 
220.275009 81.0 
220.283508 61.0 
220.292023 58.0 
220.31752 50.0 
220.330276 59.0 
220.343033 48.0 
220.372803 93.0 
220.381302 149.0 
220.394058 91.0 
220.406815 165.0 
220.423828 93.0 
220.436584 82.0 
220.445084 62.0 
220.462097 67.0 
220.483368 70.0 
220.500381 74.0 
220.521637 78.0 
220.538651 62.0 
220.551422 81.0 
220.572693 64.0 
220.581192 69.0 
220.593964 102.0 
220.60672 49.0 
220.619476 93.0 
220.636505 52.0 
220.649261 65.0 
220.662033 77.0 
220.679047 79.0 
220.687561 86.0 
220.700317 58.0 
220.725861 73.0 
220.742874 73.0 
220.759903 98.0 
220.785431 100.0 
220.793945 56.0 
220.80246 80.0 
220.83226 71.0 
220.845016 74.0 
220.857788 42.0 
220.87056 55.0 
220.879074 53.0 
220.891846 53.0 
220.90036 60.0 
220.921646 63.0 
220.930161 64.0 
220.942932 52.0 
220.959961 52.0 
220.985519 52.0 
221.011063 58.0 
221.023834 61.0 
221.05365 199.0 
221.091965 2435.0 
221.126038 6296.0 
221.151596 3727.0 
221.211243 477.0 
221.241058 233.0 
221.258102 239.0 
221.270889 139.0 
221.279404 123.0 
221.287933 195.0 
221.300705 182.0 
221.326279 191.0 
221.34758 141.0 
221.364624 106.0 
221.381668 86.0 
221.402985 134.0 
221.424301 91.0 
221.441345 84.0 
221.462662 78.0 
221.471176 66.0 
221.483963 102.0 
221.535126 99.0 
221.556442 95.0 
221.569229 100.0 
221.573502 100.0 
221.582016 105.0 
221.599075 73.0 
221.603348 73.0 
221.616135 69.0 
221.637451 48.0 
221.645981 69.0 
221.658768 67.0 
221.667297 68.0 
221.675827 65.0 
221.684357 97.0 
221.705688 112.0 
221.714218 100.0 
221.731277 80.0 
221.752594 94.0 
221.769669 49.0 
221.778198 60.0 
221.790985 53.0 
221.80806 60.0 
221.829376 56.0 
221.837921 67.0 
221.85498 97.0 
221.87204 77.0 
221.884842 81.0 
221.901917 64.0 
221.910446 58.0 
221.918976 67.0 
221.931778 74.0 
221.961655 56.0 
221.978714 66.0 
221.991516 48.0 
222.008591 41.0 
222.017136 52.0 
222.021393 52.0 
222.029938 55.0 
222.05127 161.0 
222.072617 141.0 
222.089691 696.0 
222.12384 744.0 
222.136642 1348.0 
222.162262 1005.0 
222.187881 363.0 
222.217758 145.0 
222.230576 100.0 
222.24765 86.0 
222.260468 107.0 
222.27327 104.0 
222.298889 104.0 
222.320251 75.0 
222.341599 64.0 
222.358688 93.0 
222.375778 53.0 
222.384323 60.0 
222.397125 56.0 
222.40567 61.0 
222.42276 55.0 
222.431305 58.0 
222.448395 47.0 
222.469757 55.0 
222.486847 53.0 
222.495392 61.0 
222.512482 60.0 
222.533844 67.0 
222.550934 69.0 
222.576569 54.0 
222.589386 56.0 
222.602203 53.0 
222.619308 47.0 
222.632126 51.0 
222.649216 57.0 
222.666321 67.0 
222.670593 67.0 
222.691956 45.0 
222.704788 65.0 
222.721878 46.0 
222.730438 44.0 
222.747528 54.0 
222.760361 88.0 
222.777451 40.0 
222.790283 75.0 
222.811661 65.0 
222.828766 56.0 
222.841583 64.0 
222.854416 66.0 
222.871521 71.0 
222.880066 72.0 
222.884354 72.0 
222.892899 77.0 
222.910004 90.0 
222.935669 85.0 
222.948502 58.0 
222.961319 57.0 
222.974152 37.0 
222.991257 61.0 
223.016922 92.0 
223.06398 906.0 
223.106766 3524.0 
223.145264 6032.0 
223.170944 3281.0 
223.188065 2634.0 
223.218018 588.0 
223.235138 384.0 
223.260803 244.0 
223.277924 197.0 
223.299332 122.0 
223.307892 162.0 
223.325012 136.0 
223.337845 134.0 
223.350693 99.0 
223.367813 137.0 
223.389221 96.0 
223.410629 117.0 
223.42775 111.0 
223.43631 86.0 
223.457718 116.0 
223.466293 90.0 
223.487701 72.0 
223.509109 118.0 
223.52623 74.0 
223.539078 63.0 
223.556213 119.0 
223.573349 93.0 
223.590469 59.0 
223.599045 81.0 
223.611893 108.0 
223.637589 117.0 
223.654724 113.0 
223.667572 72.0 
223.684708 98.0 
223.697556 86.0 
223.710419 91.0 
223.727554 63.0 
223.740402 72.0 
223.75325 73.0 
223.766113 63.0 
223.783249 61.0 
223.796097 104.0 
223.80896 65.0 
223.817535 84.0 
223.834671 61.0 
223.851807 79.0 
223.86467 51.0 
223.873245 73.0 
223.890381 93.0 
223.903244 109.0 
223.907532 109.0 
223.92038 69.0 
223.933243 105.0 
223.954666 91.0 
223.976105 95.0 
223.98468 99.0 
223.997543 84.0 
224.006119 84.0 
224.018967 51.0 
224.036118 84.0 
224.057556 70.0 
224.070419 213.0 
224.100433 648.0 
224.117584 786.0 
224.143311 1843.0 
224.169052 849.0 
224.181915 1010.0 
224.207642 364.0 
224.229095 219.0 
224.254822 185.0 
224.276276 141.0 
224.297714 72.0 
224.306305 85.0 
224.323456 96.0 
224.34491 124.0 
224.362076 81.0 
224.374939 82.0 
224.387817 85.0 
224.404968 97.0 
224.417847 82.0 
224.435013 98.0 
224.447876 65.0 
224.469345 65.0 
224.490799 77.0 
224.512253 83.0 
224.520844 84.0 
224.53801 77.0 
224.550888 77.0 
224.559464 53.0 
224.563766 53.0 
224.572342 62.0 
224.589508 58.0 
224.602386 57.0 
224.615265 56.0 
224.632446 75.0 
224.641022 71.0 
224.658203 86.0 
224.68396 81.0 
224.701126 84.0 
224.718307 103.0 
224.726898 104.0 
224.744064 59.0 
224.769836 98.0 
224.787018 82.0 
224.799896 60.0 
224.808487 65.0 
224.825668 81.0 
224.838547 58.0 
224.855728 40.0 
224.868607 77.0 
224.907272 96.0 
224.924454 86.0 
224.950226 151.0 
224.967407 83.0 
224.993195 115.0 
225.018967 92.0 
225.040451 136.0 
225.11351 11947.0 
225.139297 9048.0 
225.152176 9770.0 
225.160782 9845.0 
225.190872 5017.0 
225.238144 871.0 
225.251053 618.0 
225.272537 446.0 
225.289734 383.0 
225.306931 297.0 
225.324127 293.0 
225.332733 246.0 
225.371429 172.0 
225.388626 198.0 
225.414429 185.0 
225.440231 117.0 
225.448837 124.0 
225.461731 99.0 
225.47464 115.0 
225.483246 124.0 
225.500443 162.0 
225.509048 165.0 
225.52626 109.0 
225.552063 151.0 
225.569275 124.0 
225.582184 107.0 
225.612289 141.0 
225.64241 142.0 
225.659622 181.0 
225.676834 141.0 
225.689743 132.0 
225.702652 177.0 
225.72847 159.0 
225.758591 97.0 
225.775803 96.0 
225.788712 83.0 
225.79303 83.0 
225.801636 88.0 
225.810242 76.0 
225.823151 86.0 
225.848984 63.0 
225.866196 105.0 
225.874802 71.0 
225.896332 97.0 
225.904938 78.0 
225.922165 69.0 
225.952301 102.0 
225.982437 147.0 
225.999664 141.0 
226.021194 181.0 
226.051331 151.0 
226.085785 727.0 
226.094406 857.0 
226.111633 1919.0 
226.124557 1375.0 
226.133163 1414.0 
226.141785 1599.0 
226.163315 2291.0 
226.193466 1550.0 
226.223633 404.0 
226.249481 256.0 
226.266708 197.0 
226.292557 222.0 
226.309799 118.0 
226.327026 147.0 
226.357193 124.0 
226.361511 124.0 
226.383057 129.0 
226.404602 128.0 
226.413223 111.0 
226.421844 98.0 
226.44339 139.0 
226.460632 84.0 
226.473572 77.0 
226.482193 102.0 
226.499435 109.0 
226.525299 109.0 
226.542542 147.0 
226.551163 167.0 
226.564087 156.0 
226.577026 89.0 
226.585648 86.0 
226.594269 102.0 
226.60289 108.0 
226.624451 101.0 
226.633087 79.0 
226.641708 78.0 
226.646011 78.0 
226.654648 87.0 
226.663269 81.0 
226.676208 109.0 
226.693451 63.0 
226.702072 60.0 
226.715012 59.0 
226.727951 59.0 
226.736588 93.0 
226.75383 71.0 
226.766769 62.0 
226.771088 62.0 
226.784027 105.0 
226.796967 60.0 
226.809906 82.0 
226.831482 96.0 
226.857361 87.0 
226.874619 103.0 
226.904816 71.0 
226.913452 57.0 
226.926392 71.0 
226.935013 76.0 
226.956589 80.0 
226.965225 100.0 
226.982483 108.0 
226.995438 72.0 
227.004059 94.0 
227.017014 97.0 
227.034271 146.0 
227.07312 1028.0 
227.099014 3992.0 
227.133545 4849.0 
227.176712 5616.0 
227.20694 3508.0 
227.288971 260.0 
227.297607 262.0 
227.310562 243.0 
227.327835 196.0 
227.340805 204.0 
227.35376 181.0 
227.366714 117.0 
227.379669 170.0 
227.392624 118.0 
227.409897 138.0 
227.427185 96.0 
227.435822 109.0 
227.444458 118.0 
227.453094 107.0 
227.466064 111.0 
227.483337 107.0 
227.509262 91.0 
227.526535 85.0 
227.530869 85.0 
227.535187 85.0 
227.55246 67.0 
227.574066 93.0 
227.587036 79.0 
227.612961 98.0 
227.630249 110.0 
227.643204 87.0 
227.651855 105.0 
227.660492 107.0 
227.682098 117.0 
227.699387 70.0 
227.721008 115.0 
227.729645 78.0 
227.742615 145.0 
227.772873 127.0 
227.790161 95.0 
227.803131 78.0 
227.816101 79.0 
227.824753 69.0 
227.833405 76.0 
227.846375 113.0 
227.867981 49.0 
227.876633 72.0 
227.889603 94.0 
227.898254 93.0 
227.915558 61.0 
227.932846 54.0 
227.941498 65.0 
227.971771 84.0 
227.993393 103.0 
228.019348 107.0 
228.04097 110.0 
228.062592 280.0 
228.079895 228.0 
228.110184 925.0 
228.136139 846.0 
228.157776 799.0 
228.175079 1141.0 
228.183731 1087.0 
228.205368 994.0 
228.231323 448.0 
228.265945 110.0 
228.274597 108.0 
228.283249 72.0 
228.300568 87.0 
228.313553 150.0 
228.339523 78.0 
228.356827 126.0 
228.378479 81.0 
228.391464 107.0 
228.400116 122.0 
228.417435 77.0 
228.434753 123.0 
228.465057 81.0 
228.478043 94.0 
228.482376 94.0 
228.491028 91.0 
228.504013 40.0 
228.525665 62.0 
228.534332 73.0 
228.560303 59.0 
228.56897 61.0 
228.590622 73.0 
228.607941 95.0 
228.616608 99.0 
228.633926 74.0 
228.659912 84.0 
228.68158 83.0 
228.690231 56.0 
228.707565 76.0 
228.720551 91.0 
228.737885 94.0 
228.746552 87.0 
228.755219 92.0 
228.768204 52.0 
228.781204 50.0 
228.798538 71.0 
228.824539 72.0 
228.833191 78.0 
228.850525 63.0 
228.859192 94.0 
228.872192 75.0 
228.885193 98.0 
228.919861 69.0 
228.937195 67.0 
228.950195 48.0 
228.958862 46.0 
228.963196 46.0 
228.976212 60.0 
228.989212 47.0 
229.006546 56.0 
229.028214 61.0 
229.03688 65.0 
229.049896 69.0 
229.106247 6228.0 
229.132263 4667.0 
229.149612 4072.0 
229.184296 2149.0 
229.197296 1348.0 
229.227661 840.0 
229.266693 275.0 
229.301392 146.0 
229.314392 141.0 
229.327408 123.0 
229.344757 103.0 
229.353439 98.0 
229.370789 95.0 
229.388138 107.0 
229.39682 85.0 
229.414169 127.0 
229.435867 98.0 
229.45755 97.0 
229.479248 138.0 
229.500946 166.0 
229.518311 171.0 
229.544342 122.0 
229.561707 100.0 
229.583405 89.0 
229.609436 72.0 
229.618118 78.0 
229.626801 66.0 
229.635483 75.0 
229.644165 56.0 
229.657181 84.0 
229.674545 97.0 
229.687576 95.0 
229.704941 74.0 
229.717957 104.0 
229.726639 86.0 
229.748352 123.0 
229.757034 102.0 
229.774399 130.0 
229.813477 136.0 
229.822159 102.0 
229.839523 72.0 
229.856903 144.0 
229.869919 144.0 
229.88295 140.0 
229.909012 83.0 
229.922043 107.0 
229.939407 52.0 
229.969818 112.0 
230.000229 81.0 
230.026291 79.0 
230.056702 192.0 
230.065384 94.0 
230.074081 171.0 
230.100143 781.0 
230.117523 824.0 
230.139252 739.0 
230.16098 641.0 
230.187057 323.0 
230.200089 324.0 
230.230515 198.0 
230.256592 120.0 
230.273972 88.0 
230.287018 50.0 
230.300049 79.0 
230.326126 125.0 
230.339172 70.0 
230.356567 66.0 
230.365265 118.0 
230.382645 58.0 
230.395691 109.0 
230.413086 87.0 
230.421783 83.0 
230.430466 108.0 
230.443512 90.0 
230.460907 93.0 
230.469604 50.0 
230.487 66.0 
230.500046 40.0 
230.513092 67.0 
230.530487 89.0 
230.560928 83.0 
230.578323 51.0 
230.617477 82.0 
230.634872 82.0 
230.64357 90.0 
230.669678 90.0 
230.682724 109.0 
230.708832 130.0 
230.726227 90.0 
230.743637 85.0 
230.752335 76.0 
230.769745 56.0 
230.782791 52.0 
230.791489 69.0 
230.808899 49.0 
230.830658 87.0 
230.848068 30.0 
230.874176 105.0 
230.895935 46.0 
230.900299 46.0 
230.904648 46.0 
230.917709 41.0 
230.926407 38.0 
230.93512 42.0 
230.948166 49.0 
230.965576 51.0 
230.991699 61.0 
231.000412 46.0 
231.013474 67.0 
231.043945 163.0 
231.048294 163.0 
231.06572 387.0 
231.096191 3114.0 
231.113617 2955.0 
231.135376 2777.0 
231.161514 2160.0 
231.170227 1995.0 
231.187637 993.0 
231.209412 1152.0 
231.244263 241.0 
231.266037 186.0 
231.287811 154.0 
231.296524 135.0 
231.305237 128.0 
231.31395 120.0 
231.327026 103.0 
231.348801 86.0 
231.374954 106.0 
231.39238 84.0 
231.418518 109.0 
231.427231 139.0 
231.44902 83.0 
231.462097 69.0 
231.47081 123.0 
231.488235 85.0 
231.514389 139.0 
231.536179 122.0 
231.557968 170.0 
231.584122 69.0 
231.597198 53.0 
231.610275 58.0 
231.627716 66.0 
231.636429 48.0 
231.649506 55.0 
231.666946 69.0 
231.684387 71.0 
231.693115 67.0 
231.710541 108.0 
231.723633 64.0 
231.741074 61.0 
231.758514 51.0 
231.771591 72.0 
231.780319 74.0 
231.784668 74.0 
231.793396 64.0 
231.802124 71.0 
231.823929 85.0 
231.845734 75.0 
231.863174 56.0 
231.884979 81.0 
231.893707 81.0 
231.915512 108.0 
231.932968 70.0 
231.941681 92.0 
231.959137 112.0 
231.985306 118.0 
232.01149 89.0 
232.028946 100.0 
232.055115 103.0 
232.072571 149.0 
232.098755 512.0 
232.116211 736.0 
232.142395 580.0 
232.155487 444.0 
232.168579 528.0 
232.194763 262.0 
232.207855 205.0 
232.220947 210.0 
232.234055 124.0 
232.255875 122.0 
232.273331 78.0 
232.290802 54.0 
232.303894 56.0 
232.334457 86.0 
232.343185 71.0 
232.360641 57.0 
232.382477 69.0 
232.41304 62.0 
232.430511 52.0 
232.447983 81.0 
232.456711 66.0 
232.487289 96.0 
232.500381 67.0 
232.509125 58.0 
232.522217 55.0 
232.53096 92.0 
232.552795 50.0 
232.561539 40.0 
232.574646 60.0 
232.57901 60.0 
232.596481 54.0 
232.609589 47.0 
232.62706 100.0 
232.640167 66.0 
232.653275 86.0 
232.679489 93.0 
232.688217 89.0 
232.718811 87.0 
232.736282 60.0 
232.762512 66.0 
232.779984 55.0 
232.806213 51.0 
232.819321 79.0 
232.849915 69.0 
232.863022 90.0 
232.897995 56.0 
232.902359 56.0 
232.919846 42.0 
232.932968 38.0 
232.959198 80.0 
232.976685 56.0 
232.989792 57.0 
233.007294 45.0 
233.020401 90.0 
233.033524 40.0 
233.107864 7067.0 
233.125351 7160.0 
233.142853 6346.0 
233.151596 6287.0 
233.217194 554.0 
233.239075 348.0 
233.247818 353.0 
233.256577 283.0 
233.26532 268.0 
233.278442 288.0 
233.300323 207.0 
233.313446 195.0 
233.326569 201.0 
233.357193 130.0 
233.379074 142.0 
233.392197 104.0 
233.400955 99.0 
233.418457 85.0 
233.43158 99.0 
233.444717 85.0 
233.453461 103.0 
233.475342 145.0 
233.492859 121.0 
233.501602 107.0 
233.51474 176.0 
233.527878 156.0 
233.549759 150.0 
233.567261 80.0 
233.589157 130.0 
233.602295 76.0 
233.611038 58.0 
233.632935 76.0 
233.650452 101.0 
233.676712 97.0 
233.681091 97.0 
233.68985 114.0 
233.698608 103.0 
233.720505 75.0 
233.738022 64.0 
233.755539 77.0 
233.768677 79.0 
233.781815 91.0 
233.790573 84.0 
233.816849 109.0 
233.834366 122.0 
233.856262 107.0 
233.878174 73.0 
233.886932 62.0 
233.895691 68.0 
233.904449 79.0 
233.921982 62.0 
233.93512 71.0 
233.948257 53.0 
233.974548 99.0 
233.987686 71.0 
234.018356 74.0 
234.031509 63.0 
234.053421 48.0 
234.066559 145.0 
234.075333 181.0 
234.097244 616.0 
234.123535 1493.0 
234.141068 1183.0 
234.154221 1582.0 
234.162979 1241.0 
234.228729 160.0 
234.250656 137.0 
234.2901 128.0 
234.316406 76.0 
234.32518 66.0 
234.338333 134.0 
234.364639 114.0 
234.377808 77.0 
234.39534 69.0 
234.417267 68.0 
234.43042 58.0 
234.443573 104.0 
234.452347 73.0 
234.461121 60.0 
234.487442 67.0 
234.500595 58.0 
234.518143 82.0 
234.531296 62.0 
234.548843 79.0 
234.562012 76.0 
234.570786 53.0 
234.579559 49.0 
234.592712 71.0 
234.605881 72.0 
234.640976 92.0 
234.658524 52.0 
234.667297 68.0 
234.680466 72.0 
234.693634 58.0 
234.715576 54.0 
234.72435 77.0 
234.741898 40.0 
234.755066 61.0 
234.772629 55.0 
234.803345 63.0 
234.816513 60.0 
234.829681 57.0 
234.838455 63.0 
234.847229 47.0 
234.856018 42.0 
234.873581 75.0 
234.891129 77.0 
234.917465 53.0 
234.930649 67.0 
234.939423 86.0 
234.956985 45.0 
234.970154 94.0 
234.983322 57.0 
235.014069 25.0 
235.036026 57.0 
235.097504 7259.0 
235.123856 9175.0 
235.141418 8217.0 
235.172165 4726.0 
235.268814 390.0 
235.295166 262.0 
235.30835 287.0 
235.330322 137.0 
235.352295 135.0 
235.361084 134.0 
235.391846 131.0 
235.413818 150.0 
235.418213 150.0 
235.44458 159.0 
235.462158 93.0 
235.475342 150.0 
235.492935 74.0 
235.501724 75.0 
235.514908 119.0 
235.523697 115.0 
235.541275 91.0 
235.558868 113.0 
235.572052 101.0 
235.589645 103.0 
235.602829 105.0 
235.629211 108.0 
235.642395 130.0 
235.659988 80.0 
235.673172 117.0 
235.681976 100.0 
235.690765 85.0 
235.69516 85.0 
235.721542 87.0 
235.734741 91.0 
235.74353 78.0 
235.752335 95.0 
235.761124 92.0 
235.774323 91.0 
235.783112 75.0 
235.79631 73.0 
235.818298 91.0 
235.844696 110.0 
235.857895 98.0 
235.871094 94.0 
235.884293 127.0 
235.897491 78.0 
235.91069 112.0 
235.937073 151.0 
235.959076 71.0 
235.972275 101.0 
235.989883 104.0 
236.016281 119.0 
236.020676 119.0 
236.033875 70.0 
236.047089 76.0 
236.060287 125.0 
236.09549 958.0 
236.104294 962.0 
236.117493 804.0 
236.135101 1351.0 
236.148315 1366.0 
236.170319 688.0 
236.179123 635.0 
236.201126 353.0 
236.240753 192.0 
236.258362 96.0 
236.27597 121.0 
236.302383 70.0 
236.315598 133.0 
236.320007 133.0 
236.328812 54.0 
236.34642 124.0 
236.359634 88.0 
236.368439 76.0 
236.377243 73.0 
236.381653 73.0 
236.390457 66.0 
236.403671 79.0 
236.42128 71.0 
236.430099 72.0 
236.447708 61.0 
236.460922 84.0 
236.478546 134.0 
236.49176 65.0 
236.509384 116.0 
236.540207 103.0 
236.56665 91.0 
236.588669 121.0 
236.606293 82.0 
236.619507 99.0 
236.632736 70.0 
236.65036 69.0 
236.663574 62.0 
236.672394 43.0 
236.685608 80.0 
236.703232 33.0 
236.720856 50.0 
236.729675 51.0 
236.742905 54.0 
236.760529 49.0 
236.773743 61.0 
236.786972 69.0 
236.800201 74.0 
236.813416 85.0 
236.831055 91.0 
236.844269 128.0 
236.875137 131.0 
236.897171 47.0 
236.9104 76.0 
236.936844 86.0 
236.958893 63.0 
236.972122 56.0 
236.989761 43.0 
236.998581 53.0 
237.02504 71.0 
237.038269 41.0 
237.108826 5620.0 
237.13089 4362.0 
237.157349 7494.0 
237.188232 3209.0 
237.201462 3152.0 
237.232346 725.0 
237.272049 307.0 
237.280869 263.0 
237.294113 346.0 
237.329407 183.0 
237.342651 158.0 
237.355881 132.0 
237.373535 146.0 
237.38678 120.0 
237.408844 174.0 
237.435318 188.0 
237.439743 188.0 
237.461807 111.0 
237.483871 122.0 
237.505951 97.0 
237.51918 95.0 
237.532425 102.0 
237.54567 119.0 
237.563339 94.0 
237.576584 91.0 
237.594238 124.0 
237.611893 153.0 
237.620728 124.0 
237.633972 139.0 
237.660461 101.0 
237.669296 91.0 
237.686966 73.0 
237.71788 60.0 
237.74437 115.0 
237.770874 101.0 
237.784119 140.0 
237.801788 90.0 
237.828293 152.0 
237.850372 100.0 
237.863632 74.0 
237.881302 51.0 
237.898972 78.0 
237.916641 86.0 
237.947571 108.0 
237.956406 88.0 
237.974091 88.0 
238.00502 91.0 
238.013855 68.0 
238.031525 89.0 
238.071304 204.0 
238.111084 910.0 
238.119919 890.0 
238.159698 1247.0 
238.199478 621.0 
238.217163 354.0 
238.252533 152.0 
238.283478 89.0 
238.301163 103.0 
238.318863 67.0 
238.332123 77.0 
238.363083 86.0 
238.389618 120.0 
238.411728 106.0 
238.420563 109.0 
238.429413 104.0 
238.438263 106.0 
238.451523 90.0 
238.464798 70.0 
238.486908 56.0 
238.500183 93.0 
238.509033 78.0 
238.522308 52.0 
238.553268 60.0 
238.566544 71.0 
238.584244 64.0 
238.593079 72.0 
238.610779 122.0 
238.628479 71.0 
238.646179 63.0 
238.659454 97.0 
238.672729 56.0 
238.69043 76.0 
238.70813 95.0 
238.71698 88.0 
238.72583 77.0 
238.752396 70.0 
238.774521 55.0 
238.783371 67.0 
238.801071 55.0 
238.809921 74.0 
238.840912 74.0 
238.849762 81.0 
238.871902 94.0 
238.889603 53.0 
238.898468 54.0 
238.916168 54.0 
238.929459 67.0 
238.947159 80.0 
238.973724 108.0 
238.99144 150.0 
239.02243 177.0 
239.071152 430.0 
239.097717 3240.0 
239.115448 2538.0 
239.133163 4965.0 
239.17746 6709.0 
239.204025 4356.0 
239.226181 2097.0 
239.270493 496.0 
239.301498 291.0 
239.314789 300.0 
239.341385 264.0 
239.372406 126.0 
239.390121 160.0 
239.398987 137.0 
239.412292 114.0 
239.434448 138.0 
239.443314 124.0 
239.478775 77.0 
239.492065 110.0 
239.527527 120.0 
239.545258 112.0 
239.554123 77.0 
239.562988 98.0 
239.576294 71.0 
239.594025 80.0 
239.60289 71.0 
239.620636 77.0 
239.638367 93.0 
239.664978 93.0 
239.673843 97.0 
239.691574 102.0 
239.722626 82.0 
239.731491 69.0 
239.740356 62.0 
239.753662 75.0 
239.762543 102.0 
239.780273 76.0 
239.789154 86.0 
239.815765 95.0 
239.833496 93.0 
239.864548 100.0 
239.873428 95.0 
239.90004 104.0 
239.922226 84.0 
239.939972 56.0 
239.953278 57.0 
239.966599 78.0 
239.975464 88.0 
239.993225 65.0 
240.006531 107.0 
240.033157 74.0 
240.050903 67.0 
240.07753 208.0 
240.104156 704.0 
240.117477 482.0 
240.139664 1096.0 
240.157425 749.0 
240.175186 2064.0 
240.201813 1314.0 
240.228455 935.0 
240.246216 248.0 
240.272842 144.0 
240.299484 78.0 
240.312805 108.0 
240.326126 81.0 
240.343887 103.0 
240.366089 109.0 
240.392746 90.0 
240.414948 69.0 
240.441589 86.0 
240.463806 62.0 
240.472687 66.0 
240.481567 91.0 
240.494888 69.0 
240.512665 85.0 
240.521545 80.0 
240.539322 83.0 
240.552643 79.0 
240.570419 71.0 
240.588181 52.0 
240.605957 113.0 
240.614838 75.0 
240.650391 140.0 
240.677048 95.0 
240.694824 44.0 
240.708145 71.0 
240.725922 80.0 
240.743698 97.0 
240.757034 86.0 
240.783707 96.0 
240.797043 67.0 
240.810379 71.0 
240.823715 89.0 
240.837036 50.0 
240.850372 44.0 
240.868164 59.0 
240.877045 56.0 
240.885941 44.0 
240.899277 91.0 
240.917068 62.0 
240.943741 82.0 
240.957077 66.0 
240.974854 49.0 
240.988205 68.0 
241.010437 53.0 
241.023773 70.0 
241.041565 61.0 
241.081589 1474.0 
241.094925 1569.0 
241.117157 3824.0 
241.15274 3882.0 
241.183884 3878.0 
241.215027 1945.0 
241.277313 300.0 
241.308456 167.0 
241.321793 217.0 
241.348495 162.0 
241.357391 168.0 
241.397446 168.0 
241.415253 108.0 
241.433044 89.0 
241.446396 92.0 
241.459763 126.0 
241.477554 108.0 
241.486465 114.0 
241.495361 137.0 
241.52652 135.0 
241.548782 51.0 
241.562134 99.0 
241.566589 99.0 
241.593292 84.0 
241.606659 106.0 
241.624466 111.0 
241.642273 72.0 
241.651184 91.0 
241.673447 113.0 
241.695709 59.0 
241.713516 121.0 
241.731339 91.0 
241.740234 118.0 
241.749146 164.0 
241.775864 184.0 
241.78923 123.0 
241.807037 97.0 
241.82486 89.0 
241.842682 66.0 
241.856049 97.0 
241.882767 86.0 
241.891678 62.0 
241.9095 83.0 
241.918411 86.0 
241.936234 82.0 
241.9496 54.0 
241.962967 96.0 
241.980789 60.0 
242.003067 69.0 
242.011978 75.0 
242.020889 83.0 
242.034256 70.0 
242.052078 95.0 
242.069901 205.0 
242.092178 297.0 
242.118927 818.0 
242.159042 849.0 
242.190247 778.0 
242.221451 454.0 
242.234818 395.0 
242.257111 169.0 
242.274948 133.0 
242.288315 145.0 
242.310608 93.0 
242.319534 111.0 
242.328445 114.0 
242.346283 56.0 
242.373032 82.0 
242.390869 102.0 
242.417633 97.0 
242.439926 95.0 
242.457764 92.0 
242.471146 89.0 
242.488983 78.0 
242.502365 76.0 
242.511292 111.0 
242.515747 111.0 
242.5336 68.0 
242.542511 55.0 
242.569275 56.0 
242.596054 72.0 
242.622818 61.0 
242.631744 81.0 
242.6362 81.0 
242.649582 49.0 
242.662979 56.0 
242.680817 96.0 
242.698669 78.0 
242.720978 64.0 
242.747757 63.0 
242.761139 58.0 
242.787918 55.0 
242.801315 73.0 
242.823624 59.0 
242.850403 74.0 
242.859329 70.0 
242.877197 57.0 
242.903976 69.0 
242.917374 49.0 
242.944153 73.0 
242.962006 48.0 
242.975403 76.0 
243.011124 79.0 
243.028992 66.0 
243.042389 80.0 
243.051315 83.0 
243.095963 4893.0 
243.131699 5591.0 
243.162964 3189.0 
243.194229 1718.0 
243.203156 1698.0 
243.234436 662.0 
243.26123 411.0 
243.274643 251.0 
243.305908 205.0 
243.337189 204.0 
243.355057 110.0 
243.377396 146.0 
243.395279 106.0 
243.413147 139.0 
243.426559 147.0 
243.435501 131.0 
243.448898 74.0 
243.45784 98.0 
243.471252 88.0 
243.480194 81.0 
243.502533 100.0 
243.511475 58.0 
243.529358 100.0 
243.547226 116.0 
243.578522 108.0 
243.587463 81.0 
243.62323 74.0 
243.645584 141.0 
243.658997 65.0 
243.672409 119.0 
243.67688 119.0 
243.690292 114.0 
243.703705 137.0 
243.739487 82.0 
243.748428 78.0 
243.770782 72.0 
243.779724 66.0 
243.797623 117.0 
243.819977 124.0 
243.833405 127.0 
243.842346 97.0 
243.869186 91.0 
243.873657 91.0 
243.900497 98.0 
243.909439 88.0 
243.94075 88.0 
243.949707 58.0 
243.981018 51.0 
243.985489 51.0 
243.998917 28.0 
244.016815 58.0 
244.025757 68.0 
244.034714 42.0 
244.052612 138.0 
244.101837 1287.0 
244.110779 1058.0 
244.133163 1118.0 
244.155533 687.0 
244.16449 640.0 
244.173431 560.0 
244.200287 361.0 
244.218201 352.0 
244.236099 144.0 
244.249527 126.0 
244.276398 128.0 
244.321167 87.0 
244.339066 97.0 
244.343552 97.0 
244.36145 75.0 
244.388321 118.0 
244.406235 72.0 
244.419662 88.0 
244.437576 104.0 
244.464447 48.0 
244.47789 75.0 
244.500275 69.0 
244.522675 74.0 
244.536102 49.0 
244.558502 37.0 
244.576416 49.0 
244.598816 79.0 
244.630173 93.0 
244.643616 56.0 
244.652573 69.0 
244.666016 51.0 
244.674988 72.0 
244.706345 83.0 
244.719788 42.0 
244.742188 86.0 
244.75116 68.0 
244.769073 44.0 
244.782516 47.0 
244.795959 47.0 
244.809402 59.0 
244.818375 56.0 
244.827332 67.0 
244.836304 74.0 
244.86319 106.0 
244.876633 62.0 
244.885605 77.0 
244.894562 82.0 
244.912491 48.0 
244.925949 50.0 
244.934906 40.0 
244.952835 74.0 
244.984222 102.0 
245.002151 56.0 
245.011124 70.0 
245.029053 83.0 
245.078384 948.0 
245.114258 3856.0 
245.123215 3971.0 
245.154617 2959.0 
245.208435 903.0 
245.239838 472.0 
245.266739 246.0 
245.284683 191.0 
245.298141 153.0 
245.320572 122.0 
245.347488 118.0 
245.360962 77.0 
245.37442 135.0 
245.383392 128.0 
245.392365 107.0 
245.405823 105.0 
245.423767 99.0 
245.437241 90.0 
245.450699 79.0 
245.455185 79.0 
245.464157 72.0 
245.477615 78.0 
245.509033 53.0 
245.526993 58.0 
245.549423 59.0 
245.567383 62.0 
245.576355 50.0 
245.594315 84.0 
245.607788 53.0 
245.625732 89.0 
245.639206 119.0 
245.679611 67.0 
245.706543 81.0 
245.73349 64.0 
245.755936 66.0 
245.764923 68.0 
245.782883 59.0 
245.791855 70.0 
245.80983 56.0 
245.823303 58.0 
245.836777 57.0 
245.85025 72.0 
245.877197 89.0 
245.904144 79.0 
245.931091 102.0 
245.953552 51.0 
245.967026 61.0 
245.985001 69.0 
245.993973 70.0 
246.007462 62.0 
246.029922 69.0 
246.03891 67.0 
246.074844 190.0 
246.083832 250.0 
246.092819 238.0 
246.101807 288.0 
246.124283 963.0 
246.146744 591.0 
246.155731 637.0 
246.16922 544.0 
246.187195 386.0 
246.200668 213.0 
246.218658 336.0 
246.236633 142.0 
246.245621 157.0 
246.259109 174.0 
246.281586 98.0 
246.290573 84.0 
246.299561 102.0 
246.313049 73.0 
246.326523 70.0 
246.344513 42.0 
246.362488 49.0 
246.37149 45.0 
246.384979 47.0 
246.402954 54.0 
246.420944 94.0 
246.44342 61.0 
246.456909 88.0 
246.483902 69.0 
246.501877 49.0 
246.515381 44.0 
246.524368 49.0 
246.54686 61.0 
246.56485 39.0 
246.587341 62.0 
246.60083 44.0 
246.614319 66.0 
246.627823 73.0 
246.645813 60.0 
246.659302 78.0 
246.690796 99.0 
246.717789 62.0 
246.726791 55.0 
246.735794 70.0 
246.753784 75.0 
246.780777 141.0 
246.798782 107.0 
246.812286 42.0 
246.825775 99.0 
246.843781 55.0 
246.852783 52.0 
246.866287 74.0 
246.884277 60.0 
246.897781 68.0 
246.915787 75.0 
246.924789 49.0 
246.938293 77.0 
246.969803 76.0 
246.978806 74.0 
246.996811 104.0 
247.019318 167.0 
247.023819 167.0 
247.050827 328.0 
247.07785 751.0 
247.113861 2207.0 
247.136383 3537.0 
247.17691 2320.0 
247.199417 829.0 
247.22644 295.0 
247.248962 206.0 
247.271484 135.0 
247.284988 178.0 
247.30751 128.0 
247.334549 154.0 
247.348053 103.0 
247.366074 113.0 
247.406616 83.0 
247.420135 78.0 
247.438156 94.0 
247.451675 67.0 
247.465195 68.0 
247.478714 96.0 
247.496735 61.0 
247.514755 118.0 
247.528275 96.0 
247.537292 65.0 
247.55983 95.0 
247.573349 58.0 
247.595886 63.0 
247.613907 74.0 
247.645462 129.0 
247.667999 55.0 
247.695038 92.0 
247.722092 73.0 
247.73111 93.0 
247.758163 66.0 
247.780701 81.0 
247.789719 59.0 
247.812271 89.0 
247.830307 64.0 
247.852844 64.0 
247.861862 58.0 
247.879898 75.0 
247.906967 93.0 
247.915985 96.0 
247.925003 94.0 
247.956573 90.0 
247.96109 90.0 
247.970108 64.0 
247.983643 82.0 
248.015213 100.0 
248.037766 75.0 
248.060318 100.0 
248.082886 200.0 
248.100922 520.0 
248.132507 587.0 
248.146042 933.0 
248.173111 513.0 
248.182144 513.0 
248.191162 413.0 
248.204697 310.0 
248.231781 162.0 
248.249832 136.0 
248.263367 90.0 
248.276917 56.0 
248.290451 80.0 
248.303986 72.0 
248.322037 79.0 
248.33107 72.0 
248.349121 118.0 
248.380722 88.0 
248.398788 73.0 
248.421356 81.0 
248.439407 43.0 
248.457474 70.0 
248.498108 109.0 
248.511658 61.0 
248.520676 71.0 
248.543259 87.0 
248.556808 43.0 
248.565842 59.0 
248.606491 55.0 
248.647125 86.0 
248.660675 42.0 
248.687775 66.0 
248.70134 71.0 
248.723923 51.0 
248.741989 38.0 
248.751022 37.0 
248.760056 36.0 
248.764572 36.0 
248.778122 61.0 
248.796204 59.0 
248.818787 56.0 
248.841385 121.0 
248.854935 49.0 
248.873016 64.0 
248.88205 55.0 
248.891083 52.0 
248.904648 46.0 
248.913681 33.0 
248.922714 28.0 
248.936279 48.0 
248.958878 50.0 
248.976944 81.0 
248.985992 112.0 
249.013107 110.0 
249.044754 111.0 
249.112564 4181.0 
249.153244 5682.0 
249.193939 3183.0 
249.221069 926.0 
249.257248 326.0 
249.284378 242.0 
249.297943 234.0 
249.329605 147.0 
249.347702 122.0 
249.370316 101.0 
249.397446 98.0 
249.411026 93.0 
249.429108 111.0 
249.438156 118.0 
249.451736 115.0 
249.47435 85.0 
249.483398 93.0 
249.506027 101.0 
249.519592 70.0 
249.537689 106.0 
249.555786 94.0 
249.573898 135.0 
249.601044 127.0 
249.610092 90.0 
249.623672 110.0 
249.641769 101.0 
249.65535 106.0 
249.66893 73.0 
249.687027 103.0 
249.714188 86.0 
249.727768 81.0 
249.750397 64.0 
249.759445 76.0 
249.777557 85.0 
249.791138 76.0 
249.79567 76.0 
249.836411 130.0 
249.881683 91.0 
249.890747 64.0 
249.904327 48.0 
249.92244 107.0 
249.954132 71.0 
249.972244 85.0 
249.98584 84.0 
250.003952 88.0 
250.013016 85.0 
250.031128 109.0 
250.04924 97.0 
250.058304 75.0 
250.08548 341.0 
250.094543 349.0 
250.108124 481.0 
250.126251 970.0 
250.157959 1519.0 
250.19873 791.0 
250.230453 137.0 
250.248566 140.0 
250.284821 84.0 
250.30748 97.0 
250.325607 84.0 
250.348267 92.0 
250.366394 65.0 
250.37999 49.0 
250.389053 61.0 
250.402649 66.0 
250.411713 78.0 
250.425323 52.0 
250.447983 108.0 
250.457047 71.0 
250.479706 102.0 
250.488785 120.0 
250.511444 53.0 
250.529587 67.0 
250.543182 53.0 
250.574921 63.0 
250.593048 54.0 
250.620255 65.0 
250.629333 61.0 
250.647476 35.0 
250.65654 40.0 
250.674683 78.0 
250.697357 98.0 
250.7155 52.0 
250.729095 38.0 
250.742706 48.0 
250.765381 60.0 
250.792603 56.0 
250.801666 50.0 
250.815277 69.0 
250.847031 35.0 
250.860641 49.0 
250.878799 76.0 
250.89241 60.0 
250.924164 70.0 
250.937775 80.0 
250.960464 50.0 
250.978607 84.0 
251.005844 54.0 
251.023987 80.0 
251.033066 55.0 
251.042145 55.0 
251.12384 8265.0 
251.132919 7763.0 
251.160156 6909.0 
251.173767 7383.0 
251.205551 3556.0 
251.260025 631.0 
251.300888 318.0 
251.314514 264.0 
251.346298 210.0 
251.37355 151.0 
251.391708 125.0 
251.405334 153.0 
251.418961 167.0 
251.441666 180.0 
251.455292 126.0 
251.464386 133.0 
251.473465 127.0 
251.482559 159.0 
251.500717 114.0 
251.514343 141.0 
251.527969 123.0 
251.546143 148.0 
251.57341 178.0 
251.587036 81.0 
251.596115 96.0 
251.62793 106.0 
251.637009 76.0 
251.655182 106.0 
251.686996 115.0 
251.700623 122.0 
251.723343 83.0 
251.736984 76.0 
251.75061 107.0 
251.782425 122.0 
251.791519 133.0 
251.796066 133.0 
251.809708 97.0 
251.823334 139.0 
251.836975 103.0 
251.850616 127.0 
251.864243 86.0 
251.86879 86.0 
251.877884 102.0 
251.891525 70.0 
251.914246 141.0 
251.932434 89.0 
251.946075 104.0 
251.959717 90.0 
251.973358 160.0 
252.000641 112.0 
252.018829 85.0 
252.046112 98.0 
252.064301 86.0 
252.082489 342.0 
252.100677 809.0 
252.123413 1598.0 
252.13707 1398.0 
252.146164 1375.0 
252.1689 1863.0 
252.214386 1243.0 
252.255325 268.0 
252.282623 156.0 
252.300827 126.0 
252.341766 107.0 
252.350876 92.0 
252.364517 99.0 
252.382721 108.0 
252.423676 123.0 
252.432785 122.0 
252.455536 106.0 
252.469193 118.0 
252.478287 105.0 
252.491943 122.0 
252.514709 113.0 
252.53746 56.0 
252.555664 79.0 
252.57843 86.0 
252.596634 76.0 
252.610291 66.0 
252.6194 79.0 
252.637604 74.0 
252.646713 105.0 
252.664932 71.0 
252.678589 148.0 
252.687698 100.0 
252.692245 100.0 
252.710464 102.0 
252.733231 117.0 
252.746887 92.0 
252.760544 78.0 
252.778763 76.0 
252.801529 56.0 
252.828857 72.0 
252.837967 64.0 
252.851639 65.0 
252.860748 61.0 
252.869858 57.0 
252.892624 118.0 
252.919952 107.0 
252.933624 71.0 
252.960953 77.0 
252.970062 82.0 
252.983734 77.0 
253.001953 135.0 
253.015625 68.0 
253.029297 75.0 
253.047516 145.0 
253.102203 4932.0 
253.120422 4293.0 
253.147766 4988.0 
253.188782 4307.0 
253.22525 2484.0 
253.316422 241.0 
253.334656 243.0 
253.362 220.0 
253.380249 139.0 
253.389359 139.0 
253.403046 112.0 
253.412155 108.0 
253.425842 132.0 
253.434967 133.0 
253.448639 98.0 
253.462326 111.0 
253.475998 97.0 
253.489685 100.0 
253.507919 143.0 
253.517044 128.0 
253.526169 130.0 
253.544403 148.0 
253.571777 114.0 
253.590012 103.0 
253.608261 82.0 
253.617386 90.0 
253.631073 80.0 
253.658447 101.0 
253.681259 80.0 
253.699493 118.0 
253.717743 101.0 
253.749695 146.0 
253.777069 74.0 
253.786194 88.0 
253.809006 58.0 
253.831818 83.0 
253.854645 112.0 
253.872894 80.0 
253.895721 108.0 
253.904846 109.0 
253.918533 81.0 
253.932236 88.0 
253.964172 154.0 
253.977875 77.0 
253.991562 80.0 
254.000702 110.0 
254.014389 131.0 
254.028091 145.0 
254.064606 128.0 
254.078308 300.0 
254.105698 953.0 
254.114838 814.0 
254.123962 971.0 
254.151367 945.0 
254.16507 701.0 
254.192459 1152.0 
254.215302 670.0 
254.219864 670.0 
254.229004 533.0 
254.242691 489.0 
254.270096 132.0 
254.283798 182.0 
254.320343 135.0 
254.347748 62.0 
254.366028 125.0 
254.37973 86.0 
254.384293 86.0 
254.39801 80.0 
254.407135 61.0 
254.425415 78.0 
254.443695 51.0 
254.452835 40.0 
254.457397 40.0 
254.475677 74.0 
254.48938 68.0 
254.50766 100.0 
254.521362 87.0 
254.530502 83.0 
254.54422 92.0 
254.557922 126.0 
254.585342 101.0 
254.6082 69.0 
254.640198 82.0 
254.649338 99.0 
254.681335 108.0 
254.699615 125.0 
254.713333 94.0 
254.722473 73.0 
254.740753 98.0 
254.768188 64.0 
254.795624 95.0 
254.804764 94.0 
254.841339 84.0 
254.873352 75.0 
254.891647 77.0 
254.905365 33.0 
254.919083 54.0 
254.9328 74.0 
254.951096 49.0 
254.960236 68.0 
254.978531 83.0 
255.005981 54.0 
255.019699 54.0 
255.037994 83.0 
255.065445 360.0 
255.129486 5732.0 
255.156952 4501.0 
255.19812 2148.0 
255.243881 803.0 
255.253036 565.0 
255.280487 300.0 
255.303375 219.0 
255.321686 140.0 
255.330841 147.0 
255.344574 177.0 
255.376602 121.0 
255.385757 133.0 
255.39949 125.0 
255.413223 132.0 
255.426956 122.0 
255.440689 125.0 
255.449844 125.0 
255.463577 121.0 
255.472733 126.0 
255.495636 65.0 
255.513947 101.0 
255.541412 91.0 
255.555161 93.0 
255.568893 59.0 
255.582626 135.0 
255.587204 135.0 
255.596359 105.0 
255.614685 124.0 
255.642166 150.0 
255.669632 114.0 
255.68338 76.0 
255.697113 94.0 
255.710861 150.0 
255.738342 80.0 
255.761246 93.0 
255.774994 63.0 
255.79332 81.0 
255.802475 110.0 
255.825378 98.0 
255.839127 69.0 
255.852875 103.0 
255.871201 97.0 
255.894104 94.0 
255.907852 77.0 
255.926178 80.0 
255.935349 85.0 
255.949097 105.0 
255.972 105.0 
255.999496 93.0 
256.02243 176.0 
256.045319 73.0 
256.068237 178.0 
256.086578 450.0 
256.104919 1259.0 
256.118683 1370.0 
256.132416 1250.0 
256.141602 1097.0 
256.159912 1290.0 
256.187439 452.0 
256.210358 713.0 
256.237854 327.0 
256.256195 221.0 
256.2883 116.0 
256.292877 116.0 
256.311218 111.0 
256.334167 128.0 
256.357086 86.0 
256.380035 105.0 
256.407532 99.0 
256.421295 87.0 
256.430481 72.0 
256.4534 96.0 
256.462585 84.0 
256.476349 71.0 
256.490112 89.0 
256.508453 81.0 
256.531403 86.0 
256.545166 71.0 
256.568085 114.0 
256.586456 95.0 
256.595612 96.0 
256.618561 55.0 
256.636932 75.0 
256.650696 51.0 
256.659851 62.0 
256.678223 64.0 
256.696564 46.0 
256.714935 60.0 
256.728699 81.0 
256.737885 53.0 
256.756226 91.0 
256.769989 83.0 
256.783783 51.0 
256.792938 52.0 
256.806732 65.0 
256.838867 42.0 
256.861816 67.0 
256.884766 52.0 
256.893951 47.0 
256.903137 49.0 
256.926086 93.0 
256.958221 66.0 
256.971985 59.0 
256.976593 59.0 
256.985779 65.0 
257.013306 132.0 
257.031677 107.0 
257.06842 391.0 
257.114349 3407.0 
257.146515 3618.0 
257.215393 1325.0 
257.229187 938.0 
257.242981 541.0 
257.256744 359.0 
257.270538 312.0 
257.279724 303.0 
257.316467 192.0 
257.334869 136.0 
257.348633 129.0 
257.362427 186.0 
257.376221 143.0 
257.385406 102.0 
257.3992 113.0 
257.417572 106.0 
257.426758 100.0 
257.445129 82.0 
257.477325 113.0 
257.504883 131.0 
257.523285 75.0 
257.537079 83.0 
257.569244 73.0 
257.57843 83.0 
257.587646 126.0 
257.619812 111.0 
257.652008 74.0 
257.674988 81.0 
257.697968 85.0 
257.707184 92.0 
257.711761 92.0 
257.734772 79.0 
257.76236 87.0 
257.780762 49.0 
257.794556 125.0 
257.831329 120.0 
257.863525 59.0 
257.877319 56.0 
257.886536 46.0 
257.895721 69.0 
257.90033 69.0 
257.918732 85.0 
257.927917 68.0 
257.937134 82.0 
257.94632 73.0 
257.960144 109.0 
257.96933 96.0 
258.001526 106.0 
258.019928 59.0 
258.03833 74.0 
258.075165 117.0 
258.121185 770.0 
258.139587 847.0 
258.148773 851.0 
258.15799 595.0 
258.167175 726.0 
258.181 606.0 
258.199402 745.0 
258.22702 366.0 
258.240845 310.0 
258.273041 103.0 
258.286865 81.0 
258.305267 99.0 
258.337494 75.0 
258.34671 93.0 
258.36972 64.0 
258.378937 65.0 
258.401947 86.0 
258.42038 64.0 
258.438782 85.0 
258.461823 71.0 
258.484833 123.0 
258.512482 113.0 
258.535492 82.0 
258.553925 108.0 
258.576965 58.0 
258.590759 55.0 
258.599976 45.0 
258.609192 47.0 
258.627625 76.0 
258.646057 66.0 
258.659851 80.0 
258.6875 89.0 
258.696716 76.0 
258.710541 105.0 
258.742798 112.0 
258.770447 63.0 
258.784271 91.0 
258.807312 74.0 
258.816528 73.0 
258.825745 94.0 
258.848785 81.0 
258.858002 83.0 
258.871826 50.0 
258.885651 58.0 
258.904083 46.0 
258.917908 52.0 
258.93634 47.0 
258.963989 65.0 
258.996246 75.0 
259.014709 61.0 
259.033142 48.0 
259.042358 51.0 
259.093079 1564.0 
259.120728 3059.0 
259.143799 4381.0 
259.171448 2925.0 
259.236023 452.0 
259.254456 219.0 
259.268311 265.0 
259.282135 157.0 
259.300598 148.0 
259.314423 127.0 
259.328247 140.0 
259.337494 156.0 
259.351318 133.0 
259.365173 88.0 
259.378998 102.0 
259.392853 80.0 
259.406677 70.0 
259.420532 73.0 
259.429749 75.0 
259.434357 75.0 
259.448212 107.0 
259.462036 87.0 
259.475891 92.0 
259.485107 74.0 
259.494324 69.0 
259.508179 49.0 
259.522034 58.0 
259.540497 93.0 
259.568176 75.0 
259.591248 64.0 
259.609711 125.0 
259.63739 70.0 
259.660461 112.0 
259.702026 67.0 
259.72049 69.0 
259.743561 79.0 
259.757416 77.0 
259.775879 92.0 
259.785095 102.0 
259.803558 85.0 
259.817413 70.0 
259.82666 79.0 
259.849731 50.0 
259.858978 50.0 
259.872833 68.0 
259.895905 60.0 
259.923615 65.0 
259.942108 68.0 
259.955963 57.0 
259.965179 65.0 
259.988281 85.0 
259.997528 88.0 
260.015991 102.0 
260.039093 68.0 
260.057556 81.0 
260.089905 257.0 
260.113007 534.0 
260.140717 795.0 
260.173035 686.0 
260.200775 409.0 
260.223877 193.0 
260.233124 187.0 
260.24234 135.0 
260.260834 131.0 
260.283936 98.0 
260.302429 93.0 
260.33017 83.0 
260.339386 66.0 
260.371765 76.0 
260.390228 66.0 
260.394867 66.0 
260.413361 81.0 
260.422607 64.0 
260.436462 63.0 
260.459564 47.0 
260.478058 34.0 
260.487305 49.0 
260.50119 43.0 
260.505798 43.0 
260.519684 130.0 
260.538177 64.0 
260.565918 137.0 
260.579773 66.0 
260.602905 62.0 
260.639893 104.0 
260.658386 74.0 
260.667633 57.0 
260.681519 64.0 
260.700012 66.0 
260.723145 64.0 
260.727753 64.0 
260.741638 55.0 
260.750885 57.0 
260.783264 62.0 
260.806396 49.0 
260.829529 59.0 
260.843384 78.0 
260.861908 73.0 
260.871155 67.0 
260.88504 101.0 
260.908173 49.0 
260.917419 47.0 
260.926666 63.0 
260.940552 31.0 
260.959045 58.0 
260.97757 58.0 
260.991455 66.0 
261.009949 58.0 
261.019226 65.0 
261.046967 102.0 
261.056244 74.0 
261.107147 13784.0 
261.144165 12039.0 
261.19046 3184.0 
261.199707 2753.0 
261.241394 712.0 
261.283051 484.0 
261.329346 237.0 
261.371033 151.0 
261.384918 122.0 
261.398804 170.0 
261.431244 188.0 
261.454376 138.0 
261.486816 149.0 
261.509979 143.0 
261.523865 116.0 
261.53775 136.0 
261.560913 148.0 
261.584076 123.0 
261.602631 140.0 
261.616516 145.0 
261.639679 135.0 
261.658203 90.0 
261.672119 104.0 
261.686005 99.0 
261.704559 178.0 
261.727722 250.0 
261.755524 239.0 
261.778687 118.0 
261.787964 120.0 
261.806488 166.0 
261.815765 113.0 
261.83432 127.0 
261.862122 122.0 
261.876007 123.0 
261.889923 61.0 
261.903839 84.0 
261.927002 94.0 
261.959473 110.0 
261.968719 110.0 
261.982635 99.0 
262.00119 133.0 
262.015106 77.0 
262.024353 80.0 
262.03363 85.0 
262.042908 182.0 
262.066101 84.0 
262.112457 2809.0 
262.144928 2788.0 
262.195953 846.0 
262.205231 735.0 
262.223785 356.0 
262.251617 321.0 
262.279449 194.0 
262.288727 150.0 
262.293365 150.0 
262.31192 103.0 
262.321198 152.0 
262.344391 111.0 
262.367584 118.0 
262.386139 65.0 
262.400055 74.0 
262.41861 87.0 
262.437164 93.0 
262.441833 93.0 
262.478943 120.0 
262.492859 110.0 
262.511414 124.0 
262.520721 114.0 
262.539276 109.0 
262.553192 89.0 
262.576416 158.0 
262.594971 126.0 
262.622833 178.0 
262.646027 126.0 
262.678528 103.0 
262.711029 111.0 
262.729584 88.0 
262.757446 87.0 
262.771362 92.0 
262.789948 97.0 
262.808533 106.0 
262.831726 150.0 
262.850311 77.0 
262.864258 80.0 
262.882812 102.0 
262.896759 94.0 
262.915344 115.0 
262.943207 102.0 
262.961792 102.0 
262.975708 97.0 
262.989655 87.0 
263.003571 81.0 
263.022156 116.0 
263.04538 71.0 
263.096497 1912.0 
263.129028 4166.0 
263.170837 5458.0 
263.189423 2623.0 
263.208008 2384.0 
263.263763 353.0 
263.273071 284.0 
263.31955 235.0 
263.352081 197.0 
263.389282 141.0 
263.421814 144.0 
263.440399 105.0 
263.449707 91.0 
263.468292 156.0 
263.505493 122.0 
263.538055 78.0 
263.547333 117.0 
263.56131 63.0 
263.575256 85.0 
263.593842 108.0 
263.603149 109.0 
263.626404 93.0 
263.635712 81.0 
263.654297 172.0 
263.668274 96.0 
263.672913 96.0 
263.696167 160.0 
263.724091 97.0 
263.733368 97.0 
263.756622 82.0 
263.76593 117.0 
263.789215 84.0 
263.803162 110.0 
263.812469 89.0 
263.821777 70.0 
263.835724 95.0 
263.845032 99.0 
263.85434 60.0 
263.868286 79.0 
263.900848 82.0 
263.910156 86.0 
263.942749 72.0 
263.966003 61.0 
263.989288 91.0 
264.007904 75.0 
264.017212 100.0 
264.031158 105.0 
264.049774 107.0 
264.059082 101.0 
264.077698 226.0 
264.091675 494.0 
264.100983 534.0 
264.124268 995.0 
264.138214 1167.0 
264.166168 1052.0 
264.175476 1058.0 
264.194092 904.0 
264.222015 556.0 
264.235992 276.0 
264.254608 164.0 
264.268585 163.0 
264.277893 137.0 
264.296509 153.0 
264.310486 120.0 
264.324463 104.0 
264.33844 121.0 
264.357056 78.0 
264.371033 97.0 
264.380341 118.0 
264.389648 101.0 
264.403625 96.0 
264.412964 114.0 
264.43158 64.0 
264.454865 119.0 
264.473511 80.0 
264.487488 51.0 
264.501465 66.0 
264.515442 49.0 
264.529388 53.0 
264.552704 46.0 
264.57132 48.0 
264.594635 82.0 
264.622589 73.0 
264.641235 58.0 
264.645874 58.0 
264.669189 73.0 
264.683167 91.0 
264.71579 82.0 
264.729767 82.0 
264.748413 100.0 
264.76239 70.0 
264.781036 59.0 
264.795013 61.0 
264.80899 64.0 
264.827637 96.0 
264.846283 47.0 
264.86026 35.0 
264.874237 58.0 
264.902222 70.0 
264.925537 39.0 
264.934845 62.0 
264.95816 67.0 
264.981476 83.0 
264.995483 56.0 
265.004791 60.0 
265.01413 69.0 
265.028107 47.0 
265.074738 409.0 
265.116699 3149.0 
265.149353 3638.0 
265.186676 4720.0 
265.21933 3397.0 
265.256653 924.0 
265.312622 180.0 
265.32663 184.0 
265.359283 143.0 
265.373291 154.0 
265.405945 135.0 
265.424622 113.0 
265.438599 110.0 
265.457275 93.0 
265.466614 123.0 
265.485291 137.0 
265.513275 158.0 
265.531952 126.0 
265.555298 134.0 
265.573975 77.0 
265.583282 84.0 
265.601959 174.0 
265.634644 111.0 
265.65332 75.0 
265.662659 69.0 
265.676666 76.0 
265.690674 103.0 
265.71402 61.0 
265.737366 120.0 
265.765381 152.0 
265.784058 105.0 
265.793396 121.0 
265.802734 118.0 
265.812073 113.0 
265.83075 95.0 
265.854095 87.0 
265.868103 86.0 
265.882111 105.0 
265.900818 87.0 
265.924164 92.0 
265.942841 87.0 
265.952179 91.0 
265.970886 86.0 
265.989563 73.0 
266.00824 142.0 
266.040955 103.0 
266.054962 109.0 
266.083008 174.0 
266.120361 875.0 
266.134399 658.0 
266.153076 1331.0 
266.19046 1546.0 
266.209167 959.0 
266.227844 1031.0 
266.251221 407.0 
266.279266 180.0 
266.31665 138.0 
266.344696 106.0 
266.372742 137.0 
266.396118 116.0 
266.410156 100.0 
266.442871 105.0 
266.461578 83.0 
266.475616 112.0 
266.494324 81.0 
266.5177 48.0 
266.536407 100.0 
266.58783 81.0 
266.601868 67.0 
266.611237 99.0 
266.629944 75.0 
266.643951 67.0 
266.648651 67.0 
266.65799 65.0 
266.672028 43.0 
266.690735 51.0 
266.709442 60.0 
266.737518 90.0 
266.760895 89.0 
266.788971 109.0 
266.821716 54.0 
266.840454 58.0 
266.863831 73.0 
266.877869 68.0 
266.901276 97.0 
266.919983 85.0 
266.938721 116.0 
266.962097 86.0 
266.976135 45.0 
266.985504 116.0 
266.999542 100.0 
267.041687 230.0 
267.065063 130.0 
267.097839 3594.0 
267.130615 4722.0 
267.163391 4226.0 
267.200836 4234.0 
267.238312 2036.0 
267.275757 549.0 
267.308533 305.0 
267.327271 185.0 
267.346008 263.0 
267.360046 143.0 
267.374115 211.0 
267.388153 192.0 
267.425629 156.0 
267.449036 106.0 
267.467773 115.0 
267.491211 126.0 
267.509949 121.0 
267.528687 116.0 
267.542755 99.0 
267.570862 122.0 
267.5849 88.0 
267.613037 158.0 
267.636444 139.0 
267.664581 85.0 
267.678619 92.0 
267.692688 97.0 
267.711426 97.0 
267.725494 85.0 
267.739563 105.0 
267.758301 109.0 
267.786407 101.0 
267.814545 101.0 
267.833282 92.0 
267.837982 92.0 
267.85672 114.0 
267.866119 116.0 
267.889557 81.0 
267.903625 105.0 
267.936432 82.0 
267.9505 104.0 
267.964569 71.0 
267.988007 120.0 
268.006775 92.0 
268.030212 98.0 
268.044281 107.0 
268.05835 90.0 
268.081787 216.0 
268.105255 731.0 
268.114624 710.0 
268.133392 923.0 
268.147461 996.0 
268.166229 762.0 
268.189667 623.0 
268.208435 913.0 
268.241272 576.0 
268.26474 279.0 
268.292877 139.0 
268.311646 155.0 
268.339813 161.0 
268.363251 115.0 
268.391418 81.0 
268.410187 79.0 
268.424255 54.0 
268.438354 90.0 
268.457123 85.0 
268.461792 85.0 
268.48526 72.0 
268.504059 74.0 
268.518127 96.0 
268.541595 73.0 
268.550995 80.0 
268.565063 82.0 
268.583832 57.0 
268.593231 64.0 
268.602631 56.0 
268.621399 61.0 
268.649567 52.0 
268.673035 80.0 
268.691803 59.0 
268.715302 69.0 
268.72937 80.0 
268.73407 80.0 
268.762238 82.0 
268.776337 90.0 
268.790436 54.0 
268.813904 71.0 
268.832703 69.0 
268.842072 79.0 
268.874969 65.0 
268.889038 66.0 
268.907837 55.0 
268.921936 59.0 
268.950104 84.0 
268.978302 70.0 
268.997101 68.0 
269.015869 64.0 
269.029968 77.0 
269.044067 97.0 
269.072266 146.0 
269.133331 9540.0 
269.166229 8192.0 
269.213226 2599.0 
269.269623 486.0 
269.279022 514.0 
269.31192 334.0 
269.340149 170.0 
269.354248 172.0 
269.358948 172.0 
269.382446 141.0 
269.396545 147.0 
269.410645 137.0 
269.424744 106.0 
269.429443 106.0 
269.438873 130.0 
269.452972 116.0 
269.481171 133.0 
269.5 125.0 
269.509399 94.0 
269.523499 82.0 
269.532898 97.0 
269.556427 151.0 
269.579926 123.0 
269.603455 127.0 
269.622253 159.0 
269.645782 163.0 
269.659882 173.0 
269.669281 165.0 
269.673981 165.0 
269.68811 171.0 
269.706909 164.0 
269.730438 158.0 
269.744568 92.0 
269.758667 117.0 
269.772797 148.0 
269.801025 98.0 
269.819824 143.0 
269.871582 102.0 
269.885712 133.0 
269.909241 147.0 
269.937469 271.0 
269.965698 131.0 
269.984528 182.0 
270.017487 101.0 
270.036316 110.0 
270.050415 73.0 
270.059845 78.0 
270.073944 312.0 
270.083374 337.0 
270.130463 2197.0 
270.144562 2065.0 
270.168121 1710.0 
270.177521 1837.0 
270.186951 1658.0 
270.229309 660.0 
270.248138 246.0 
270.271698 192.0 
270.304657 174.0 
270.332916 104.0 
270.351746 87.0 
270.361176 81.0 
270.384735 78.0 
270.412994 108.0 
270.436523 87.0 
270.464783 102.0 
270.483643 95.0 
270.507202 108.0 
270.530762 71.0 
270.549591 66.0 
270.573151 84.0 
270.60141 88.0 
270.61557 86.0 
270.653259 77.0 
270.662689 71.0 
270.676819 98.0 
270.690948 108.0 
270.714508 54.0 
270.723938 61.0 
270.738068 88.0 
270.766357 84.0 
270.775787 92.0 
270.789917 60.0 
270.818207 74.0 
270.832336 47.0 
270.851196 69.0 
270.874786 87.0 
270.898346 89.0 
270.907776 95.0 
270.917206 50.0 
270.931335 72.0 
270.950195 57.0 
270.969055 88.0 
270.987915 70.0 
270.997345 94.0 
271.020935 108.0 
271.039795 90.0 
271.105804 3506.0 
271.115234 3912.0 
271.129395 4733.0 
271.138824 4985.0 
271.162415 4075.0 
271.190704 2447.0 
271.214294 1330.0 
271.247314 844.0 
271.261475 498.0 
271.280334 231.0 
271.289764 295.0 
271.303925 243.0 
271.308655 243.0 
271.351105 200.0 
271.365265 116.0 
271.374695 164.0 
271.393585 91.0 
271.412445 140.0 
271.431335 126.0 
271.440765 109.0 
271.464355 72.0 
271.473816 88.0 
271.487976 85.0 
271.506836 91.0 
271.535156 119.0 
271.563477 131.0 
271.587067 69.0 
271.596527 63.0 
271.605957 74.0 
271.629578 117.0 
271.662598 113.0 
271.672058 93.0 
271.695648 87.0 
271.709808 127.0 
271.728699 103.0 
271.752319 100.0 
271.761749 116.0 
271.7901 63.0 
271.80426 100.0 
271.81369 98.0 
271.827881 116.0 
271.860931 73.0 
271.879822 86.0 
271.917603 108.0 
271.936493 125.0 
271.964844 154.0 
271.993195 109.0 
272.007355 88.0 
272.016815 157.0 
272.040436 116.0 
272.087677 322.0 
272.116028 868.0 
272.139648 1215.0 
272.153809 1037.0 
272.163269 974.0 
272.182159 659.0 
272.19635 597.0 
272.205811 655.0 
272.238892 391.0 
272.267242 148.0 
272.300323 181.0 
272.314514 130.0 
272.323944 112.0 
272.338135 118.0 
272.357056 100.0 
272.366486 94.0 
272.385406 103.0 
272.404327 71.0 
272.427948 69.0 
272.437408 70.0 
272.451599 61.0 
272.47049 57.0 
272.498871 72.0 
272.513062 62.0 
272.522522 55.0 
272.536713 81.0 
272.560333 116.0 
272.593445 73.0 
272.602905 81.0 
272.612366 58.0 
272.636017 75.0 
272.650208 47.0 
272.669128 84.0 
272.69278 65.0 
272.716431 75.0 
272.744812 83.0 
272.763733 97.0 
272.777924 88.0 
272.796844 62.0 
272.806305 61.0 
272.820496 51.0 
272.839417 54.0 
272.848877 42.0 
272.872528 76.0 
272.886719 58.0 
272.90094 88.0 
272.919861 60.0 
272.929321 63.0 
272.943512 65.0 
272.962433 68.0 
272.986115 83.0 
273.005035 69.0 
273.019226 177.0 
273.047638 157.0 
273.071289 305.0 
273.118622 3197.0 
273.151764 4536.0 
273.194366 2017.0 
273.227509 520.0 
273.25119 355.0 
273.289062 224.0 
273.312744 184.0 
273.322205 154.0 
273.341156 150.0 
273.360107 102.0 
273.374298 108.0 
273.40271 136.0 
273.426392 121.0 
273.431152 121.0 
273.445343 111.0 
273.478516 121.0 
273.487976 68.0 
273.506927 80.0 
273.516388 91.0 
273.5401 96.0 
273.568512 89.0 
273.592194 91.0 
273.606415 58.0 
273.625366 67.0 
273.644318 62.0 
273.653809 75.0 
273.663269 77.0 
273.686951 66.0 
273.705933 85.0 
273.724884 89.0 
273.748566 87.0 
273.758057 107.0 
273.767517 76.0 
273.777008 78.0 
273.786469 64.0 
273.80069 57.0 
273.810181 77.0 
273.829132 65.0 
273.843353 73.0 
273.852844 72.0 
273.881287 68.0 
273.900238 81.0 
273.92395 65.0 
273.933411 80.0 
273.952393 58.0 
273.971344 79.0 
273.995056 91.0 
274.004547 48.0 
274.018768 73.0 
274.023499 73.0 
274.04248 96.0 
274.075653 86.0 
274.123077 815.0 
274.165771 1146.0 
274.198975 674.0 
274.251129 186.0 
274.265381 117.0 
274.293823 111.0 
274.312805 81.0 
274.327057 133.0 
274.36026 120.0 
274.374481 59.0 
274.388733 87.0 
274.398224 49.0 
274.407715 48.0 
274.421936 33.0 
274.431427 57.0 
274.436157 57.0 
274.4599 61.0 
274.483612 74.0 
274.516846 80.0 
274.531067 67.0 
274.550049 70.0 
274.564301 51.0 
274.578552 53.0 
274.607025 96.0 
274.621246 67.0 
274.640259 63.0 
274.64975 53.0 
274.668732 77.0 
274.682953 60.0 
274.701965 68.0 
274.716187 43.0 
274.735199 60.0 
274.74942 74.0 
274.782654 98.0 
274.796906 45.0 
274.815918 146.0 
274.844391 129.0 
274.853882 69.0 
274.872894 73.0 
274.891876 76.0 
274.92514 65.0 
274.934631 48.0 
274.944122 49.0 
274.958374 40.0 
274.977386 74.0 
274.996368 38.0 
275.005859 67.0 
275.024872 36.0 
275.048615 79.0 
275.053375 79.0 
275.119873 3203.0 
275.138885 4279.0 
275.17215 4818.0 
275.195892 2128.0 
275.210144 1901.0 
275.219666 1579.0 
275.238678 702.0 
275.25769 409.0 
275.281433 231.0 
275.300446 153.0 
275.319458 228.0 
275.343231 156.0 
275.362244 124.0 
275.390747 105.0 
275.400269 79.0 
275.419281 122.0 
275.447784 120.0 
275.466827 74.0 
275.49057 127.0 
275.509613 98.0 
275.523865 86.0 
275.56665 102.0 
275.595184 96.0 
275.628479 143.0 
275.647491 88.0 
275.661774 133.0 
275.676025 100.0 
275.690308 84.0 
275.70932 108.0 
275.718842 89.0 
275.742615 84.0 
275.756866 97.0 
275.766388 77.0 
275.771149 77.0 
275.785431 88.0 
275.804443 71.0 
275.813965 65.0 
275.823486 60.0 
275.842499 75.0 
275.856781 77.0 
275.871033 112.0 
275.899597 97.0 
275.91861 49.0 
275.932892 66.0 
275.942413 67.0 
275.961456 96.0 
275.994751 59.0 
276.013794 54.0 
276.037598 80.0 
276.061371 80.0 
276.099457 351.0 
276.128021 778.0 
276.142273 911.0 
276.175598 1146.0 
276.204163 527.0 
276.213684 568.0 
276.247009 235.0 
276.275574 112.0 
276.294617 92.0 
276.308899 115.0 
276.323181 135.0 
276.351746 97.0 
276.370819 62.0 
276.385101 64.0 
276.399384 73.0 
276.413666 60.0 
276.427948 89.0 
276.446991 74.0 
276.466034 77.0 
276.489868 80.0 
276.518433 112.0 
276.542267 106.0 
276.56131 127.0 
276.585114 130.0 
276.608948 131.0 
276.627991 74.0 
276.637512 71.0 
276.651825 91.0 
276.670868 63.0 
276.694702 64.0 
276.718536 61.0 
276.737579 76.0 
276.751862 71.0 
276.761414 86.0 
276.780457 65.0 
276.790009 68.0 
276.804291 86.0 
276.818604 83.0 
276.828125 73.0 
276.847198 78.0 
276.861481 93.0 
276.875793 69.0 
276.890076 70.0 
276.909149 71.0 
276.918671 59.0 
276.928223 43.0 
276.937744 64.0 
276.952057 46.0 
276.9711 76.0 
276.985413 60.0 
277.018768 90.0 
277.037842 61.0 
277.047394 42.0 
277.061676 177.0 
277.109375 3767.0 
277.147522 4725.0 
277.180908 3222.0 
277.19519 3128.0 
277.223816 1961.0 
277.266754 438.0 
277.281036 336.0 
277.30014 226.0 
277.314423 193.0 
277.328735 179.0 
277.347839 206.0 
277.366913 159.0 
277.376434 155.0 
277.390747 129.0 
277.400299 124.0 
277.409851 127.0 
277.428925 118.0 
277.45755 165.0 
277.467102 119.0 
277.486176 70.0 
277.495728 70.0 
277.505249 72.0 
277.519592 105.0 
277.533905 67.0 
277.552979 108.0 
277.562531 83.0 
277.576843 158.0 
277.600708 153.0 
277.615021 71.0 
277.624573 78.0 
277.643646 77.0 
277.667511 83.0 
277.691376 68.0 
277.71524 101.0 
277.734344 86.0 
277.758209 94.0 
277.782074 72.0 
277.801178 78.0 
277.805939 78.0 
277.829834 58.0 
277.848907 105.0 
277.858459 50.0 
277.882355 81.0 
277.891907 96.0 
277.920532 104.0 
277.944427 110.0 
277.973083 134.0 
277.987396 88.0 
278.0065 100.0 
278.016052 93.0 
278.030365 80.0 
278.049469 77.0 
278.063812 157.0 
278.078156 239.0 
278.106812 1003.0 
278.121124 837.0 
278.140228 1056.0 
278.159332 1034.0 
278.168915 978.0 
278.188019 1020.0 
278.202332 986.0 
278.226227 858.0 
278.283569 137.0 
278.307465 130.0 
278.33136 106.0 
278.355255 125.0 
278.383911 93.0 
278.403046 57.0 
278.417358 57.0 
278.436493 46.0 
278.446045 45.0 
278.455597 47.0 
278.465179 73.0 
278.493835 92.0 
278.508179 62.0 
278.517761 71.0 
278.527313 61.0 
278.536865 91.0 
278.551208 49.0 
278.56076 91.0 
278.579895 106.0 
278.594238 80.0 
278.613373 86.0 
278.627716 98.0 
278.637268 91.0 
278.661163 100.0 
278.670746 103.0 
278.694641 119.0 
278.713776 160.0 
278.723328 93.0 
278.737671 149.0 
278.766388 93.0 
278.77594 91.0 
278.804626 84.0 
278.828552 47.0 
278.838104 59.0 
278.852478 62.0 
278.876373 76.0 
278.895508 120.0 
278.919434 81.0 
278.924225 81.0 
278.938568 87.0 
278.972046 120.0 
278.995972 64.0 
279.005554 83.0 
279.015106 118.0 
279.02948 67.0 
279.039032 67.0 
279.115601 37187.0 
279.15387 28434.0 
279.19696 6110.0 
279.225677 2668.0 
279.249603 1987.0 
279.302246 1022.0 
279.330963 422.0 
279.345337 494.0 
279.369263 364.0 
279.388428 357.0 
279.417145 330.0 
279.445892 309.0 
279.469818 250.0 
279.479401 237.0 
279.493774 210.0 
279.512909 193.0 
279.522491 217.0 
279.541656 284.0 
279.575165 252.0 
279.584747 244.0 
279.603912 215.0 
279.618286 266.0 
279.637451 274.0 
279.651825 347.0 
279.675751 297.0 
279.694916 260.0 
279.70929 198.0 
279.728455 206.0 
279.742828 178.0 
279.757202 205.0 
279.771576 197.0 
279.805115 223.0 
279.82428 192.0 
279.853027 152.0 
279.881775 231.0 
279.90094 162.0 
279.920105 176.0 
279.944061 160.0 
279.958466 202.0 
279.968048 154.0 
279.977631 295.0 
279.987213 292.0 
280.006378 341.0 
280.035126 156.0 
280.04953 207.0 
280.073486 251.0 
280.116638 7101.0 
280.154968 5616.0 
280.207733 1100.0 
280.241272 614.0 
280.260468 581.0 
280.284454 323.0 
280.303619 298.0 
280.34198 213.0 
280.365967 247.0 
280.394745 193.0 
280.41394 182.0 
280.423523 194.0 
280.442719 154.0 
280.461884 204.0 
280.481079 109.0 
280.505066 158.0 
280.514679 134.0 
280.524261 174.0 
280.533844 178.0 
280.548248 194.0 
280.562653 169.0 
280.581818 170.0 
280.610626 170.0 
280.625 192.0 
280.644196 135.0 
280.653809 119.0 
280.673004 178.0 
280.682587 167.0 
280.6922 165.0 
280.730591 204.0 
280.744995 151.0 
280.754578 137.0 
280.778564 158.0 
280.788177 118.0 
280.802582 135.0 
280.812164 145.0 
280.826569 108.0 
280.840973 120.0 
280.860168 101.0 
280.869781 137.0 
280.903381 108.0 
280.927399 118.0 
280.936981 129.0 
280.970581 137.0 
280.980194 130.0 
280.989807 145.0 
280.99939 135.0 
281.018616 199.0 
281.042603 214.0 
281.06662 259.0 
281.109833 3486.0 
281.119446 3456.0 
281.138672 4482.0 
281.153076 4957.0 
281.181885 3769.0 
281.210693 1998.0 
281.253937 876.0 
281.282776 468.0 
281.301971 278.0 
281.311584 279.0 
281.335602 185.0 
281.345215 204.0 
281.364441 201.0 
281.378845 152.0 
281.388458 163.0 
281.417297 186.0 
281.42691 181.0 
281.450928 126.0 
281.465332 140.0 
281.484558 97.0 
281.498962 132.0 
281.508575 154.0 
281.52301 109.0 
281.542236 121.0 
281.556641 97.0 
281.58548 137.0 
281.614319 136.0 
281.623932 147.0 
281.633545 170.0 
281.64798 135.0 
281.686432 195.0 
281.700867 121.0 
281.715271 129.0 
281.734497 194.0 
281.753723 90.0 
281.782593 141.0 
281.796997 125.0 
281.801819 125.0 
281.816254 94.0 
281.825867 105.0 
281.849915 104.0 
281.864319 131.0 
281.883575 79.0 
281.893188 119.0 
281.907623 91.0 
281.917236 84.0 
281.931671 95.0 
281.941284 127.0 
281.96051 100.0 
281.974945 94.0 
281.98938 94.0 
282.01825 66.0 
282.027863 78.0 
282.056732 114.0 
282.071136 198.0 
282.119263 641.0 
282.152924 938.0 
282.162567 689.0 
282.181793 1093.0 
282.20105 567.0 
282.225098 556.0 
282.239532 200.0 
282.268433 211.0 
282.29248 127.0 
282.306915 116.0 
282.326172 116.0 
282.335785 155.0 
282.369476 101.0 
282.37912 91.0 
282.403168 73.0 
282.427246 123.0 
282.446503 69.0 
282.465759 130.0 
282.485016 93.0 
282.494629 80.0 
282.513885 161.0 
282.542786 109.0 
282.562042 70.0 
282.581299 57.0 
282.595764 57.0 
282.605377 105.0 
282.639099 124.0 
282.663177 92.0 
282.692047 56.0 
282.706512 61.0 
282.720947 57.0 
282.740234 99.0 
282.773926 97.0 
282.783569 88.0 
282.793213 95.0 
282.802826 86.0 
282.822113 138.0 
282.846191 103.0 
282.855835 114.0 
282.879913 80.0 
282.894379 78.0 
282.908813 119.0 
282.918457 113.0 
282.937714 131.0 
282.947357 82.0 
282.966644 172.0 
282.985901 93.0 
283.000366 140.0 
283.029266 93.0 
283.058197 76.0 
283.096741 1115.0 
283.130463 3794.0 
283.159393 3770.0 
283.173859 2947.0 
283.197968 3484.0 
283.241333 1587.0 
283.265442 573.0 
283.299194 247.0 
283.308838 204.0 
283.332947 199.0 
283.34259 194.0 
283.361877 127.0 
283.376343 172.0 
283.400452 124.0 
283.414917 107.0 
283.429382 107.0 
283.439026 114.0 
283.453491 166.0 
283.467957 105.0 
283.487244 167.0 
283.511353 92.0 
283.516174 92.0 
283.540283 109.0 
283.549927 78.0 
283.564423 85.0 
283.574066 94.0 
283.598175 222.0 
283.617462 66.0 
283.631927 143.0 
283.660889 102.0 
283.680176 101.0 
283.689819 86.0 
283.713959 79.0 
283.742889 92.0 
283.752563 76.0 
283.762207 86.0 
283.791168 118.0 
283.815277 82.0 
283.829742 53.0 
283.853882 115.0 
283.882843 114.0 
283.906982 99.0 
283.916626 105.0 
283.92627 68.0 
283.940765 96.0 
283.960052 100.0 
283.969727 73.0 
283.97937 61.0 
284.00351 119.0 
284.022827 102.0 
284.061432 133.0 
284.08075 173.0 
284.100067 450.0 
284.109711 328.0 
284.129028 654.0 
284.15799 893.0 
284.196625 895.0 
284.211121 689.0 
284.23526 646.0 
284.244904 535.0 
284.278717 297.0 
284.293213 122.0 
284.307678 111.0 
284.317352 107.0 
284.341492 95.0 
284.355988 89.0 
284.370483 113.0 
284.384979 60.0 
284.399475 94.0 
284.418793 92.0 
284.43811 82.0 
284.467102 105.0 
284.48642 79.0 
284.510559 46.0 
284.520233 62.0 
284.529907 77.0 
284.544403 44.0 
284.563721 100.0 
284.573395 137.0 
284.587891 114.0 
284.621704 163.0 
284.645874 65.0 
284.655518 59.0 
284.670044 70.0 
284.68454 65.0 
284.713531 62.0 
284.718353 62.0 
284.728027 69.0 
284.752197 57.0 
284.761871 61.0 
284.771515 57.0 
284.786041 88.0 
284.800537 41.0 
284.815033 71.0 
284.848877 74.0 
284.868195 61.0 
284.873047 61.0 
284.892365 64.0 
284.902039 62.0 
284.926208 55.0 
284.940735 70.0 
284.969727 93.0 
284.984253 83.0 
285.008423 65.0 
285.027771 135.0 
285.056793 169.0 
285.100311 5672.0 
285.143829 6560.0 
285.182526 2545.0 
285.201874 2492.0 
285.235748 1074.0 
285.255096 1052.0 
285.284119 377.0 
285.298645 278.0 
285.322815 245.0 
285.342163 182.0 
285.356689 186.0 
285.376038 112.0 
285.390564 136.0 
285.409912 119.0 
285.42926 113.0 
285.443787 126.0 
285.453461 105.0 
285.467987 117.0 
285.49704 146.0 
285.511536 131.0 
285.530914 155.0 
285.545441 145.0 
285.559937 136.0 
285.579315 120.0 
285.598663 90.0 
285.618042 98.0 
285.647064 113.0 
285.671295 118.0 
285.680969 93.0 
285.690643 68.0 
285.700317 75.0 
285.710022 69.0 
285.734222 125.0 
285.753601 92.0 
285.787476 135.0 
285.802002 81.0 
285.816528 102.0 
285.835907 93.0 
285.860107 171.0 
285.874664 120.0 
285.908539 129.0 
285.942444 156.0 
285.961823 124.0 
285.976349 97.0 
285.986053 75.0 
285.995728 75.0 
286.015106 112.0 
286.049011 107.0 
286.063568 94.0 
286.082947 262.0 
286.107147 1179.0 
286.121704 1090.0 
286.155609 1487.0 
286.184692 781.0 
286.199219 745.0 
286.213745 838.0 
286.228302 499.0 
286.242828 323.0 
286.252533 474.0 
286.29129 183.0 
286.33493 138.0 
286.363983 87.0 
286.373688 100.0 
286.393066 98.0 
286.407623 79.0 
286.417328 104.0 
286.436707 54.0 
286.460938 67.0 
286.475494 88.0 
286.485199 87.0 
286.523987 87.0 
286.557922 87.0 
286.577301 121.0 
286.591858 88.0 
286.606415 130.0 
286.620941 78.0 
286.635498 96.0 
286.674286 118.0 
286.7034 113.0 
286.722809 96.0 
286.742188 111.0 
286.74704 111.0 
286.771301 64.0 
286.785858 68.0 
286.795563 72.0 
286.805237 89.0 
286.819794 90.0 
286.829498 83.0 
286.848907 77.0 
286.868317 77.0 
286.878021 71.0 
286.892578 106.0 
286.921692 120.0 
286.936249 75.0 
286.945953 56.0 
286.970215 103.0 
286.979919 96.0 
287.009033 89.0 
287.028442 84.0 
287.038147 87.0 
287.072113 166.0 
287.130341 3943.0 
287.144897 3632.0 
287.159485 3917.0 
287.174042 4157.0 
287.266266 356.0 
287.314819 197.0 
287.329376 184.0 
287.343933 128.0 
287.363373 172.0 
287.37793 125.0 
287.402222 115.0 
287.416779 132.0 
287.441071 114.0 
287.450775 94.0 
287.465332 125.0 
287.499329 80.0 
287.509064 100.0 
287.538208 124.0 
287.567322 120.0 
287.591614 129.0 
287.615906 75.0 
287.635345 92.0 
287.654785 83.0 
287.683929 96.0 
287.713074 80.0 
287.727661 87.0 
287.742218 92.0 
287.751953 83.0 
287.761658 71.0 
287.771362 69.0 
287.800537 128.0 
287.824829 89.0 
287.849121 141.0 
287.873413 89.0 
287.892853 122.0 
287.912292 67.0 
287.922028 73.0 
287.94632 73.0 
287.965759 94.0 
287.990082 71.0 
288.004669 72.0 
288.028961 73.0 
288.048401 70.0 
288.072723 51.0 
288.087311 148.0 
288.131042 1068.0 
288.1651 904.0 
288.179688 1085.0 
288.208862 664.0 
288.218567 737.0 
288.247742 311.0 
288.276947 168.0 
288.315826 112.0 
288.325562 126.0 
288.345032 88.0 
288.359619 95.0 
288.374207 127.0 
288.398529 95.0 
288.413116 87.0 
288.427704 77.0 
288.442322 64.0 
288.456909 95.0 
288.481232 87.0 
288.490967 110.0 
288.525024 80.0 
288.549347 90.0 
288.568817 59.0 
288.583405 67.0 
288.597992 103.0 
288.607727 93.0 
288.627197 82.0 
288.641785 73.0 
288.656403 94.0 
288.675842 121.0 
288.705048 88.0 
288.734253 82.0 
288.763458 66.0 
288.768341 66.0 
288.797546 116.0 
288.821869 72.0 
288.846222 70.0 
288.860809 61.0 
288.88028 64.0 
288.894897 90.0 
288.928986 102.0 
288.963074 57.0 
288.987396 74.0 
288.997131 78.0 
289.011749 93.0 
289.065308 159.0 
289.104279 1860.0 
289.118896 2191.0 
289.128632 2615.0 
289.148102 4139.0 
289.18222 3146.0 
289.191956 3043.0 
289.221161 1779.0 
289.260132 573.0 
289.29425 303.0 
289.333221 146.0 
289.342957 172.0 
289.372192 139.0 
289.406311 130.0 
289.430664 123.0 
289.44043 91.0 
289.450165 109.0 
289.474548 116.0 
289.494019 171.0 
289.523254 137.0 
289.537903 110.0 
289.567139 118.0 
289.596375 87.0 
289.610992 76.0 
289.620758 69.0 
289.630493 73.0 
289.640259 75.0 
289.664612 85.0 
289.693878 87.0 
289.713379 80.0 
289.723114 89.0 
289.742615 91.0 
289.757263 65.0 
289.771881 61.0 
289.791382 58.0 
289.80603 82.0 
289.830383 107.0 
289.849915 129.0 
289.85965 98.0 
289.869415 68.0 
289.87915 89.0 
289.888916 91.0 
289.898682 93.0 
289.923065 75.0 
289.937683 49.0 
289.957184 72.0 
289.981598 67.0 
290.001099 84.0 
290.010864 86.0 
290.035248 111.0 
290.049866 113.0 
290.064514 75.0 
290.079132 138.0 
290.098663 489.0 
290.113281 581.0 
290.123047 650.0 
290.14743 808.0 
290.157196 775.0 
290.191345 1080.0 
290.215759 542.0 
290.23526 550.0 
290.26944 213.0 
290.298706 102.0 
290.313354 99.0 
290.32312 109.0 
290.342651 100.0 
290.371918 65.0 
290.386566 57.0 
290.41098 70.0 
290.435364 70.0 
290.454895 72.0 
290.469543 65.0 
290.484192 66.0 
290.493958 71.0 
290.508606 50.0 
290.537903 80.0 
290.5672 88.0 
290.576965 88.0 
290.581848 88.0 
290.601379 80.0 
290.616028 64.0 
290.630676 119.0 
290.650208 78.0 
290.659973 81.0 
290.679504 67.0 
290.684387 67.0 
290.694153 65.0 
290.713684 84.0 
290.733215 93.0 
290.757629 95.0 
290.782074 128.0 
290.79184 123.0 
290.821136 98.0 
290.845551 136.0 
290.874878 62.0 
290.884644 39.0 
290.894409 49.0 
290.899292 49.0 
290.918854 90.0 
290.928619 87.0 
290.962799 82.0 
291.001892 120.0 
291.016571 59.0 
291.031219 67.0 
291.036102 67.0 
291.045868 80.0 
291.075195 175.0 
291.094757 585.0 
291.128967 2781.0 
291.163177 3007.0 
291.177826 2520.0 
291.197388 3921.0 
291.241364 2108.0 
291.304932 397.0 
291.324463 190.0 
291.339142 189.0 
291.348907 263.0 
291.373383 130.0 
291.392914 223.0 
291.417358 135.0 
291.441833 132.0 
291.461395 75.0 
291.471161 86.0 
291.48584 98.0 
291.505402 61.0 
291.520081 100.0 
291.534729 137.0 
291.549408 109.0 
291.564087 104.0 
291.583649 130.0 
291.598328 72.0 
291.613007 99.0 
291.627655 94.0 
291.647247 66.0 
291.657013 78.0 
291.686371 109.0 
291.720612 56.0 
291.730408 87.0 
291.749969 61.0 
291.764648 68.0 
291.789093 71.0 
291.813568 110.0 
291.83313 65.0 
291.842926 74.0 
291.862488 94.0 
291.877197 66.0 
291.896759 107.0 
291.911438 99.0 
291.926117 49.0 
291.945709 101.0 
291.965271 73.0 
291.975067 118.0 
291.984863 107.0 
291.994629 82.0 
292.009338 73.0 
292.019104 54.0 
292.033783 89.0 
292.043579 73.0 
292.063171 84.0 
292.072968 97.0 
292.107239 231.0 
292.126801 933.0 
292.141479 444.0 
292.161072 935.0 
292.170868 963.0 
292.195343 1064.0 
292.210052 1093.0 
292.234528 714.0 
292.244324 910.0 
292.288391 182.0 
292.298187 150.0 
292.307983 147.0 
292.332458 129.0 
292.361847 109.0 
292.391235 97.0 
292.410828 71.0 
292.420624 71.0 
292.43042 69.0 
292.440216 62.0 
292.450012 61.0 
292.474487 89.0 
292.484283 90.0 
292.503876 73.0 
292.513702 79.0 
292.528381 89.0 
292.543091 72.0 
292.547974 72.0 
292.55777 62.0 
292.572479 57.0 
292.587189 90.0 
292.606781 64.0 
292.616577 58.0 
292.626373 73.0 
292.655762 129.0 
292.675385 64.0 
292.685181 113.0 
292.69986 91.0 
292.714569 87.0 
292.748871 72.0 
292.768494 83.0 
292.783173 68.0 
292.797882 75.0 
292.812592 66.0 
292.822388 58.0 
292.837097 85.0 
292.846893 73.0 
292.871429 50.0 
292.886108 62.0 
292.905731 87.0 
292.925323 63.0 
292.940033 35.0 
292.954742 112.0 
292.989075 78.0 
292.998871 61.0 
293.018494 68.0 
293.038086 80.0 
293.052826 59.0 
293.062622 75.0 
293.116547 2228.0 
293.141083 4048.0 
293.175415 3213.0 
293.185211 3241.0 
293.219543 2995.0 
293.253876 1643.0 
293.327454 229.0 
293.347076 175.0 
293.366699 180.0 
293.376526 166.0 
293.396149 177.0 
293.410858 126.0 
293.425598 113.0 
293.435394 98.0 
293.464844 92.0 
293.479553 117.0 
293.499176 98.0 
293.518829 150.0 
293.538452 80.0 
293.553162 88.0 
293.567902 146.0 
293.587524 115.0 
293.612061 92.0 
293.636597 135.0 
293.65625 60.0 
293.670959 97.0 
293.680786 68.0 
293.695496 99.0 
293.705322 88.0 
293.724945 111.0 
293.739685 99.0 
293.759308 119.0 
293.774048 87.0 
293.788788 50.0 
293.803497 118.0 
293.828064 112.0 
293.8526 87.0 
293.88208 84.0 
293.891876 59.0 
293.906616 78.0 
293.91153 78.0 
293.916443 78.0 
293.931183 59.0 
293.940979 69.0 
293.955719 105.0 
293.970459 64.0 
293.985199 93.0 
294.009735 120.0 
294.039215 106.0 
294.049042 93.0 
294.073608 150.0 
294.083435 166.0 
294.127625 919.0 
294.137451 1117.0 
294.147278 1160.0 
294.186584 1239.0 
294.216064 1006.0 
294.240631 509.0 
294.250458 419.0 
294.265198 367.0 
294.284851 294.0 
294.304504 136.0 
294.314331 196.0 
294.333984 98.0 
294.348724 180.0 
294.368378 86.0 
294.383118 104.0 
294.402802 109.0 
294.427368 95.0 
294.432281 95.0 
294.442108 102.0 
294.461761 65.0 
294.481415 119.0 
294.510925 96.0 
294.530579 68.0 
294.540405 89.0 
294.569916 84.0 
294.589569 73.0 
294.60434 102.0 
294.61908 134.0 
294.63382 80.0 
294.653503 66.0 
294.66333 66.0 
294.682983 65.0 
294.702667 92.0 
294.717407 72.0 
294.732178 114.0 
294.746918 77.0 
294.771515 84.0 
294.781342 72.0 
294.805939 92.0 
294.815765 64.0 
294.840363 67.0 
294.86496 69.0 
294.8797 81.0 
294.89447 68.0 
294.90921 76.0 
294.928894 127.0 
294.948578 74.0 
294.953491 74.0 
294.973175 89.0 
294.992859 62.0 
295.017456 76.0 
295.046967 87.0 
295.056793 84.0 
295.125702 3595.0 
295.150299 3857.0 
295.165039 3419.0 
295.19458 2393.0 
295.209351 1550.0 
295.243805 899.0 
295.258575 535.0 
295.278259 478.0 
295.297943 246.0 
295.312714 228.0 
295.347168 134.0 
295.381622 155.0 
295.406219 113.0 
295.425934 102.0 
295.445618 106.0 
295.455475 104.0 
295.475159 91.0 
295.499786 93.0 
295.529327 122.0 
295.549011 96.0 
295.563782 68.0 
295.578552 65.0 
295.60318 100.0 
295.637665 145.0 
295.657349 119.0 
295.667206 113.0 
295.691833 134.0 
295.706604 100.0 
295.716461 100.0 
295.741089 87.0 
295.760803 112.0 
295.785431 109.0 
295.819916 105.0 
295.834686 88.0 
295.849457 75.0 
295.869171 121.0 
295.888885 79.0 
295.913513 136.0 
295.928314 56.0 
295.933228 56.0 
295.943085 58.0 
295.952942 60.0 
295.967712 71.0 
295.987427 78.0 
296.012085 102.0 
296.036713 102.0 
296.051514 76.0 
296.066284 81.0 
296.085999 69.0 
296.110657 422.0 
296.130371 784.0 
296.140228 592.0 
296.159943 894.0 
296.174713 965.0 
296.194427 916.0 
296.228943 449.0 
296.243744 304.0 
296.253601 394.0 
296.283173 177.0 
296.322632 158.0 
296.337402 95.0 
296.352203 74.0 
296.371948 103.0 
296.396576 102.0 
296.416321 74.0 
296.421234 74.0 
296.436035 68.0 
296.450836 115.0 
296.470551 65.0 
296.490295 67.0 
296.505096 65.0 
296.524811 45.0 
296.539612 95.0 
296.56427 61.0 
296.574127 62.0 
296.588928 62.0 
296.608673 45.0 
296.633331 78.0 
296.65799 84.0 
296.677734 107.0 
296.697479 91.0 
296.717194 114.0 
296.736938 77.0 
296.766541 86.0 
296.786285 71.0 
296.801086 80.0 
296.820831 104.0 
296.850433 98.0 
296.880066 106.0 
296.884979 106.0 
296.914612 67.0 
296.93927 72.0 
296.968903 156.0 
296.998505 142.0 
297.033051 131.0 
297.047882 170.0 
297.077484 784.0 
297.126862 88453.0 
297.161438 66275.0 
297.274994 3595.0 
297.314514 2532.0 
297.334259 1051.0 
297.354034 1163.0 
297.383667 837.0 
297.403412 699.0 
297.428131 630.0 
297.447876 570.0 
297.457764 593.0 
297.472595 534.0 
297.502228 534.0 
297.512115 481.0 
297.546692 555.0 
297.561523 401.0 
297.581268 451.0 
297.5961 435.0 
297.615875 436.0 
297.640564 424.0 
297.655396 395.0 
297.675171 401.0 
297.685059 467.0 
297.694946 417.0 
297.719635 457.0 
297.73941 410.0 
297.759186 419.0 
297.769073 376.0 
297.793793 385.0 
297.813568 397.0 
297.838257 467.0 
297.858032 353.0 
297.877808 455.0 
297.907471 353.0 
297.922302 415.0 
297.956909 396.0 
297.981628 306.0 
297.991516 291.0 
298.006378 323.0 
298.036041 344.0 
298.055817 376.0 
298.080536 428.0 
298.130005 14260.0 
298.164612 13478.0 
298.228912 1505.0 
298.26355 830.0 
298.273438 927.0 
298.317963 691.0 
298.362488 446.0 
298.387238 403.0 
298.407013 290.0 
298.426819 280.0 
298.456482 340.0 
298.481232 362.0 
298.496094 281.0 
298.525787 318.0 
298.540619 222.0 
298.555481 260.0 
298.580231 306.0 
298.619812 229.0 
298.634674 220.0 
298.649506 228.0 
298.669312 246.0 
298.679199 221.0 
298.694061 249.0 
298.708923 184.0 
298.723755 219.0 
298.743561 201.0 
298.763367 311.0 
298.773285 312.0 
298.793091 284.0 
298.817841 302.0 
298.827728 221.0 
298.847534 343.0 
298.872314 249.0 
298.882202 210.0 
298.897064 237.0 
298.926788 261.0 
298.946594 192.0 
298.9664 199.0 
298.976288 203.0 
298.986206 178.0 
298.996124 187.0 
299.020874 247.0 
299.035736 189.0 
299.050598 198.0 
299.06546 305.0 
299.09021 441.0 
299.139771 5023.0 
299.169495 5635.0 
299.219025 1402.0 
299.228943 1343.0 
299.253723 584.0 
299.268585 566.0 
299.288391 385.0 
299.318146 312.0 
299.337952 258.0 
299.367706 226.0 
299.39743 226.0 
299.412292 185.0 
299.427155 208.0 
299.442047 130.0 
299.461853 213.0 
299.476746 211.0 
299.491608 186.0 
299.50647 257.0 
299.536224 201.0 
299.556061 188.0 
299.565948 176.0 
299.580841 213.0 
299.610596 204.0 
299.630402 185.0 
299.645294 258.0 
299.670074 195.0 
299.679993 165.0 
299.694885 191.0 
299.729584 172.0 
299.754364 143.0 
299.7742 175.0 
299.789093 208.0 
299.823822 201.0 
299.83374 157.0 
299.878357 140.0 
299.888275 135.0 
299.903168 166.0 
299.913086 166.0 
299.937897 152.0 
299.947815 122.0 
299.962708 118.0 
299.972626 128.0 
299.997437 148.0 
300.007355 137.0 
300.022217 180.0 
300.032166 174.0 
300.052002 182.0 
300.06192 180.0 
300.081757 144.0 
300.111542 732.0 
300.131378 1068.0 
300.161163 1285.0 
300.185974 1363.0 
300.215759 756.0 
300.250488 199.0 
300.265381 184.0 
300.290192 148.0 
300.30014 122.0 
300.310059 113.0 
300.324951 145.0 
300.334869 169.0 
300.354736 130.0 
300.384521 134.0 
300.409332 130.0 
300.439117 195.0 
300.45401 102.0 
300.468903 102.0 
300.478851 132.0 
300.48877 138.0 
300.508636 113.0 
300.543396 141.0 
300.558289 120.0 
300.573181 165.0 
300.593048 106.0 
300.617889 181.0 
300.652649 90.0 
300.667542 99.0 
300.687408 83.0 
300.71225 101.0 
300.737091 189.0 
300.771851 166.0 
300.791718 140.0 
300.816559 107.0 
300.861298 127.0 
300.886139 81.0 
300.906006 119.0 
300.940796 146.0 
300.960663 154.0 
300.970581 147.0 
300.990479 158.0 
301.010345 194.0 
301.040161 138.0 
301.099823 3350.0 
301.144531 5369.0 
301.169403 3570.0 
301.184296 3855.0 
301.219116 1992.0 
301.248932 702.0 
301.263855 435.0 
301.278778 311.0 
301.288696 308.0 
301.298645 331.0 
301.333466 251.0 
301.348358 198.0 
301.368256 219.0 
301.393127 200.0 
301.413025 168.0 
301.432892 138.0 
301.442841 141.0 
301.467712 137.0 
301.497559 119.0 
301.517456 137.0 
301.552277 184.0 
301.5672 127.0 
301.587097 180.0 
301.60202 110.0 
301.616943 119.0 
301.631866 139.0 
301.656738 175.0 
301.691559 121.0 
301.701508 130.0 
301.721405 106.0 
301.731354 97.0 
301.756226 229.0 
301.776154 189.0 
301.786102 112.0 
301.801025 135.0 
301.815948 145.0 
301.845795 116.0 
301.88562 127.0 
301.925446 147.0 
301.945343 109.0 
301.97522 130.0 
302.005066 138.0 
302.029968 101.0 
302.064819 186.0 
302.074768 116.0 
302.114594 731.0 
302.139496 1258.0 
302.149445 1054.0 
302.184296 1332.0 
302.204224 787.0 
302.229095 697.0 
302.263977 301.0 
302.273926 231.0 
302.288879 151.0 
302.293854 151.0 
302.318756 199.0 
302.338684 105.0 
302.348633 136.0 
302.368561 112.0 
302.388489 145.0 
302.408386 126.0 
302.433319 131.0 
302.46817 124.0 
302.483124 85.0 
302.493073 80.0 
302.52298 147.0 
302.547882 93.0 
302.577789 190.0 
302.597717 142.0 
302.612671 135.0 
302.627594 189.0 
302.657501 153.0 
302.687408 63.0 
302.702362 89.0 
302.717316 76.0 
302.732269 71.0 
302.747192 70.0 
302.757172 89.0 
302.767151 113.0 
302.792053 88.0 
302.802032 106.0 
302.816986 90.0 
302.83194 94.0 
302.836914 94.0 
302.861847 108.0 
302.891754 90.0 
302.921661 120.0 
302.931641 96.0 
302.956573 96.0 
302.971527 123.0 
302.981476 88.0 
302.99646 122.0 
303.016388 138.0 
303.026367 129.0 
303.041321 87.0 
303.0513 102.0 
303.116119 12195.0 
303.156006 11425.0 
303.200897 4414.0 
303.255768 1064.0 
303.305664 479.0 
303.350555 238.0 
303.360535 266.0 
303.370514 215.0 
303.380493 169.0 
303.395447 194.0 
303.425385 112.0 
303.440338 125.0 
303.450317 137.0 
303.465302 164.0 
303.48526 137.0 
303.525177 173.0 
303.56012 176.0 
303.585052 108.0 
303.600037 132.0 
303.615021 124.0 
303.629974 108.0 
303.649963 110.0 
303.674896 107.0 
303.68988 98.0 
303.69986 83.0 
303.729828 132.0 
303.749786 98.0 
303.764771 158.0 
303.784729 148.0 
303.799713 180.0 
303.809692 154.0 
303.819672 112.0 
303.844635 136.0 
303.854614 147.0 
303.869598 118.0 
303.889587 160.0 
303.899567 142.0 
303.92453 111.0 
303.934509 110.0 
303.964478 148.0 
303.984467 198.0 
304.014435 163.0 
304.034393 111.0 
304.049377 126.0 
304.069366 175.0 
304.114319 2362.0 
304.124298 2092.0 
304.159271 2469.0 
304.164276 2469.0 
304.199249 1124.0 
304.209229 1130.0 
304.229218 572.0 
304.249207 484.0 
304.259186 404.0 
304.28418 227.0 
304.299164 177.0 
304.309143 251.0 
304.324127 177.0 
304.344116 111.0 
304.359131 114.0 
304.36911 137.0 
304.384094 107.0 
304.404083 119.0 
304.424072 120.0 
304.439087 145.0 
304.449066 115.0 
304.459076 84.0 
304.47406 89.0 
304.489044 114.0 
304.504059 113.0 
304.539032 115.0 
304.574036 76.0 
304.594025 122.0 
304.624023 130.0 
304.639008 94.0 
304.659027 106.0 
304.674011 113.0 
304.684021 152.0 
304.694031 162.0 
304.719025 102.0 
304.734009 117.0 
304.754028 176.0 
304.769012 160.0 
304.789032 135.0 
304.819031 133.0 
304.829041 98.0 
304.844025 130.0 
304.879028 71.0 
304.894043 129.0 
304.919037 97.0 
304.944061 65.0 
304.954071 83.0 
304.964081 87.0 
304.989075 94.0 
305.004089 68.0 
305.014099 68.0 
305.029083 44.0 
305.049103 94.0 
305.069122 110.0 
305.14917 3902.0 
305.179199 4097.0 
305.214233 2353.0 
305.259247 1057.0 
305.289276 368.0 
305.299286 328.0 
305.314301 212.0 
305.319305 212.0 
305.339325 200.0 
305.349335 229.0 
305.384369 179.0 
305.404419 96.0 
305.419434 157.0 
305.449463 89.0 
305.464478 121.0 
305.489502 120.0 
305.499512 102.0 
305.514526 132.0 
305.544586 101.0 
305.57962 173.0 
305.604675 84.0 
305.6297 89.0 
305.644714 97.0 
305.669769 102.0 
305.709839 109.0 
305.739868 114.0 
305.754913 149.0 
305.769928 102.0 
305.804993 94.0 
305.825012 63.0 
305.845062 89.0 
305.855072 74.0 
305.875122 72.0 
305.885132 75.0 
305.900177 71.0 
305.920197 88.0 
305.945251 106.0 
305.955261 109.0 
305.975311 104.0 
306.000366 112.0 
306.020416 107.0 
306.055481 105.0 
306.070526 140.0 
306.085541 102.0 
306.110596 420.0 
306.135681 652.0 
306.150696 966.0 
306.180786 1118.0 
306.215851 873.0 
306.245941 402.0 
306.260956 319.0 
306.276001 322.0 
306.296051 162.0 
306.311096 115.0 
306.321136 107.0 
306.336151 85.0 
306.346191 92.0 
306.356232 91.0 
306.371246 155.0 
306.376282 155.0 
306.401337 139.0 
306.416382 98.0 
306.431427 121.0 
306.451477 111.0 
306.466522 75.0 
306.471527 75.0 
306.481567 73.0 
306.496613 97.0 
306.506653 78.0 
306.531708 69.0 
306.546753 88.0 
306.561798 88.0 
306.581879 93.0 
306.616974 89.0 
306.627014 93.0 
306.662109 79.0 
306.677155 78.0 
306.687195 91.0 
306.71228 93.0 
306.737366 69.0 
306.762451 69.0 
306.787537 76.0 
306.817627 69.0 
306.837708 79.0 
306.857758 46.0 
306.872833 85.0 
306.892883 86.0 
306.917969 104.0 
306.928009 75.0 
306.94809 64.0 
306.97821 80.0 
307.008301 46.0 
307.028381 78.0 
307.048462 64.0 
307.068542 90.0 
307.118744 2372.0 
307.143829 2850.0 
307.16391 3688.0 
307.194031 2900.0 
307.214111 2112.0 
307.219147 2112.0 
307.229187 2025.0 
307.269348 1016.0 
307.314545 304.0 
307.32959 204.0 
307.344666 198.0 
307.364746 130.0 
307.379822 119.0 
307.389862 120.0 
307.404938 102.0 
307.425018 125.0 
307.435059 132.0 
307.450134 126.0 
307.460175 99.0 
307.480255 133.0 
307.495331 118.0 
307.525452 113.0 
307.555603 105.0 
307.570679 100.0 
307.585754 81.0 
307.6008 79.0 
307.620911 75.0 
307.635986 93.0 
307.656067 84.0 
307.666138 122.0 
307.676178 129.0 
307.701294 142.0 
307.731445 104.0 
307.771637 143.0 
307.791748 101.0 
307.806824 99.0 
307.816864 110.0 
307.84198 60.0 
307.877167 96.0 
307.907318 59.0 
307.917389 77.0 
307.927429 85.0 
307.9375 98.0 
307.94754 98.0 
307.972687 67.0 
307.997803 103.0 
308.022949 74.0 
308.03299 96.0 
308.048065 111.0 
308.083282 318.0 
308.108398 214.0 
308.118469 331.0 
308.12851 533.0 
308.13858 589.0 
308.163727 960.0 
308.188843 979.0 
308.213989 801.0 
308.244171 754.0 
308.269318 426.0 
308.294464 282.0 
308.314575 147.0 
308.329681 111.0 
308.344757 187.0 
308.374939 120.0 
308.400085 163.0 
308.425232 159.0 
308.450378 122.0 
308.465485 116.0 
308.495667 102.0 
308.515778 113.0 
308.525848 97.0 
308.540955 97.0 
308.550995 188.0 
308.566101 93.0 
308.586243 150.0 
308.616425 93.0 
308.641571 73.0 
308.656677 113.0 
308.671783 70.0 
308.701965 94.0 
308.722107 70.0 
308.742218 104.0 
308.77243 78.0 
308.782501 96.0 
308.817719 116.0 
308.827789 83.0 
308.852966 79.0 
308.868073 84.0 
308.913361 109.0 
308.928467 82.0 
308.943573 77.0 
308.963715 85.0 
308.988892 54.0 
309.014069 65.0 
309.024139 90.0 
309.044281 67.0 
309.054352 76.0 
309.074493 60.0 
309.109741 473.0 
309.134918 2116.0 
309.160095 1922.0 
309.180237 2940.0 
309.21048 3218.0 
309.245728 1889.0 
309.296112 458.0 
309.33136 235.0 
309.351501 204.0 
309.366638 201.0 
309.401886 143.0 
309.427094 154.0 
309.452271 149.0 
309.472443 103.0 
309.49762 83.0 
309.532898 112.0 
309.55307 80.0 
309.558105 80.0 
309.573212 76.0 
309.588348 118.0 
309.628662 110.0 
309.648834 60.0 
309.658905 57.0 
309.674011 97.0 
309.684113 109.0 
309.719391 120.0 
309.749634 87.0 
309.784912 103.0 
309.805084 60.0 
309.820221 83.0 
309.830292 74.0 
309.850464 126.0 
309.865601 91.0 
309.900879 101.0 
309.91098 88.0 
309.931152 78.0 
309.951324 70.0 
309.971497 71.0 
309.976532 71.0 
310.00174 106.0 
310.026978 103.0 
310.052185 122.0 
310.062256 82.0 
310.072357 81.0 
310.087494 107.0 
310.097565 139.0 
310.122803 448.0 
310.153046 708.0 
310.178284 880.0 
310.208557 907.0 
310.228729 1026.0 
310.253967 723.0 
310.274139 390.0 
310.294312 199.0 
310.31955 114.0 
310.334686 94.0 
310.344788 89.0 
310.354858 82.0 
310.375061 108.0 
310.41037 73.0 
310.430573 99.0 
310.440674 112.0 
310.460846 99.0 
310.486084 118.0 
310.501221 115.0 
310.521423 120.0 
310.541595 104.0 
310.571899 98.0 
310.587036 75.0 
310.612274 59.0 
310.622375 52.0 
310.637512 65.0 
310.647614 75.0 
310.657715 44.0 
310.672852 73.0 
310.703156 98.0 
310.728394 72.0 
310.748596 64.0 
310.768799 90.0 
310.77887 74.0 
310.783936 74.0 
310.794037 73.0 
310.81424 63.0 
310.819275 63.0 
310.844543 73.0 
310.864746 30.0 
310.879883 77.0 
310.89502 66.0 
310.915222 51.0 
310.930389 75.0 
310.950592 63.0 
310.985962 51.0 
310.996063 53.0 
311.016266 136.0 
311.026367 70.0 
311.041504 101.0 
311.061707 90.0 
311.086975 241.0 
311.132446 2296.0 
311.152649 3261.0 
311.182983 3284.0 
311.203186 2559.0 
311.223389 1832.0 
311.243622 1053.0 
311.253723 1167.0 
311.284027 521.0 
311.314362 277.0 
311.329529 192.0 
311.33963 203.0 
311.364899 154.0 
311.385132 132.0 
311.400269 86.0 
311.4104 107.0 
311.44577 128.0 
311.460938 81.0 
311.481171 137.0 
311.496338 142.0 
311.511505 114.0 
311.536774 132.0 
311.546875 158.0 
311.572174 102.0 
311.602509 78.0 
311.632843 74.0 
311.668243 69.0 
311.678345 76.0 
311.688446 65.0 
311.708679 120.0 
311.733978 116.0 
311.759247 106.0 
311.77948 69.0 
311.799713 97.0 
311.825012 78.0 
311.845245 117.0 
311.870544 84.0 
311.880646 103.0 
311.895813 123.0 
311.911011 94.0 
311.916046 94.0 
311.931244 94.0 
311.951477 66.0 
311.97171 74.0 
311.986877 76.0 
312.002075 50.0 
312.007111 50.0 
312.022308 88.0 
312.057709 83.0 
312.067841 52.0 
312.088074 76.0 
312.118439 395.0 
312.133636 405.0 
312.15387 834.0 
312.179169 916.0 
312.204468 747.0 
312.234833 603.0 
312.265198 498.0 
312.295593 205.0 
312.320892 147.0 
312.341125 90.0 
312.356323 91.0 
312.376587 111.0 
312.386688 83.0 
312.406952 83.0 
312.432251 109.0 
312.447449 95.0 
312.457581 86.0 
312.472778 127.0 
312.498077 91.0 
312.523407 61.0 
312.533539 81.0 
312.56897 110.0 
312.589233 94.0 
312.599365 98.0 
312.614563 146.0 
312.634827 110.0 
312.660126 145.0 
312.675323 78.0 
312.705719 157.0 
312.736115 65.0 
312.746246 69.0 
312.756378 75.0 
312.76651 65.0 
312.801971 67.0 
312.812103 55.0 
312.827301 59.0 
312.852631 64.0 
312.883026 47.0 
312.898224 103.0 
312.923553 97.0 
312.943817 112.0 
312.959015 79.0 
312.979309 141.0 
313.009705 95.0 
313.029968 41.0 
313.045166 57.0 
313.105988 2466.0 
313.136414 4829.0 
313.146545 5062.0 
313.182037 3924.0 
313.232727 1570.0 
313.288483 300.0 
313.293549 300.0 
313.313843 223.0 
313.329041 185.0 
313.344269 206.0 
313.379761 189.0 
313.394958 257.0 
313.410187 164.0 
313.43045 233.0 
313.445679 178.0 
313.465942 125.0 
313.501465 127.0 
313.511597 101.0 
313.521729 93.0 
313.536957 86.0 
313.542023 86.0 
313.557251 62.0 
313.577545 74.0 
313.607971 113.0 
313.633331 89.0 
313.658691 109.0 
313.668823 111.0 
313.684052 114.0 
313.704346 104.0 
313.72464 92.0 
313.744934 120.0 
313.755096 79.0 
313.765228 92.0 
313.790588 116.0 
313.800751 117.0 
313.815979 75.0 
313.826111 63.0 
313.846405 71.0 
313.861633 69.0 
313.876862 53.0 
313.887024 65.0 
313.902222 45.0 
313.91745 63.0 
313.937775 73.0 
313.968201 69.0 
313.993591 56.0 
314.00882 87.0 
314.018982 75.0 
314.039276 111.0 
314.074799 108.0 
314.100189 436.0 
314.12558 635.0 
314.145874 1047.0 
314.171265 753.0 
314.186493 849.0 
314.201721 891.0 
314.232178 500.0 
314.257568 189.0 
314.267731 153.0 
314.303284 98.0 
314.313416 93.0 
314.318512 93.0 
314.354065 106.0 
314.384521 75.0 
314.394684 84.0 
314.409912 76.0 
314.430237 100.0 
314.460724 140.0 
314.486115 152.0 
314.501343 128.0 
314.511505 129.0 
314.536896 108.0 
314.547058 83.0 
314.55722 69.0 
314.567383 100.0 
314.602966 96.0 
314.613098 69.0 
314.648682 89.0 
314.658844 74.0 
314.674072 85.0 
314.684235 97.0 
314.694397 101.0 
314.714722 83.0 
314.735046 64.0 
314.745209 85.0 
314.765533 60.0 
314.775726 68.0 
314.790955 68.0 
314.811279 98.0 
314.846863 113.0 
314.862122 123.0 
314.892609 63.0 
314.912933 72.0 
314.938354 80.0 
314.958679 77.0 
314.968842 52.0 
314.979004 65.0 
315.004425 54.0 
315.014618 62.0 
315.029846 41.0 
315.055267 56.0 
315.141724 5214.0 
315.167145 5153.0 
315.187469 4097.0 
315.238342 1310.0 
315.263763 696.0 
315.284119 383.0 
315.299347 268.0 
315.355316 217.0 
315.380737 192.0 
315.416351 171.0 
315.451965 140.0 
315.467224 105.0 
315.482483 113.0 
315.502838 104.0 
315.513 114.0 
315.533356 91.0 
315.538452 91.0 
315.548645 94.0 
315.563904 83.0 
315.599518 110.0 
315.614777 106.0 
315.650391 109.0 
315.686035 124.0 
315.70639 110.0 
315.726746 94.0 
315.742004 94.0 
315.757263 151.0 
315.792908 125.0 
315.813263 177.0 
315.823456 138.0 
315.854004 135.0 
315.879456 96.0 
315.899811 101.0 
315.920166 93.0 
315.950714 95.0 
315.971069 58.0 
315.986359 96.0 
316.01181 126.0 
316.042358 76.0 
316.057648 79.0 
316.067841 85.0 
316.078003 61.0 
316.098389 137.0 
316.134033 1262.0 
316.144226 1421.0 
316.159485 1237.0 
316.174774 1492.0 
316.19516 1304.0 
316.225708 620.0 
316.246094 559.0 
316.266449 251.0 
316.291931 164.0 
316.302124 204.0 
316.32251 90.0 
316.337769 97.0 
316.358154 117.0 
316.373444 124.0 
316.393829 108.0 
316.404022 97.0 
316.419281 85.0 
316.439667 104.0 
316.454956 79.0 
316.465149 74.0 
316.485535 93.0 
316.495728 95.0 
316.52121 69.0 
316.546692 101.0 
316.567078 91.0 
316.59256 83.0 
316.597656 83.0 
316.607849 107.0 
316.618042 93.0 
316.653717 88.0 
316.66391 97.0 
316.684296 81.0 
316.699585 66.0 
316.719971 103.0 
316.730164 103.0 
316.745453 54.0 
316.760773 78.0 
316.770966 46.0 
316.791351 118.0 
316.801544 60.0 
316.82193 61.0 
316.837219 64.0 
316.857635 66.0 
316.872925 125.0 
316.903503 99.0 
316.92392 85.0 
316.944305 70.0 
316.959595 95.0 
316.969818 99.0 
316.974915 99.0 
316.9953 77.0 
317.005493 65.0 
317.020813 47.0 
317.051392 70.0 
317.097321 285.0 
317.138123 2970.0 
317.184021 3707.0 
317.21463 3378.0 
317.255463 2026.0 
317.286072 966.0 
317.316681 303.0 
317.33197 255.0 
317.367706 151.0 
317.377899 151.0 
317.388123 159.0 
317.413635 156.0 
317.434052 104.0 
317.444244 116.0 
317.469757 103.0 
317.47998 94.0 
317.505493 110.0 
317.525909 98.0 
317.531006 98.0 
317.541229 82.0 
317.551422 82.0 
317.576935 109.0 
317.592255 113.0 
317.607574 86.0 
317.638214 94.0 
317.65863 75.0 
317.668823 63.0 
317.68924 121.0 
317.730103 89.0 
317.745422 67.0 
317.770935 88.0 
317.786255 62.0 
317.796478 61.0 
317.822021 108.0 
317.837311 68.0 
317.862854 90.0 
317.878174 55.0 
317.888397 57.0 
317.898621 55.0 
317.908813 71.0 
317.94458 88.0 
317.980316 62.0 
317.995636 66.0 
318.005859 80.0 
318.031403 205.0 
318.041626 182.0 
318.051849 131.0 
318.062042 147.0 
318.072266 91.0 
318.087585 174.0 
318.108032 277.0 
318.148895 942.0 
318.184662 971.0 
318.199982 939.0 
318.220428 884.0 
318.230652 941.0 
318.251099 489.0 
318.261322 536.0 
318.276642 375.0 
318.307312 180.0 
318.332855 96.0 
318.348175 113.0 
318.378845 133.0 
318.399292 96.0 
318.419739 103.0 
318.435059 69.0 
318.450409 57.0 
318.470856 95.0 
318.486176 69.0 
318.501526 78.0 
318.511749 70.0 
318.521973 47.0 
318.532196 54.0 
318.547516 90.0 
318.562866 88.0 
318.583313 110.0 
318.598663 111.0 
318.613983 95.0 
318.624207 91.0 
318.629333 91.0 
318.64978 92.0 
318.660004 119.0 
318.685577 65.0 
318.695801 68.0 
318.706024 78.0 
318.731598 116.0 
318.752045 92.0 
318.782745 69.0 
318.798065 57.0 
318.813416 49.0 
318.823639 57.0 
318.838989 112.0 
318.874786 98.0 
318.88504 76.0 
318.895264 75.0 
318.91571 49.0 
318.936188 78.0 
318.966858 66.0 
318.987335 63.0 
319.018036 75.0 
319.033386 75.0 
319.04361 68.0 
319.053833 62.0 
319.110138 6018.0 
319.161285 7203.0 
319.191986 4190.0 
319.21759 2944.0 
319.238068 2066.0 
319.268768 1101.0 
319.304596 457.0 
319.33017 311.0 
319.355774 237.0 
319.381378 234.0 
319.391602 165.0 
319.401855 214.0 
319.427429 144.0 
319.437683 146.0 
319.447906 128.0 
319.463287 118.0 
319.483765 115.0 
319.514465 112.0 
319.524719 186.0 
319.545197 144.0 
319.560547 150.0 
319.570801 175.0 
319.596405 108.0 
319.611755 100.0 
319.627136 91.0 
319.63736 96.0 
319.647614 96.0 
319.657837 112.0 
319.662964 112.0 
319.678345 106.0 
319.683441 106.0 
319.698822 136.0 
319.724426 99.0 
319.73468 90.0 
319.755157 130.0 
319.770538 139.0 
319.80127 225.0 
319.837128 203.0 
319.852478 108.0 
319.867859 103.0 
319.888336 127.0 
319.908844 113.0 
319.924194 101.0 
319.934448 111.0 
319.960083 130.0 
319.98056 67.0 
320.011292 161.0 
320.036926 159.0 
320.04718 148.0 
320.057434 152.0 
320.077911 183.0 
320.108673 1285.0 
320.129181 1404.0 
320.159912 1993.0 
320.200928 1061.0 
320.231659 658.0 
320.252167 371.0 
320.277802 328.0 
320.293182 194.0 
320.308563 158.0 
320.329071 136.0 
320.344452 115.0 
320.354706 138.0 
320.375214 118.0 
320.395721 93.0 
320.421356 135.0 
320.446991 137.0 
320.467499 129.0 
320.477753 143.0 
320.49826 101.0 
320.508514 107.0 
320.534149 79.0 
320.544434 86.0 
320.559814 105.0 
320.575195 87.0 
320.611084 138.0 
320.631592 77.0 
320.662384 77.0 
320.7034 93.0 
320.729065 97.0 
320.7547 77.0 
320.764984 72.0 
320.775238 85.0 
320.780365 85.0 
320.806 51.0 
320.816284 79.0 
320.831665 61.0 
320.841919 64.0 
320.852173 86.0 
320.877838 103.0 
320.90863 74.0 
320.929138 113.0 
320.954803 106.0 
320.980469 82.0 
320.985596 82.0 
321.001007 87.0 
321.011261 76.0 
321.031799 118.0 
321.067719 272.0 
321.124176 22060.0 
321.165222 20591.0 
321.257629 1594.0 
321.324371 687.0 
321.350067 338.0 
321.365448 417.0 
321.380859 390.0 
321.406555 246.0 
321.437347 240.0 
321.463043 192.0 
321.473297 209.0 
321.483582 194.0 
321.509247 205.0 
321.529785 235.0 
321.560608 253.0 
321.586304 235.0 
321.622253 214.0 
321.647949 175.0 
321.663361 192.0 
321.689026 234.0 
321.709595 164.0 
321.730133 226.0 
321.750671 153.0 
321.766113 213.0 
321.796936 194.0 
321.812347 101.0 
321.832886 173.0 
321.873993 179.0 
321.894562 176.0 
321.920258 119.0 
321.945953 160.0 
321.971649 156.0 
321.992218 112.0 
322.023041 112.0 
322.038483 125.0 
322.053894 155.0 
322.131012 5290.0 
322.161835 4454.0 
322.218414 1296.0 
322.24411 642.0 
322.28009 333.0 
322.290375 287.0 
322.316101 262.0 
322.331543 301.0 
322.362396 161.0 
322.372681 158.0 
322.382965 140.0 
322.408661 191.0 
322.418945 143.0 
322.439545 160.0 
322.460114 121.0 
322.470398 149.0 
322.485809 139.0 
322.511536 165.0 
322.537262 167.0 
322.568115 99.0 
322.624725 166.0 
322.655579 88.0 
322.671021 121.0 
322.686462 144.0 
322.732758 111.0 
322.758484 101.0 
322.799652 118.0 
322.820251 90.0 
322.851135 97.0 
322.882019 117.0 
322.907745 129.0 
322.91803 118.0 
322.938629 73.0 
322.959229 144.0 
322.97467 138.0 
322.995239 87.0 
323.010681 85.0 
323.026154 93.0 
323.041595 70.0 
323.057037 85.0 
323.082764 181.0 
323.139404 3758.0 
323.170288 4016.0 
323.18576 3264.0 
323.221802 2371.0 
323.252686 966.0 
323.268158 953.0 
323.304199 418.0 
323.34024 247.0 
323.36084 343.0 
323.396912 193.0 
323.407196 180.0 
323.432953 223.0 
323.47934 224.0 
323.499939 148.0 
323.510223 147.0 
323.546295 193.0 
323.55661 171.0 
323.592682 168.0 
323.628754 176.0 
323.644196 105.0 
323.65451 127.0 
323.664825 138.0 
323.685425 98.0 
323.700897 99.0 
323.716339 103.0 
323.742126 178.0 
323.778198 102.0 
323.79364 133.0 
323.809113 106.0 
323.8349 143.0 
323.860657 164.0 
323.886444 130.0 
323.912201 141.0 
323.927673 148.0 
323.943146 139.0 
323.958618 159.0 
323.979218 123.0 
324.005005 136.0 
324.03595 97.0 
324.046265 97.0 
324.066895 70.0 
324.082336 144.0 
324.139069 888.0 
324.170013 1327.0 
324.190643 881.0 
324.221588 708.0 
324.27832 211.0 
324.29895 225.0 
324.324738 156.0 
324.355713 101.0 
324.371185 139.0 
324.386658 116.0 
324.391815 116.0 
324.412445 118.0 
324.44339 79.0 
324.46405 84.0 
324.48468 119.0 
324.510468 89.0 
324.536285 121.0 
324.556915 120.0 
324.572388 98.0 
324.582733 82.0 
324.608521 109.0 
324.654968 89.0 
324.670441 89.0 
324.701416 100.0 
324.727234 102.0 
324.747864 112.0 
324.773682 59.0 
324.7995 122.0 
324.814972 89.0 
324.845947 77.0 
324.86145 101.0 
324.897583 103.0 
324.928558 107.0 
324.938904 99.0 
324.954376 108.0 
324.975037 103.0 
324.995697 72.0 
325.011169 100.0 
325.047333 100.0 
325.062805 93.0 
325.129944 1698.0 
325.171265 2532.0 
325.18161 2588.0 
325.207428 1903.0 
325.217773 1890.0 
325.228088 1814.0 
325.243591 1613.0 
325.279755 608.0 
325.295258 512.0 
325.315918 257.0 
325.336578 188.0 
325.367584 149.0 
325.403748 101.0 
325.414093 97.0 
325.429596 125.0 
325.439911 118.0 
325.450256 126.0 
325.465759 108.0 
325.470917 108.0 
325.491608 92.0 
325.507111 99.0 
325.517426 131.0 
325.548431 135.0 
325.589783 107.0 
325.600128 95.0 
325.615631 128.0 
325.625977 75.0 
325.636292 95.0 
325.646637 106.0 
325.677643 98.0 
325.687988 89.0 
325.719025 95.0 
325.739685 93.0 
325.765533 59.0 
325.781036 62.0 
325.79657 87.0 
325.837921 77.0 
325.853424 61.0 
325.874115 70.0 
325.894806 101.0 
325.905151 74.0 
325.915466 77.0 
325.941345 120.0 
325.956848 79.0 
325.972351 87.0 
325.987885 99.0 
326.003387 82.0 
326.024078 82.0 
326.049927 106.0 
326.086151 76.0 
326.101654 102.0 
326.13269 668.0 
326.143036 699.0 
326.168915 961.0 
326.194763 1462.0 
326.215454 783.0 
326.251678 761.0 
326.282715 234.0 
326.318939 128.0 
326.355164 146.0 
326.375854 117.0 
326.412079 107.0 
326.4328 82.0 
326.453491 90.0 
326.463837 84.0 
326.494904 61.0 
326.515594 62.0 
326.531128 57.0 
326.536285 57.0 
326.546661 68.0 
326.562164 76.0 
326.577698 72.0 
326.588043 68.0 
326.613953 84.0 
326.634644 46.0 
326.670898 85.0 
326.691589 85.0 
326.727844 90.0 
326.753723 102.0 
326.758911 102.0 
326.78479 64.0 
326.795135 82.0 
326.821045 101.0 
326.846924 97.0 
326.872833 87.0 
326.888367 98.0 
326.898712 76.0 
326.919434 69.0 
326.934967 110.0 
326.960876 74.0 
326.991943 118.0 
327.012665 77.0 
327.028198 83.0 
327.043732 76.0 
327.059265 83.0 
327.074829 109.0 
327.111084 732.0 
327.131805 1719.0 
327.157715 3361.0 
327.188782 2551.0 
327.204346 2814.0 
327.230255 1298.0 
327.245789 1118.0 
327.307953 250.0 
327.323517 177.0 
327.349426 199.0 
327.36496 113.0 
327.375336 138.0 
327.396057 141.0 
327.411621 118.0 
327.427155 88.0 
327.437531 98.0 
327.458252 117.0 
327.494537 93.0 
327.510101 108.0 
327.541199 142.0 
327.561951 89.0 
327.58786 102.0 
327.61377 67.0 
327.634521 64.0 
327.650085 74.0 
327.665619 89.0 
327.681183 94.0 
327.696747 130.0 
327.733032 148.0 
327.743408 106.0 
327.774506 117.0 
327.79007 119.0 
327.826385 123.0 
327.857483 117.0 
327.883423 105.0 
327.888611 105.0 
327.914551 114.0 
327.935303 112.0 
327.961243 91.0 
327.992371 82.0 
328.023468 88.0 
328.049408 72.0 
328.059784 90.0 
328.080536 157.0 
328.090912 140.0 
328.12207 659.0 
328.158386 987.0 
328.179138 928.0 
328.210266 988.0 
328.262146 437.0 
328.27774 170.0 
328.308868 165.0 
328.32962 89.0 
328.345184 80.0 
328.360779 111.0 
328.376343 103.0 
328.397095 101.0 
328.407471 97.0 
328.438629 68.0 
328.449005 82.0 
328.474976 71.0 
328.506104 112.0 
328.532074 87.0 
328.547638 90.0 
328.578796 76.0 
328.594391 90.0 
328.604767 92.0 
328.635925 86.0 
328.641113 86.0 
328.656677 73.0 
328.667084 84.0 
328.698242 112.0 
328.718994 87.0 
328.744965 131.0 
328.770935 53.0 
328.791718 74.0 
328.8125 56.0 
328.828064 42.0 
328.83847 73.0 
328.864441 88.0 
328.895599 60.0 
328.900787 60.0 
328.916382 103.0 
328.94754 105.0 
328.973511 180.0 
329.0047 141.0 
329.041077 109.0 
329.082642 170.0 
329.134583 2501.0 
329.144989 2059.0 
329.170959 3270.0 
329.186554 3124.0 
329.217743 2248.0 
329.25412 893.0 
329.285309 241.0 
329.306091 217.0 
329.316498 210.0 
329.332092 179.0 
329.347687 183.0 
329.384064 136.0 
329.399658 169.0 
329.425659 115.0 
329.45166 91.0 
329.493256 67.0 
329.50885 75.0 
329.524445 104.0 
329.540039 79.0 
329.560852 81.0 
329.571228 110.0 
329.586853 89.0 
329.618042 105.0 
329.628448 135.0 
329.659637 133.0 
329.685638 138.0 
329.722046 88.0 
329.732452 79.0 
329.758453 97.0 
329.800079 77.0 
329.820892 116.0 
329.831299 65.0 
329.841705 65.0 
329.872894 133.0 
329.888519 87.0 
329.909332 127.0 
329.919739 124.0 
329.956146 126.0 
329.966553 97.0 
329.987366 76.0 
330.008179 68.0 
330.028992 58.0 
330.039398 57.0 
330.070618 82.0 
330.091431 102.0 
330.117462 264.0 
330.133087 883.0 
330.1539 780.0 
330.169495 1104.0 
330.18512 1483.0 
330.221558 1134.0 
330.252777 549.0 
330.273621 326.0 
330.284027 315.0 
330.310059 125.0 
330.33609 106.0 
330.362122 122.0 
330.388153 112.0 
330.403748 54.0 
330.419373 89.0 
330.434998 91.0 
330.466248 91.0 
330.481873 67.0 
330.502686 116.0 
330.523529 114.0 
330.554779 78.0 
330.565186 90.0 
330.585999 82.0 
330.612061 67.0 
330.643311 113.0 
330.664124 88.0 
330.690186 110.0 
330.716217 89.0 
330.747467 79.0 
330.757904 74.0 
330.778748 75.0 
330.794373 48.0 
330.809998 48.0 
330.830841 52.0 
330.851685 74.0 
330.862091 71.0 
330.89856 81.0 
330.919403 101.0 
330.924622 101.0 
330.940247 52.0 
330.950653 67.0 
330.971497 54.0 
330.987152 76.0 
330.997559 115.0 
331.023621 80.0 
331.049683 119.0 
331.112213 8725.0 
331.148712 8147.0 
331.200836 3531.0 
331.242523 1362.0 
331.279022 794.0 
331.305084 468.0 
331.315521 412.0 
331.336395 224.0 
331.357239 252.0 
331.367676 235.0 
331.393738 196.0 
331.404175 177.0 
331.430237 143.0 
331.477173 164.0 
331.508453 195.0 
331.539764 191.0 
331.555389 114.0 
331.576263 118.0 
331.591919 153.0 
331.628418 131.0 
331.649292 100.0 
331.675354 87.0 
331.696228 77.0 
331.722321 132.0 
331.732758 114.0 
331.748413 116.0 
331.769257 67.0 
331.790131 112.0 
331.821442 146.0 
331.837097 92.0 
331.857971 97.0 
331.884064 122.0 
331.899719 65.0 
331.910156 66.0 
331.920593 84.0 
331.93103 116.0 
331.951904 101.0 
331.972778 92.0 
331.977997 92.0 
331.993652 118.0 
332.014526 136.0 
332.040619 132.0 
332.066711 122.0 
332.10849 1539.0 
332.129364 1286.0 
332.14502 1864.0 
332.160675 2226.0 
332.192017 1307.0 
332.218109 911.0 
332.238983 587.0 
332.275543 353.0 
332.306854 156.0 
332.32254 128.0 
332.332977 158.0 
332.35907 159.0 
332.379974 107.0 
332.390411 107.0 
332.411316 121.0 
332.426971 99.0 
332.437408 100.0 
332.447876 93.0 
332.463531 94.0 
332.489655 95.0 
332.50531 72.0 
332.520996 89.0 
332.54187 114.0 
332.552307 94.0 
332.567993 114.0 
332.599335 95.0 
332.620239 121.0 
332.641113 105.0 
332.667236 83.0 
332.682922 72.0 
332.703827 75.0 
332.714264 94.0 
332.740387 89.0 
332.76651 82.0 
332.787415 120.0 
332.797852 93.0 
332.818756 71.0 
332.839661 87.0 
332.850128 75.0 
332.886688 101.0 
332.907593 65.0 
332.91806 66.0 
332.944183 90.0 
332.985992 88.0 
333.006927 91.0 
333.027832 84.0 
333.064423 145.0 
333.132385 2315.0 
333.15329 2674.0 
333.168976 3669.0 
333.205566 3568.0 
333.257843 1687.0 
333.289215 684.0 
333.320618 294.0 
333.357208 190.0 
333.367676 199.0 
333.38858 145.0 
333.409515 107.0 
333.425201 98.0 
333.435669 103.0 
333.451355 98.0 
333.47229 102.0 
333.493195 78.0 
333.51413 80.0 
333.529816 131.0 
333.561188 113.0 
333.582123 79.0 
333.587372 79.0 
333.618744 164.0 
333.655365 130.0 
333.671082 91.0 
333.686768 102.0 
333.702454 79.0 
333.71817 118.0 
333.739105 114.0 
333.754791 91.0 
333.765259 117.0 
333.775726 113.0 
333.796661 113.0 
333.828064 88.0 
333.854218 121.0 
333.864685 100.0 
333.890869 98.0 
333.906555 71.0 
333.917023 77.0 
333.932739 76.0 
333.943207 89.0 
333.958893 92.0 
333.985077 123.0 
334.006012 124.0 
334.042664 148.0 
334.074066 120.0 
334.126434 326.0 
334.147369 917.0 
334.168304 1002.0 
334.199738 1092.0 
334.215454 1106.0 
334.257324 555.0 
334.288757 228.0 
334.325409 153.0 
334.356842 124.0 
334.383026 79.0 
334.393494 87.0 
334.419678 69.0 
334.451111 100.0 
334.472076 67.0 
334.482544 70.0 
334.50351 90.0 
334.524475 102.0 
334.555908 117.0 
334.571625 66.0 
334.618774 73.0 
334.63974 58.0 
334.655457 49.0 
334.671173 62.0 
334.68689 56.0 
334.707855 67.0 
334.718323 92.0 
334.734039 94.0 
334.749756 73.0 
334.77597 116.0 
334.796936 66.0 
334.807434 62.0 
334.823151 82.0 
334.833618 86.0 
334.849365 67.0 
334.859833 79.0 
334.870331 75.0 
334.886047 119.0 
334.901764 65.0 
334.91748 106.0 
334.938446 46.0 
334.948944 76.0 
334.954193 76.0 
334.980408 57.0 
334.996124 46.0 
335.011841 58.0 
335.027588 45.0 
335.048553 90.0 
335.06427 99.0 
335.074768 74.0 
335.085266 103.0 
335.106232 446.0 
335.16391 2634.0 
335.195374 3178.0 
335.232086 5090.0 
335.268799 3313.0 
335.331726 405.0 
335.36322 268.0 
335.389435 347.0 
335.405182 222.0 
335.436646 293.0 
335.462891 194.0 
335.494354 154.0 
335.531067 102.0 
335.557312 106.0 
335.578308 73.0 
335.599304 149.0 
335.62027 81.0 
335.630768 83.0 
335.646515 104.0 
335.667511 90.0 
335.678009 91.0 
335.688507 73.0 
335.699005 91.0 
335.735748 89.0 
335.756744 82.0 
335.767212 86.0 
335.793457 111.0 
335.803955 92.0 
335.819702 91.0 
335.840698 98.0 
335.851196 109.0 
335.861694 133.0 
335.898468 135.0 
335.914215 86.0 
335.94046 124.0 
335.971954 76.0 
336.003448 89.0 
336.034973 137.0 
336.05072 93.0 
336.071716 64.0 
336.10321 174.0 
336.129486 590.0 
336.155731 1069.0 
336.187256 1011.0 
336.21875 1360.0 
336.234528 1459.0 
336.266022 1495.0 
336.27652 1268.0 
336.302795 488.0 
336.318542 325.0 
336.344818 147.0 
336.365845 124.0 
336.381592 128.0 
336.407867 117.0 
336.434143 114.0 
336.460388 107.0 
336.476166 88.0 
336.486664 82.0 
336.512939 117.0 
336.533966 72.0 
336.539215 72.0 
336.565491 114.0 
336.586517 108.0 
336.602264 92.0 
336.612793 79.0 
336.633789 111.0 
336.649567 72.0 
336.660095 69.0 
336.681091 74.0 
336.696869 98.0 
336.707397 70.0 
336.717896 126.0 
336.7547 148.0 
336.770447 130.0 
336.775726 130.0 
336.807251 49.0 
336.838806 74.0 
336.849304 66.0 
336.859833 57.0 
336.870331 56.0 
336.880859 62.0 
336.901886 56.0 
336.912384 55.0 
336.933441 77.0 
336.964966 88.0 
336.991272 110.0 
337.017548 118.0 
337.028076 103.0 
337.049103 105.0 
337.122742 10017.0 
337.159546 9490.0 
337.20163 3730.0 
337.243713 2365.0 
337.275269 1364.0 
337.291046 977.0 
337.317352 683.0 
337.364685 277.0 
337.396271 249.0 
337.433105 183.0 
337.448883 197.0 
337.480438 185.0 
337.501495 121.0 
337.522552 144.0 
337.53833 136.0 
337.559387 116.0 
337.590973 138.0 
337.622528 156.0 
337.638336 118.0 
337.675171 132.0 
337.706757 101.0 
337.717285 104.0 
337.733063 108.0 
337.743591 109.0 
337.764648 143.0 
337.796234 126.0 
337.806763 88.0 
337.838348 111.0 
337.864685 142.0 
337.875214 132.0 
337.90155 83.0 
337.917328 80.0 
337.922607 80.0 
337.933136 82.0 
337.954193 147.0 
337.98053 137.0 
338.012115 120.0 
338.027924 114.0 
338.059509 125.0 
338.080566 175.0 
338.117462 2269.0 
338.154327 1877.0 
338.164856 1924.0 
338.175385 1844.0 
338.21225 762.0 
338.238586 742.0 
338.29129 406.0 
338.328156 152.0 
338.343964 111.0 
338.354492 93.0 
338.365051 91.0 
338.380859 114.0 
338.401917 106.0 
338.412476 96.0 
338.438812 92.0 
338.465149 109.0 
338.491516 114.0 
338.523132 83.0 
338.54422 119.0 
338.575836 145.0 
338.596924 82.0 
338.607452 79.0 
338.617981 75.0 
338.62854 79.0 
338.660156 100.0 
338.697052 115.0 
338.71814 106.0 
338.749786 67.0 
338.760315 69.0 
338.791962 115.0 
338.80249 124.0 
338.823578 161.0 
338.855225 93.0 
338.876312 144.0 
338.8974 83.0 
338.902679 83.0 
338.929047 88.0 
338.944855 67.0 
338.981781 139.0 
339.002869 102.0 
339.023956 127.0 
339.039795 119.0 
339.055603 113.0 
339.134735 14934.0 
339.176941 13075.0 
339.28772 791.0 
339.308838 537.0 
339.340485 521.0 
339.377411 343.0 
339.409088 252.0 
339.430176 225.0 
339.446014 222.0 
339.467133 193.0 
339.498779 282.0 
339.519897 178.0 
339.535736 146.0 
339.551575 222.0 
339.577972 198.0 
339.614899 194.0 
339.651855 217.0 
339.667694 188.0 
339.688812 187.0 
339.71521 187.0 
339.731049 151.0 
339.762726 166.0 
339.778564 162.0 
339.799683 105.0 
339.815521 132.0 
339.836639 111.0 
339.852478 111.0 
339.873627 121.0 
339.884186 122.0 
339.900024 167.0 
339.926422 131.0 
339.95282 196.0 
339.979248 145.0 
339.995087 142.0 
340.005646 163.0 
340.032043 130.0 
340.07959 119.0 
340.100708 321.0 
340.137695 3003.0 
340.169403 2543.0 
340.185242 2957.0 
340.216949 1507.0 
340.290894 224.0 
340.306763 200.0 
340.322601 148.0 
340.34375 140.0 
340.354309 183.0 
340.380737 128.0 
340.391296 134.0 
340.417725 131.0 
340.438873 98.0 
340.449432 125.0 
340.470581 120.0 
340.49173 133.0 
340.523438 183.0 
340.549866 105.0 
340.571014 122.0 
340.581573 87.0 
340.608002 147.0 
340.64502 139.0 
340.660889 100.0 
340.682037 128.0 
340.692596 113.0 
340.719025 133.0 
340.750763 151.0 
340.756042 151.0 
340.777191 123.0 
340.803619 127.0 
340.819489 101.0 
340.845947 109.0 
340.867096 89.0 
340.898834 110.0 
340.914673 74.0 
340.930542 63.0 
340.941132 109.0 
340.97287 125.0 
340.994019 126.0 
341.009888 112.0 
341.046906 150.0 
341.083954 160.0 
341.142151 1826.0 
341.168579 3342.0 
341.189758 3266.0 
341.205627 2857.0 
341.263824 1187.0 
341.300873 356.0 
341.322021 241.0 
341.35379 188.0 
341.374969 156.0 
341.390839 144.0 
341.412018 114.0 
341.438477 138.0 
341.449066 100.0 
341.464935 127.0 
341.491394 204.0 
341.512573 152.0 
341.523163 172.0 
341.544342 152.0 
341.560211 128.0 
341.57608 166.0 
341.60257 96.0 
341.618439 136.0 
341.639618 99.0 
341.650208 104.0 
341.671387 135.0 
341.703156 124.0 
341.734924 122.0 
341.756104 104.0 
341.793182 117.0 
341.814362 82.0 
341.830231 79.0 
341.85144 71.0 
341.85672 71.0 
341.86731 76.0 
341.883209 100.0 
341.893799 107.0 
341.914978 101.0 
341.930878 68.0 
341.952057 137.0 
341.989136 139.0 
342.015625 57.0 
342.042114 109.0 
342.079193 113.0 
342.100372 108.0 
342.137451 673.0 
342.163971 810.0 
342.174561 953.0 
342.19046 1041.0 
342.211639 997.0 
342.243439 642.0 
342.269928 289.0 
342.280518 234.0 
342.322937 134.0 
342.333527 142.0 
342.344116 113.0 
342.354736 139.0 
342.365326 107.0 
342.381226 99.0 
342.407715 108.0 
342.418335 87.0 
342.439514 95.0 
342.460724 114.0 
342.492523 76.0 
342.519043 62.0 
342.529633 51.0 
342.561462 53.0 
342.598572 69.0 
342.614471 63.0 
342.625061 59.0 
342.651581 111.0 
342.678101 112.0 
342.70459 82.0 
342.71521 69.0 
342.74173 103.0 
342.773529 109.0 
342.789459 103.0 
342.810669 117.0 
342.826569 89.0 
342.837189 109.0 
342.863708 69.0 
342.884918 108.0 
342.900818 70.0 
342.922028 113.0 
342.959167 82.0 
342.985687 78.0 
343.006927 58.0 
343.028137 60.0 
343.049347 82.0 
343.059967 64.0 
343.081177 121.0 
343.097107 191.0 
343.123627 1140.0 
343.155457 2387.0 
343.166077 2345.0 
343.187317 3186.0 
343.197906 3521.0 
343.229767 2791.0 
343.261597 1290.0 
343.330597 241.0 
343.351807 261.0 
343.367737 209.0 
343.373047 209.0 
343.404907 178.0 
343.442047 140.0 
343.452667 125.0 
343.468597 120.0 
343.489838 121.0 
343.500458 94.0 
343.521667 98.0 
343.532288 80.0 
343.553528 81.0 
343.585388 94.0 
343.611938 107.0 
343.659729 110.0 
343.686279 85.0 
343.71283 114.0 
343.73407 127.0 
343.77124 126.0 
343.79248 82.0 
343.808411 78.0 
343.819031 100.0 
343.845612 62.0 
343.856232 63.0 
343.872162 97.0 
343.882782 82.0 
343.898712 80.0 
343.919952 88.0 
343.946533 83.0 
343.967773 98.0 
343.978394 78.0 
343.994324 105.0 
344.015594 95.0 
344.068726 116.0 
344.089966 82.0 
344.100586 81.0 
344.132477 306.0 
344.159027 1006.0 
344.185608 900.0 
344.206879 1157.0 
344.233429 810.0 
344.24408 665.0 
344.26001 497.0 
344.281281 494.0 
344.307831 155.0 
344.318481 163.0 
344.339722 110.0 
344.366302 109.0 
344.382263 107.0 
344.414154 95.0 
344.435425 89.0 
344.446045 89.0 
344.462006 120.0 
344.493896 84.0 
344.504517 65.0 
344.520477 74.0 
344.536438 67.0 
344.557678 86.0 
344.59491 93.0 
344.62149 70.0 
344.642761 66.0 
344.669342 84.0 
344.674683 84.0 
344.685303 87.0 
344.701263 81.0 
344.722534 109.0 
344.738495 62.0 
344.743805 62.0 
344.754456 59.0 
344.765076 79.0 
344.775726 69.0 
344.802307 46.0 
344.818268 49.0 
344.834229 65.0 
344.860809 71.0 
344.87677 46.0 
344.898041 56.0 
344.924652 78.0 
344.961884 116.0 
344.977844 91.0 
344.993805 98.0 
345.020416 112.0 
345.057648 99.0 
345.078949 95.0 
345.09491 100.0 
345.137482 2239.0 
345.164093 3411.0 
345.180054 3544.0 
345.201324 2729.0 
345.211975 2913.0 
345.227936 2011.0 
345.254547 1047.0 
345.32373 293.0 
345.334381 235.0 
345.345032 222.0 
345.392944 111.0 
345.430206 134.0 
345.451508 138.0 
345.483459 136.0 
345.49408 123.0 
345.510071 81.0 
345.531372 129.0 
345.557983 91.0 
345.568634 98.0 
345.595245 66.0 
345.605896 66.0 
345.616547 64.0 
345.637848 80.0 
345.659149 156.0 
345.67514 103.0 
345.685791 112.0 
345.712402 166.0 
345.728394 74.0 
345.744385 101.0 
345.781647 146.0 
345.797638 75.0 
345.82959 140.0 
345.845581 152.0 
345.877533 128.0 
345.904175 77.0 
345.930817 98.0 
345.962769 85.0 
345.98407 67.0 
346.005402 49.0 
346.021393 73.0 
346.053345 86.0 
346.074677 103.0 
346.090637 95.0 
346.111969 431.0 
346.143951 634.0 
346.170593 951.0 
346.191895 733.0 
346.207886 785.0 
346.239868 523.0 
346.293182 174.0 
346.309174 164.0 
346.335815 106.0 
346.351807 81.0 
346.362457 98.0 
346.378448 63.0 
346.38913 92.0 
346.39444 92.0 
346.415771 132.0 
346.453094 99.0 
346.469086 103.0 
346.485077 73.0 
346.511749 87.0 
346.52774 81.0 
346.549072 71.0 
346.575714 120.0 
346.586395 97.0 
346.597046 78.0 
346.613068 64.0 
346.623718 88.0 
346.661041 46.0 
346.671722 42.0 
346.687714 61.0 
346.725037 52.0 
346.741058 88.0 
346.751709 88.0 
346.794403 86.0 
346.810394 97.0 
346.831726 71.0 
346.858398 92.0 
346.87973 74.0 
346.901093 87.0 
346.911743 95.0 
346.922424 96.0 
346.954437 98.0 
346.98111 116.0 
347.013123 107.0 
347.039795 66.0 
347.050476 56.0 
347.071808 82.0 
347.151855 3323.0 
347.178558 3342.0 
347.19455 3537.0 
347.231934 1686.0 
347.269287 811.0 
347.285309 389.0 
347.306641 254.0 
347.344025 228.0 
347.381378 136.0 
347.408081 149.0 
347.429443 79.0 
347.440125 88.0 
347.466827 127.0 
347.477478 94.0 
347.49884 82.0 
347.514862 63.0 
347.525543 65.0 
347.536224 77.0 
347.546906 93.0 
347.578949 85.0 
347.594971 83.0 
347.632355 94.0 
347.653717 82.0 
347.669739 86.0 
347.691101 96.0 
347.723145 137.0 
347.744507 89.0 
347.77121 47.0 
347.787231 74.0 
347.819305 80.0 
347.856689 105.0 
347.878052 63.0 
347.883392 63.0 
347.915466 81.0 
347.95285 132.0 
347.979584 81.0 
348.006287 89.0 
348.022308 80.0 
348.054382 79.0 
348.065063 81.0 
348.075745 68.0 
348.086456 80.0 
348.102478 226.0 
348.1185 393.0 
348.150574 733.0 
348.177307 1043.0 
348.198669 833.0 
348.214722 792.0 
348.230743 663.0 
348.252136 467.0 
348.273499 228.0 
348.294891 207.0 
348.316284 182.0 
348.348358 103.0 
348.36438 134.0 
348.401825 113.0 
348.412506 89.0 
348.428558 126.0 
348.44458 101.0 
348.455292 97.0 
348.492706 105.0 
348.514099 110.0 
348.546173 81.0 
348.562225 47.0 
348.583618 49.0 
348.594299 54.0 
348.621063 66.0 
348.631744 67.0 
348.647797 98.0 
348.669189 61.0 
348.685242 98.0 
348.706635 80.0 
348.711975 80.0 
348.722687 61.0 
348.760101 77.0 
348.776154 87.0 
348.792206 80.0 
348.813599 68.0 
348.829651 99.0 
348.861755 61.0 
348.883148 119.0 
348.920624 93.0 
348.936676 95.0 
348.963409 81.0 
348.995514 92.0 
349.016937 61.0 
349.03299 133.0 
349.049042 81.0 
349.059723 89.0 
349.123962 6657.0 
349.156067 6727.0 
349.172119 6202.0 
349.204254 3449.0 
349.257782 908.0 
349.268463 845.0 
349.284546 656.0 
349.31665 440.0 
349.332703 244.0 
349.354126 200.0 
349.370178 188.0 
349.386261 179.0 
349.413025 139.0 
349.423737 154.0 
349.434448 139.0 
349.461212 108.0 
349.477264 120.0 
349.487976 155.0 
349.504059 114.0 
349.525482 115.0 
349.552246 106.0 
349.568298 109.0 
349.584381 117.0 
349.616516 118.0 
349.659363 152.0 
349.675415 118.0 
349.691498 102.0 
349.712921 124.0 
349.734344 132.0 
349.771851 105.0 
349.793274 96.0 
349.814697 80.0 
349.825409 82.0 
349.852203 115.0 
349.889709 104.0 
349.900421 95.0 
349.916504 87.0 
349.95401 124.0 
349.970093 111.0 
350.007599 121.0 
350.018311 95.0 
350.045105 93.0 
350.055817 80.0 
350.066528 82.0 
350.125488 1771.0 
350.168365 1866.0 
350.179077 1918.0 
350.205902 862.0 
350.238068 708.0 
350.264862 420.0 
350.286316 297.0 
350.302399 247.0 
350.334564 190.0 
350.361359 114.0 
350.382812 169.0 
350.404236 94.0 
350.42569 83.0 
350.436432 101.0 
350.452515 88.0 
350.468597 76.0 
350.48468 86.0 
350.495392 83.0 
350.511505 68.0 
350.522217 69.0 
350.543671 83.0 
350.554382 88.0 
350.570496 69.0 
350.591949 129.0 
350.613403 88.0 
350.65094 121.0 
350.667023 76.0 
350.688477 100.0 
350.715302 102.0 
350.731384 85.0 
350.747498 60.0 
350.76358 69.0 
350.768951 69.0 
350.801147 96.0 
350.81723 59.0 
350.833313 66.0 
350.844055 43.0 
350.865509 73.0 
350.886963 81.0 
350.919159 128.0 
350.935272 86.0 
350.946014 83.0 
350.967468 52.0 
350.994293 83.0 
351.015747 61.0 
351.03186 56.0 
351.053314 119.0 
351.08017 84.0 
351.112366 612.0 
351.149933 2088.0 
351.176758 2574.0 
351.192871 2569.0 
351.208984 2351.0 
351.219727 2526.0 
351.246552 1736.0 
351.262665 1365.0 
351.300232 773.0 
351.359283 197.0 
351.386139 167.0 
351.402252 142.0 
351.429108 193.0 
351.455963 118.0 
351.466675 109.0 
351.488159 122.0 
351.504272 81.0 
351.525757 161.0 
351.557983 124.0 
351.574097 94.0 
351.584839 89.0 
351.606323 98.0 
351.63855 76.0 
351.660034 122.0 
351.676147 63.0 
351.697632 97.0 
351.713745 111.0 
351.745972 118.0 
351.767456 72.0 
351.799713 76.0 
351.815826 77.0 
351.837311 78.0 
351.858795 90.0 
351.874908 92.0 
351.891052 80.0 
351.917908 81.0 
351.934021 93.0 
351.971649 68.0 
351.998505 69.0 
352.036133 76.0 
352.06839 64.0 
352.079132 75.0 
352.089874 96.0 
352.111359 172.0 
352.132874 324.0 
352.170502 522.0 
352.197388 741.0 
352.20813 852.0 
352.224243 764.0 
352.261871 469.0 
352.29953 223.0 
352.310272 242.0 
352.331787 120.0 
352.342529 96.0 
352.369415 160.0 
352.396301 96.0 
352.412415 105.0 
352.428558 99.0 
352.450073 68.0 
352.460815 63.0 
352.48233 65.0 
352.509216 59.0 
352.541504 61.0 
352.562988 84.0 
352.573761 100.0 
352.595276 82.0 
352.627533 91.0 
352.643677 51.0 
352.665192 79.0 
352.686707 53.0 
352.718994 66.0 
352.74588 61.0 
352.762024 71.0 
352.772797 59.0 
352.78894 55.0 
352.815826 84.0 
352.826599 72.0 
352.848114 87.0 
352.864258 48.0 
352.880402 56.0 
352.891144 67.0 
352.91806 53.0 
352.950348 78.0 
352.977264 84.0 
353.009552 93.0 
353.025696 103.0 
353.036438 82.0 
353.052582 58.0 
353.074127 64.0 
353.0849 85.0 
353.117188 767.0 
353.165619 2389.0 
353.176392 2497.0 
353.208679 3061.0 
353.235596 5573.0 
353.267914 3441.0 
353.278687 3632.0 
353.33252 576.0 
353.364807 271.0 
353.386353 196.0 
353.402527 227.0 
353.429443 225.0 
353.440216 253.0 
353.488678 183.0 
353.499451 152.0 
353.510223 129.0 
353.53714 118.0 
353.553314 126.0 
353.585602 115.0 
353.623322 155.0 
353.65564 127.0 
353.677185 102.0 
353.69873 80.0 
353.709503 72.0 
353.731049 148.0 
353.763367 116.0 
353.774139 130.0 
353.790314 86.0 
353.806488 118.0 
353.838806 88.0 
353.871124 91.0 
353.887299 150.0 
353.898071 132.0 
353.914246 106.0 
353.951965 128.0 
353.978912 138.0 
353.989685 95.0 
354.005859 115.0 
354.027405 127.0 
354.054352 108.0 
354.065125 125.0 
354.081299 76.0 
354.092102 114.0 
354.119049 227.0 
354.145996 583.0 
354.156769 594.0 
354.167542 644.0 
354.189117 765.0 
354.23764 1581.0 
354.27536 1144.0 
354.296936 666.0 
354.334686 191.0 
354.361633 150.0 
354.372406 112.0 
354.393982 216.0 
354.442505 127.0 
354.491058 97.0 
354.501831 85.0 
354.518005 88.0 
354.539581 115.0 
354.555786 92.0 
354.593536 70.0 
354.604309 76.0 
354.620483 72.0 
354.642059 87.0 
354.669037 124.0 
354.690613 128.0 
354.706818 103.0 
354.722992 115.0 
354.739166 69.0 
354.749969 72.0 
354.782349 96.0 
354.809326 83.0 
354.820099 82.0 
354.836304 77.0 
354.847076 67.0 
354.868652 83.0 
354.884857 97.0 
354.911835 66.0 
354.933411 84.0 
354.954987 84.0 
354.987396 80.0 
354.998169 102.0 
355.008972 114.0 
355.03595 90.0 
355.057556 116.0 
355.079132 90.0 
355.127716 6985.0 
355.165497 5496.0 
355.187103 6130.0 
355.203278 3569.0 
355.241058 2495.0 
355.27887 1426.0 
355.295074 1156.0 
355.332855 562.0 
355.359863 309.0 
355.381439 206.0 
355.397644 215.0 
355.408447 229.0 
355.457062 191.0 
355.48407 146.0 
355.505646 108.0 
355.521851 109.0 
355.543457 89.0 
355.559662 97.0 
355.581268 105.0 
355.597473 120.0 
355.61908 103.0 
355.629883 119.0 
355.651489 152.0 
355.689301 73.0 
355.705505 114.0 
355.737915 152.0 
355.75412 82.0 
355.770325 143.0 
355.797363 135.0 
355.81897 95.0 
355.851379 193.0 
355.872986 128.0 
355.900024 123.0 
355.916229 146.0 
355.943237 99.0 
355.970276 105.0 
356.002686 147.0 
356.035126 98.0 
356.045929 101.0 
356.062134 124.0 
356.078369 176.0 
356.110779 427.0 
356.132416 1633.0 
356.170258 1752.0 
356.186462 1511.0 
356.202698 1305.0 
356.229706 1023.0 
356.245941 1059.0 
356.283783 686.0 
356.294586 545.0 
356.327026 307.0 
356.364899 130.0 
356.386505 94.0 
356.40274 96.0 
356.413544 102.0 
356.424377 123.0 
356.435181 84.0 
356.445984 106.0 
356.462219 117.0 
356.478455 127.0 
356.494659 88.0 
356.500092 88.0 
356.516296 71.0 
356.543335 85.0 
356.564972 102.0 
356.586609 101.0 
356.602844 78.0 
356.624481 115.0 
356.635284 114.0 
356.667755 129.0 
356.700195 110.0 
356.727264 99.0 
356.748901 99.0 
356.765137 102.0 
356.786774 105.0 
356.803009 95.0 
356.813812 104.0 
356.83548 98.0 
356.851685 107.0 
356.86792 74.0 
356.889587 72.0 
356.900391 55.0 
356.916626 63.0 
356.92746 57.0 
356.943695 55.0 
356.954498 72.0 
356.976166 67.0 
356.992401 81.0 
357.008636 90.0 
357.030273 104.0 
357.046509 128.0 
357.089813 208.0 
357.127716 2561.0 
357.171021 4342.0 
357.203491 3597.0 
357.219727 2870.0 
357.268463 1005.0 
357.284698 942.0 
357.311768 363.0 
357.322601 351.0 
357.34967 278.0 
357.365906 222.0 
357.371338 222.0 
357.382172 235.0 
357.403809 189.0 
357.425476 164.0 
357.457977 145.0 
357.474213 136.0 
357.49588 124.0 
357.517548 137.0 
357.528381 84.0 
357.550049 111.0 
357.577118 122.0 
357.604218 114.0 
357.620453 97.0 
357.631287 99.0 
357.64212 92.0 
357.663788 70.0 
357.690887 120.0 
357.712555 133.0 
357.745056 143.0 
357.772156 101.0 
357.793823 89.0 
357.820892 82.0 
357.847992 164.0 
357.880493 117.0 
357.902191 137.0 
357.934692 91.0 
357.95636 77.0 
357.972626 68.0 
357.994324 111.0 
358.032257 89.0 
358.053925 130.0 
358.07019 79.0 
358.12439 623.0 
358.140656 762.0 
358.151489 865.0 
358.162323 1477.0 
358.178589 1446.0 
358.200287 1314.0 
358.211121 1223.0 
358.232819 1315.0 
358.259918 836.0 
358.335815 200.0 
358.373779 133.0 
358.395477 137.0 
358.417145 87.0 
358.428009 124.0 
358.455109 106.0 
358.476807 73.0 
358.487671 55.0 
358.498505 58.0 
358.514771 86.0 
358.531036 70.0 
358.536469 70.0 
358.569 78.0 
358.590698 66.0 
358.601562 80.0 
358.634094 89.0 
358.65036 88.0 
358.672058 69.0 
358.682922 65.0 
358.699188 93.0 
358.726318 107.0 
358.748016 54.0 
358.764313 116.0 
358.796844 104.0 
358.802277 104.0 
358.818542 57.0 
358.834839 63.0 
358.851105 75.0 
358.872803 97.0 
358.889099 64.0 
358.910797 144.0 
358.921661 93.0 
358.937927 71.0 
358.954224 78.0 
358.975922 80.0 
358.986786 68.0 
359.013916 143.0 
359.02475 70.0 
359.035614 91.0 
359.046478 81.0 
359.062744 123.0 
359.079041 73.0 
359.155029 2382.0 
359.176758 2562.0 
359.198456 3503.0 
359.220184 3336.0 
359.247314 2202.0 
359.334198 299.0 
359.361328 204.0 
359.377625 226.0 
359.415649 223.0 
359.426514 205.0 
359.437347 154.0 
359.453644 120.0 
359.475372 178.0 
359.497101 126.0 
359.513397 104.0 
359.524261 129.0 
359.540558 109.0 
359.567688 126.0 
359.605713 134.0 
359.622009 69.0 
359.638306 89.0 
359.660034 90.0 
359.670898 78.0 
359.692627 104.0 
359.703491 103.0 
359.719788 78.0 
359.741516 120.0 
359.779572 130.0 
359.795868 118.0 
359.812164 81.0 
359.828461 116.0 
359.850189 74.0 
359.871918 152.0 
359.893677 110.0 
359.904541 103.0 
359.931702 130.0 
359.95343 125.0 
359.980621 74.0 
360.013214 78.0 
360.034973 74.0 
360.045837 85.0 
360.067566 53.0 
360.105621 127.0 
360.12735 392.0 
360.159973 753.0 
360.187164 1183.0 
360.208893 915.0 
360.236084 952.0 
360.257812 544.0 
360.285004 632.0 
360.312195 302.0 
360.344818 144.0 
360.377441 141.0 
360.3992 151.0 
360.415497 101.0 
360.431824 107.0 
360.448151 96.0 
360.469879 98.0 
360.507965 121.0 
360.546021 83.0 
360.573212 83.0 
360.589539 61.0 
360.605865 103.0 
360.643921 76.0 
360.66568 59.0 
360.676575 53.0 
360.692902 81.0 
360.709198 64.0 
360.714661 64.0 
360.741852 91.0 
360.752747 103.0 
360.78537 98.0 
360.801697 92.0 
360.818024 101.0 
360.850677 110.0 
360.877869 74.0 
360.910522 93.0 
360.937744 94.0 
360.948608 78.0 
360.964935 83.0 
360.986694 125.0 
360.997589 86.0 
361.013916 74.0 
361.024811 99.0 
361.057465 63.0 
361.062897 63.0 
361.079224 120.0 
361.095551 212.0 
361.139099 1325.0 
361.171753 2365.0 
361.204437 3250.0 
361.226196 2716.0 
361.237091 3032.0 
361.247986 2870.0 
361.275208 1801.0 
361.302429 1077.0 
361.35141 259.0 
361.373199 209.0 
361.389526 227.0 
361.416779 180.0 
361.444 123.0 
361.460327 140.0 
361.482117 118.0 
361.509338 127.0 
361.542023 128.0 
361.55835 88.0 
361.569244 89.0 
361.580139 106.0 
361.591034 104.0 
361.612823 124.0 
361.629181 79.0 
361.640076 79.0 
361.661835 84.0 
361.672729 81.0 
361.689087 75.0 
361.710876 101.0 
361.743561 78.0 
361.754456 80.0 
361.76535 117.0 
361.798035 130.0 
361.819824 94.0 
361.830719 83.0 
361.863434 121.0 
361.901581 72.0 
361.917908 216.0 
361.950623 112.0 
361.977844 77.0 
362.016022 98.0 
362.032349 65.0 
362.054169 75.0 
362.070496 100.0 
362.086853 83.0 
362.114105 308.0 
362.141357 558.0 
362.174072 1007.0 
362.212219 1175.0 
362.223145 1018.0 
362.239502 969.0 
362.277649 484.0 
362.288544 383.0 
362.310364 210.0 
362.326721 211.0 
362.364899 101.0 
362.381256 132.0 
362.413971 100.0 
362.441223 146.0 
362.463043 73.0 
362.479401 91.0 
362.495758 84.0 
362.512115 69.0 
362.533936 75.0 
362.54483 73.0 
362.561188 65.0 
362.577576 64.0 
362.58847 53.0 
362.610291 75.0 
362.621185 54.0 
362.632111 55.0 
362.648468 57.0 
362.653931 57.0 
362.686646 77.0 
362.708466 101.0 
362.724854 57.0 
362.746674 93.0 
362.763031 96.0 
362.795776 72.0 
362.812134 61.0 
362.817596 61.0 
362.833954 49.0 
362.850311 80.0 
362.883057 84.0 
362.904877 79.0 
362.948547 99.0 
362.959442 115.0 
362.981293 66.0 
363.008575 66.0 
363.024933 83.0 
363.046783 82.0 
363.063141 54.0 
363.090424 147.0 
363.14502 2260.0 
363.155945 2178.0 
363.18869 3750.0 
363.243286 1704.0 
363.308777 441.0 
363.33609 204.0 
363.347015 204.0 
363.352478 204.0 
363.379761 129.0 
363.390686 129.0 
363.401611 127.0 
363.412537 115.0 
363.428894 111.0 
363.439819 98.0 
363.46167 109.0 
363.478058 92.0 
363.494446 120.0 
363.516296 140.0 
363.543579 121.0 
363.554504 116.0 
363.592743 136.0 
363.625519 102.0 
363.658295 112.0 
363.691071 100.0 
363.712921 74.0 
363.723846 79.0 
363.745697 91.0 
363.762085 68.0 
363.778473 76.0 
363.800323 80.0 
363.816711 80.0 
363.833099 113.0 
363.85495 67.0 
363.871338 77.0 
363.887726 109.0 
363.909607 72.0 
363.93692 46.0 
363.953308 89.0 
363.986084 90.0 
363.99704 85.0 
364.024353 91.0 
364.035278 105.0 
364.057129 171.0 
364.089935 157.0 
364.111786 228.0 
364.144592 556.0 
364.166443 740.0 
364.188324 916.0 
364.199249 1009.0 
364.22113 1069.0 
364.259369 614.0 
364.28125 281.0 
364.297638 263.0 
364.314056 153.0 
364.330444 183.0 
364.346863 144.0 
364.390594 116.0 
364.417938 125.0 
364.428864 116.0 
364.450745 85.0 
364.467163 59.0 
364.478088 79.0 
364.510895 92.0 
364.538239 72.0 
364.56012 107.0 
364.592926 96.0 
364.609344 50.0 
364.625763 63.0 
364.647614 73.0 
364.664032 78.0 
364.685913 68.0 
364.696869 62.0 
364.702332 62.0 
364.724213 75.0 
364.735138 45.0 
364.757019 72.0 
364.773438 76.0 
364.806274 85.0 
364.822693 61.0 
364.833618 65.0 
364.860962 36.0 
364.882874 53.0 
364.91568 100.0 
364.932098 98.0 
364.964935 74.0 
364.975891 63.0 
364.997772 64.0 
365.014191 45.0 
365.036072 75.0 
365.05249 63.0 
365.074402 210.0 
365.172913 2982.0 
365.194794 3002.0 
365.20575 2965.0 
365.287872 546.0 
365.326172 274.0 
365.342621 193.0 
365.353546 199.0 
365.38092 193.0 
365.408295 111.0 
365.41925 109.0 
365.430206 98.0 
365.452118 89.0 
365.463074 77.0 
365.490448 80.0 
365.51236 91.0 
365.523315 112.0 
365.556152 100.0 
365.578064 117.0 
365.616394 111.0 
365.638306 60.0 
365.649261 54.0 
365.660217 73.0 
365.671173 95.0 
365.704041 145.0 
365.742371 103.0 
365.764282 82.0 
365.780731 126.0 
365.802643 57.0 
365.830048 110.0 
365.857422 98.0 
365.873871 99.0 
365.884827 103.0 
365.906738 102.0 
365.923187 96.0 
365.961517 125.0 
365.999878 124.0 
366.02182 62.0 
366.032776 64.0 
366.049225 66.0 
366.076599 65.0 
366.098541 74.0 
366.153351 603.0 
366.202667 1201.0 
366.224609 1003.0 
366.257477 727.0 
366.284882 255.0 
366.312317 143.0 
366.323273 126.0 
366.345184 111.0 
366.361633 148.0 
366.383575 84.0 
366.394531 111.0 
366.41098 166.0 
366.438416 126.0 
366.46582 109.0 
366.493225 101.0 
366.509705 111.0 
366.537109 86.0 
366.564514 78.0 
366.580994 64.0 
366.602905 92.0 
366.624847 56.0 
366.641296 51.0 
366.652283 66.0 
366.679688 69.0 
366.712616 60.0 
366.734558 58.0 
366.745514 60.0 
366.761993 104.0 
366.794891 147.0 
366.82782 94.0 
366.849762 72.0 
366.877197 68.0 
366.899139 50.0 
366.910095 59.0 
366.932037 70.0 
366.943024 58.0 
366.981445 77.0 
366.997894 56.0 
367.014343 61.0 
367.036316 70.0 
367.074707 273.0 
367.129608 7566.0 
367.162537 6442.0 
367.184479 6568.0 
367.233887 2301.0 
367.277802 962.0 
367.321716 386.0 
367.343689 285.0 
367.376617 222.0 
367.387604 217.0 
367.415039 120.0 
367.426025 146.0 
367.458984 147.0 
367.480927 132.0 
367.502899 70.0 
367.519379 149.0 
367.541351 142.0 
367.552307 122.0 
367.57428 106.0 
367.590759 140.0 
367.623718 93.0 
367.645691 84.0 
367.656677 115.0 
367.678619 114.0 
367.695099 109.0 
367.717072 139.0 
367.739044 99.0 
367.761017 84.0 
367.788483 133.0 
367.799469 128.0 
367.821442 107.0 
367.837921 136.0 
367.865387 86.0 
367.881866 108.0 
367.914856 67.0 
367.931335 84.0 
367.953308 81.0 
367.964294 95.0 
367.986267 139.0 
368.024719 139.0 
368.035736 121.0 
368.052216 90.0 
368.068695 150.0 
368.090668 239.0 
368.14563 1512.0 
368.156616 1587.0 
368.167603 1602.0 
368.189606 1827.0 
368.217072 1146.0 
368.239075 650.0 
368.250061 701.0 
368.272034 398.0 
368.294037 323.0 
368.310516 145.0 
368.327026 179.0 
368.338013 218.0 
368.376495 146.0 
368.387482 126.0 
368.409485 109.0 
368.420471 105.0 
368.436981 76.0 
368.469971 105.0 
368.497437 77.0 
368.51944 52.0 
368.53595 64.0 
368.568939 96.0 
368.612915 121.0 
368.634918 86.0 
368.656921 84.0 
368.667938 110.0 
368.689911 52.0 
368.711914 71.0 
368.722931 63.0 
368.73941 87.0 
368.761414 75.0 
368.766937 75.0 
368.783417 80.0 
368.82193 116.0 
368.832947 79.0 
368.849426 48.0 
368.871429 117.0 
368.887939 76.0 
368.898956 101.0 
368.915466 80.0 
368.937469 103.0 
368.970459 70.0 
368.981476 54.0 
368.997986 46.0 
369.009003 65.0 
369.025482 92.0 
369.064026 113.0 
369.086029 157.0 
369.146545 1794.0 
369.179565 2953.0 
369.196075 2643.0 
369.212585 3516.0 
369.234619 2062.0 
369.245636 1987.0 
369.267639 1474.0 
369.289673 888.0 
369.333679 277.0 
369.372223 213.0 
369.405273 206.0 
369.421783 159.0 
369.454803 108.0 
369.471313 106.0 
369.493347 79.0 
369.515381 108.0 
369.531891 108.0 
369.548401 123.0 
369.564941 95.0 
369.592468 67.0 
369.619995 103.0 
369.642029 82.0 
369.675079 88.0 
369.691589 82.0 
369.708099 73.0 
369.735657 101.0 
369.75769 90.0 
369.768707 110.0 
369.779724 100.0 
369.796234 77.0 
369.823792 96.0 
369.862335 104.0 
369.895386 76.0 
369.917419 83.0 
369.93396 75.0 
369.944977 70.0 
369.955994 58.0 
369.978027 84.0 
370.000061 59.0 
370.016602 60.0 
370.033112 44.0 
370.060669 86.0 
370.082703 81.0 
370.115784 124.0 
370.137817 290.0 
370.159851 660.0 
370.181915 1069.0 
370.209473 1277.0 
370.264587 630.0 
370.281097 489.0 
370.303162 360.0 
370.314178 368.0 
370.341736 150.0 
370.369293 141.0 
370.396881 114.0 
370.424438 90.0 
370.446472 83.0 
370.479553 105.0 
370.512634 83.0 
370.534698 78.0 
370.562256 87.0 
370.600861 88.0 
370.622925 68.0 
370.644989 50.0 
370.650482 50.0 
370.66153 51.0 
370.683594 77.0 
370.722198 63.0 
370.733215 95.0 
370.749756 100.0 
370.777344 60.0 
370.793884 104.0 
370.810425 98.0 
370.84903 113.0 
370.860077 64.0 
370.882141 91.0 
370.909729 91.0 
370.920746 66.0 
370.948334 93.0 
370.981445 63.0 
371.00351 74.0 
371.025574 64.0 
371.058685 129.0 
371.08075 66.0 
371.09729 114.0 
371.108337 212.0 
371.146973 1956.0 
371.191101 3381.0 
371.23526 2512.0 
371.268372 1012.0 
371.279419 898.0 
371.340118 237.0 
371.356689 167.0 
371.37326 135.0 
371.384277 162.0 
371.406372 128.0 
371.461578 93.0 
371.472626 83.0 
371.489166 74.0 
371.505737 86.0 
371.522308 99.0 
371.544373 84.0 
371.566467 129.0 
371.577515 94.0 
371.605133 52.0 
371.627197 79.0 
371.654816 75.0 
371.665863 63.0 
371.687958 77.0 
371.710022 111.0 
371.732117 41.0 
371.748688 61.0 
371.765259 75.0 
371.809448 74.0 
371.831543 69.0 
371.84259 49.0 
371.903351 97.0 
371.930969 96.0 
371.953064 102.0 
371.975159 60.0 
371.997253 70.0 
372.013824 41.0 
372.030396 73.0 
372.05249 40.0 
372.069092 48.0 
372.091187 94.0 
372.107758 82.0 
372.129852 312.0 
372.151947 555.0 
372.18512 823.0 
372.207214 919.0 
372.245911 802.0 
372.268005 451.0 
372.279053 438.0 
372.301178 230.0 
372.317749 179.0 
372.339844 183.0 
372.373016 202.0 
372.389587 189.0 
372.417236 142.0 
372.444885 127.0 
372.489105 123.0 
372.505676 96.0 
372.522278 71.0 
372.544373 103.0 
372.560974 109.0 
372.577545 82.0 
372.59967 63.0 
372.610718 59.0 
372.627319 90.0 
372.643921 75.0 
372.666016 78.0 
372.682617 86.0 
372.704742 83.0 
372.721313 92.0 
372.743439 39.0 
372.76004 77.0 
372.771088 47.0 
372.798737 81.0 
372.83194 59.0 
372.848511 73.0 
372.881714 82.0 
372.903839 69.0 
372.931488 83.0 
372.964691 62.0 
372.986816 53.0 
373.008942 41.0 
373.031067 63.0 
373.069794 76.0 
373.130646 1120.0 
373.163849 2539.0 
373.185974 2848.0 
373.202576 2623.0 
373.224701 2615.0 
373.241302 2071.0 
373.28006 1124.0 
373.313263 477.0 
373.340942 218.0 
373.374146 207.0 
373.401825 131.0 
373.412872 121.0 
373.440552 120.0 
373.45163 140.0 
373.484833 109.0 
373.518066 120.0 
373.55127 122.0 
373.567871 87.0 
373.573425 87.0 
373.601105 101.0 
373.634308 98.0 
373.645386 99.0 
373.656464 78.0 
373.673065 108.0 
373.706299 91.0 
373.728455 95.0 
373.739532 89.0 
373.75058 103.0 
373.761658 83.0 
373.77829 128.0 
373.811523 83.0 
373.822571 67.0 
373.833649 82.0 
373.844727 65.0 
373.872437 58.0 
373.900116 100.0 
373.922272 75.0 
373.949982 58.0 
373.966583 86.0 
373.988739 94.0 
374.027527 119.0 
374.049683 124.0 
374.077393 115.0 
374.127228 420.0 
374.160492 1026.0 
374.193726 884.0 
374.204803 764.0 
374.215881 982.0 
374.238068 762.0 
374.265778 605.0 
374.276855 431.0 
374.293457 367.0 
374.315643 276.0 
374.359985 112.0 
374.387695 100.0 
374.415405 88.0 
374.432007 114.0 
374.465271 129.0 
374.470825 129.0 
374.498535 52.0 
374.515167 55.0 
374.542877 84.0 
374.553955 62.0 
374.570587 57.0 
374.592773 81.0 
374.61496 64.0 
374.637115 112.0 
374.67038 88.0 
374.69812 107.0 
374.720276 58.0 
374.731384 47.0 
374.748016 58.0 
374.770203 81.0 
374.792389 63.0 
374.809021 94.0 
374.831207 141.0 
374.842285 82.0 
374.858917 122.0 
374.875549 59.0 
374.897736 96.0 
374.908844 86.0 
374.942108 89.0 
374.969849 111.0 
374.992035 140.0 
375.014221 110.0 
375.025299 87.0 
375.041962 123.0 
375.064148 117.0 
375.086334 68.0 
375.130707 2382.0 
375.158447 2171.0 
375.180634 2843.0 
375.208374 2380.0 
375.225037 2347.0 
375.258331 1602.0 
375.291626 871.0 
375.313812 534.0 
375.347107 272.0 
375.385956 188.0 
375.408142 119.0 
375.430359 99.0 
375.446991 110.0 
375.469208 117.0 
375.496948 127.0 
375.530243 121.0 
375.563568 149.0 
375.61908 85.0 
375.64682 83.0 
375.657928 66.0 
375.685699 91.0 
375.702362 88.0 
375.718994 79.0 
375.735657 72.0 
375.757874 123.0 
375.791199 96.0 
375.813385 64.0 
375.824493 65.0 
375.841156 71.0 
375.857819 87.0 
375.88559 116.0 
375.891144 116.0 
375.918915 112.0 
375.963348 102.0 
375.996674 96.0 
376.007782 90.0 
376.024445 77.0 
376.05777 39.0 
376.074432 65.0 
376.146637 729.0 
376.157745 614.0 
376.168854 611.0 
376.196625 996.0 
376.22998 862.0 
376.263306 533.0 
376.302216 275.0 
376.313324 292.0 
376.346649 170.0 
376.368866 122.0 
376.385559 98.0 
376.396667 83.0 
376.418884 123.0 
376.446686 96.0 
376.480042 86.0 
376.49115 76.0 
376.507812 89.0 
376.541168 96.0 
376.557831 86.0 
376.56897 100.0 
376.596741 78.0 
376.60788 86.0 
376.624542 66.0 
376.635651 62.0 
376.64679 96.0 
376.657898 97.0 
376.674561 65.0 
376.691254 119.0 
376.719055 63.0 
376.730164 59.0 
376.741272 76.0 
376.752411 80.0 
376.769073 58.0 
376.774658 58.0 
376.791321 60.0 
376.796875 60.0 
376.819122 63.0 
376.835815 77.0 
376.852478 58.0 
376.869171 86.0 
376.885864 60.0 
376.908081 61.0 
376.930328 53.0 
376.952576 138.0 
376.969269 84.0 
376.985962 112.0 
377.008209 135.0 
377.030457 68.0 
377.052704 89.0 
377.08606 111.0 
377.16394 2070.0 
377.202881 2903.0 
377.236267 9797.0 
377.280762 6646.0 
377.397614 389.0 
377.447693 278.0 
377.458832 253.0 
377.486633 188.0 
377.503326 154.0 
377.52005 156.0 
377.531158 148.0 
377.55899 109.0 
377.570129 108.0 
377.586823 118.0 
377.603516 119.0 
377.620209 132.0 
377.642487 122.0 
377.65918 115.0 
377.675873 102.0 
377.698151 96.0 
377.70929 93.0 
377.725983 137.0 
377.753815 96.0 
377.764954 96.0 
377.787231 102.0 
377.809479 85.0 
377.826202 140.0 
377.859589 115.0 
377.881866 100.0 
377.920837 136.0 
377.943115 112.0 
377.970978 106.0 
377.982117 108.0 
378.004395 184.0 
378.032227 119.0 
378.04892 150.0 
378.087921 113.0 
378.104614 134.0 
378.138062 219.0 
378.165894 967.0 
378.188171 1108.0 
378.221588 2248.0 
378.243896 3371.0 
378.282867 2118.0 
378.344177 367.0 
378.36087 307.0 
378.372009 296.0 
378.405457 182.0 
378.433319 145.0 
378.455597 178.0 
378.477905 109.0 
378.494598 95.0 
378.516907 82.0 
378.555908 81.0 
378.567047 86.0 
378.578217 102.0 
378.600494 74.0 
378.622803 91.0 
378.633942 99.0 
378.656219 85.0 
378.672943 86.0 
378.689667 91.0 
378.711975 98.0 
378.723114 89.0 
378.745422 107.0 
378.7677 70.0 
378.77887 64.0 
378.795593 72.0 
378.823456 78.0 
378.834625 58.0 
378.851349 81.0 
378.873627 73.0 
378.89035 85.0 
378.907104 84.0 
378.912659 84.0 
378.934967 127.0 
378.957275 72.0 
378.96286 72.0 
378.973999 91.0 
378.985168 104.0 
379.013031 99.0 
379.040924 91.0 
379.057648 66.0 
379.074371 137.0 
379.113403 235.0 
379.141296 1494.0 
379.180359 2652.0 
379.202667 3190.0 
379.241699 3913.0 
379.269592 2742.0 
379.297485 2156.0 
379.353271 341.0 
379.369995 273.0 
379.397919 237.0 
379.436951 143.0 
379.45929 164.0 
379.476013 180.0 
379.492767 138.0 
379.509491 166.0 
379.53183 102.0 
379.565308 145.0 
379.582031 128.0 
379.598785 89.0 
379.621094 110.0 
379.643433 124.0 
379.671326 106.0 
379.699249 138.0 
379.710419 119.0 
379.727142 88.0 
379.738312 103.0 
379.760651 86.0 
379.777374 112.0 
379.805298 130.0 
379.838776 130.0 
379.85553 120.0 
379.872284 84.0 
379.889038 110.0 
379.905792 136.0 
379.944855 110.0 
379.961609 81.0 
379.978363 86.0 
379.989532 95.0 
380.023041 83.0 
380.039795 90.0 
380.056549 64.0 
380.073303 74.0 
380.095612 56.0 
380.112366 95.0 
380.140289 665.0 
380.168213 950.0 
380.201721 1098.0 
380.218506 1164.0 
380.246429 1328.0 
380.285522 878.0 
380.34137 182.0 
380.363708 146.0 
380.397247 143.0 
380.425171 147.0 
380.464294 96.0 
380.486633 90.0 
380.503387 77.0 
380.525757 74.0 
380.536926 63.0 
380.542511 63.0 
380.559265 84.0 
380.576019 86.0 
380.592804 63.0 
380.603973 69.0 
380.626312 85.0 
380.659851 108.0 
380.68222 89.0 
380.698975 115.0 
380.721344 102.0 
380.738098 106.0 
380.749268 112.0 
380.760468 122.0 
380.771637 115.0 
380.777222 115.0 
380.793976 97.0 
380.81076 72.0 
380.827515 119.0 
380.844299 77.0 
380.861053 99.0 
380.883423 90.0 
380.911377 121.0 
380.928162 82.0 
380.967285 117.0 
380.989655 63.0 
381.017609 91.0 
381.028778 74.0 
381.079102 109.0 
381.179749 3123.0 
381.207733 3287.0 
381.241272 2705.0 
381.274841 1323.0 
381.313995 585.0 
381.364319 248.0 
381.392303 194.0 
381.414673 137.0 
381.437042 147.0 
381.470612 136.0 
381.492981 110.0 
381.504181 103.0 
381.52655 168.0 
381.554535 127.0 
381.593689 149.0 
381.610504 97.0 
381.632874 135.0 
381.660858 181.0 
381.688843 121.0 
381.716797 87.0 
381.727997 92.0 
381.750397 82.0 
381.772766 63.0 
381.817535 78.0 
381.828735 53.0 
381.839935 66.0 
381.85672 56.0 
381.87912 100.0 
381.895905 80.0 
381.907104 66.0 
381.918304 57.0 
381.929504 81.0 
381.968689 89.0 
381.996674 94.0 
382.007874 61.0 
382.024658 58.0 
382.041473 73.0 
382.058258 105.0 
382.091858 128.0 
382.125458 147.0 
382.159027 526.0 
382.175842 807.0 
382.209442 1303.0 
382.226227 835.0 
382.248627 870.0 
382.254242 870.0 
382.287842 468.0 
382.304657 229.0 
382.321442 198.0 
382.343842 114.0 
382.366241 114.0 
382.383057 80.0 
382.388641 80.0 
382.399872 59.0 
382.427856 149.0 
382.433472 149.0 
382.444672 96.0 
382.455872 147.0 
382.483887 145.0 
382.528687 114.0 
382.579132 113.0 
382.618347 80.0 
382.635132 68.0 
382.668762 71.0 
382.702393 96.0 
382.719208 82.0 
382.735992 55.0 
382.752808 90.0 
382.769623 96.0 
382.803253 50.0 
382.820068 93.0 
382.836884 47.0 
382.848083 64.0 
382.853699 64.0 
382.892914 77.0 
382.915344 79.0 
382.926544 96.0 
382.95459 90.0 
382.96579 58.0 
382.98822 141.0 
383.016235 71.0 
383.044281 72.0 
383.055481 78.0 
383.072296 61.0 
383.089111 82.0 
383.150787 1409.0 
383.184448 2607.0 
383.212463 2460.0 
383.229279 2659.0 
383.251709 1771.0 
383.290985 960.0 
383.313416 467.0 
383.330231 355.0 
383.352661 170.0 
383.369476 132.0 
383.386322 138.0 
383.403137 150.0 
383.425568 149.0 
383.459229 122.0 
383.487274 114.0 
383.532135 112.0 
383.554596 49.0 
383.582642 85.0 
383.599457 70.0 
383.616302 74.0 
383.627502 94.0 
383.655579 85.0 
383.672394 69.0 
383.683624 73.0 
383.71167 79.0 
383.739716 44.0 
383.750946 48.0 
383.762177 61.0 
383.773407 61.0 
383.795837 61.0 
383.829498 84.0 
383.840729 79.0 
383.851959 45.0 
383.87439 88.0 
383.924927 127.0 
383.947357 81.0 
383.964203 72.0 
383.975433 100.0 
384.009094 79.0 
384.014709 79.0 
384.03717 146.0 
384.065247 91.0 
384.093292 153.0 
384.115753 194.0 
384.138214 451.0 
384.171906 740.0 
384.188751 605.0 
384.199982 626.0 
384.211212 603.0 
384.222443 748.0 
384.261719 606.0 
384.289795 479.0 
384.312256 145.0 
384.323486 189.0 
384.351562 175.0 
384.368408 83.0 
384.374023 83.0 
384.396515 62.0 
384.413361 76.0 
384.430206 75.0 
384.447052 103.0 
384.463898 85.0 
384.475128 56.0 
384.491974 81.0 
384.50882 72.0 
384.52005 66.0 
384.548157 66.0 
384.576233 67.0 
384.593079 58.0 
384.604309 65.0 
384.61554 49.0 
384.62677 55.0 
384.654877 61.0 
384.671722 69.0 
384.682953 84.0 
384.71106 74.0 
384.72229 54.0 
384.744751 92.0 
384.767242 65.0 
384.795319 116.0 
384.823425 122.0 
384.845886 109.0 
384.868378 69.0 
384.873993 69.0 
384.9021 91.0 
384.907715 91.0 
384.924561 54.0 
384.935822 71.0 
384.952667 82.0 
384.975159 100.0 
385.008881 98.0 
385.042603 101.0 
385.053833 86.0 
385.065063 54.0 
385.076324 51.0 
385.16626 2242.0 
385.194366 2528.0 
385.222473 2314.0 
385.233704 2252.0 
385.256195 1581.0 
385.273071 1287.0 
385.312439 443.0 
385.33493 330.0 
385.351776 253.0 
385.385529 163.0 
385.396759 192.0 
385.40802 114.0 
385.424896 83.0 
385.436127 90.0 
385.453003 91.0 
385.475494 115.0 
385.486755 80.0 
385.497986 80.0 
385.514862 73.0 
385.55423 103.0 
385.565491 70.0 
385.576721 68.0 
385.599243 90.0 
385.610474 73.0 
385.638611 72.0 
385.661102 80.0 
385.672363 85.0 
385.70047 87.0 
385.722992 51.0 
385.739868 53.0 
385.76236 68.0 
385.773621 52.0 
385.812988 82.0 
385.852386 61.0 
385.874878 63.0 
385.886139 68.0 
385.8974 49.0 
385.908661 69.0 
385.925537 57.0 
385.948029 96.0 
385.95929 61.0 
385.987427 68.0 
386.009949 89.0 
386.03244 81.0 
386.049347 113.0 
386.066223 68.0 
386.077484 70.0 
386.088745 71.0 
386.105621 110.0 
386.116882 130.0 
386.128143 219.0 
386.156281 905.0 
386.167542 662.0 
386.178772 784.0 
386.20694 1410.0 
386.240692 808.0 
386.280121 471.0 
386.296997 354.0 
386.33078 124.0 
386.347656 118.0 
386.370178 67.0 
386.375824 67.0 
386.387085 95.0 
386.426483 102.0 
386.437744 110.0 
386.471558 94.0 
386.499695 72.0 
386.527863 65.0 
386.561646 81.0 
386.578552 67.0 
386.589813 53.0 
386.601074 74.0 
386.629211 72.0 
386.640503 67.0 
386.663025 31.0 
386.679932 65.0 
386.708069 49.0 
386.71936 30.0 
386.736237 67.0 
386.747498 67.0 
386.77005 56.0 
386.792572 92.0 
386.809479 41.0 
386.832001 90.0 
386.865814 59.0 
386.899628 96.0 
386.92215 82.0 
386.955963 71.0 
386.989777 118.0 
387.02359 66.0 
387.046112 58.0 
387.063019 42.0 
387.07428 43.0 
387.147552 1288.0 
387.220825 4122.0 
387.254639 2630.0 
387.26593 2597.0 
387.333557 358.0 
387.344849 297.0 
387.367401 200.0 
387.384308 179.0 
387.412476 158.0 
387.435028 114.0 
387.44632 132.0 
387.457581 119.0 
387.468872 110.0 
387.485779 111.0 
387.49707 96.0 
387.525269 81.0 
387.53653 96.0 
387.547821 89.0 
387.559082 133.0 
387.581635 117.0 
387.598572 166.0 
387.632385 105.0 
387.643677 93.0 
387.654968 78.0 
387.666229 71.0 
387.683167 96.0 
387.688782 96.0 
387.700073 95.0 
387.71698 90.0 
387.733917 80.0 
387.750824 104.0 
387.773407 52.0 
387.790314 64.0 
387.807251 100.0 
387.824158 146.0 
387.858002 109.0 
387.8862 101.0 
387.897491 110.0 
387.931335 117.0 
387.942627 102.0 
387.953918 97.0 
387.976471 98.0 
387.987762 68.0 
388.0047 98.0 
388.021606 115.0 
388.032898 127.0 
388.061127 89.0 
388.072388 86.0 
388.089325 119.0 
388.140106 276.0 
388.162689 521.0 
388.196533 983.0 
388.224762 1660.0 
388.247345 1094.0 
388.258636 1093.0 
388.281189 1025.0 
388.320709 276.0 
388.371521 122.0 
388.388458 94.0 
388.411041 126.0 
388.422333 128.0 
388.461823 86.0 
388.490051 101.0 
388.529572 85.0 
388.546539 81.0 
388.569122 72.0 
388.597351 105.0 
388.62558 91.0 
388.642517 90.0 
388.6651 61.0 
388.682037 75.0 
388.693329 94.0 
388.715912 78.0 
388.761108 90.0 
388.783691 90.0 
388.823242 120.0 
388.845825 61.0 
388.868408 74.0 
388.885376 75.0 
388.907959 86.0 
388.91925 63.0 
388.930542 73.0 
388.94751 91.0 
388.98703 85.0 
389.015289 89.0 
389.032227 77.0 
389.05484 73.0 
389.071777 87.0 
389.094391 111.0 
389.12265 720.0 
389.150879 2826.0 
389.162201 3277.0 
389.173492 3130.0 
389.201752 3986.0 
389.230011 2490.0 
389.280853 1033.0 
389.297821 699.0 
389.314758 523.0 
389.337372 285.0 
389.348694 273.0 
389.382599 237.0 
389.42215 213.0 
389.444763 143.0 
389.478699 144.0 
389.48999 133.0 
389.51825 79.0 
389.529572 99.0 
389.546509 78.0 
389.574799 90.0 
389.591766 80.0 
389.608704 117.0 
389.61438 117.0 
389.642639 119.0 
389.676575 105.0 
389.704834 95.0 
389.733093 107.0 
389.761383 122.0 
389.783997 81.0 
389.80661 76.0 
389.817932 67.0 
389.829254 90.0 
389.851868 102.0 
389.880157 127.0 
389.914093 118.0 
389.919739 118.0 
389.936707 85.0 
389.953674 86.0 
389.964996 125.0 
389.981964 120.0 
390.004578 116.0 
390.032867 126.0 
390.055481 83.0 
390.066803 85.0 
390.083771 161.0 
390.157318 814.0 
390.191284 1100.0 
390.213898 1163.0 
390.22522 893.0 
390.242188 843.0 
390.264832 550.0 
390.287476 393.0 
390.321411 161.0 
390.344055 114.0 
390.355377 114.0 
390.372345 112.0 
390.389313 109.0 
390.400635 107.0 
390.423279 128.0 
390.457245 72.0 
390.468567 66.0 
390.485535 67.0 
390.496857 62.0 
390.519501 63.0 
390.530823 60.0 
390.536499 60.0 
390.547821 41.0 
390.576111 73.0 
390.587433 73.0 
390.610077 108.0 
390.638397 72.0 
390.649719 89.0 
390.678009 91.0 
390.683685 91.0 
390.711975 67.0 
390.740295 119.0 
390.774261 131.0 
390.79126 58.0 
390.813904 71.0 
390.825226 76.0 
390.84787 74.0 
390.87619 74.0 
390.915833 77.0 
390.932831 65.0 
390.955475 59.0 
390.972473 65.0 
390.989471 86.0 
390.995117 86.0 
391.012115 49.0 
391.029114 72.0 
391.051758 65.0 
391.085754 177.0 
391.148071 1611.0 
391.182068 2821.0 
391.19339 2767.0 
391.204712 2724.0 
391.227386 3107.0 
391.261383 2013.0 
391.284027 989.0 
391.35202 214.0 
391.369019 155.0 
391.380371 175.0 
391.408691 177.0 
391.442688 134.0 
391.471039 171.0 
391.505035 107.0 
391.533386 110.0 
391.544708 86.0 
391.561707 82.0 
391.573059 89.0 
391.601379 117.0 
391.612732 97.0 
391.641083 135.0 
391.675079 139.0 
391.686432 112.0 
391.70343 50.0 
391.714752 105.0 
391.743103 72.0 
391.765778 113.0 
391.782806 75.0 
391.805481 100.0 
391.822479 80.0 
391.833832 64.0 
391.862183 64.0 
391.89621 87.0 
391.941559 106.0 
391.964233 69.0 
391.986938 88.0 
392.003937 84.0 
392.04364 102.0 
392.066315 79.0 
392.083344 95.0 
392.117371 153.0 
392.128723 257.0 
392.16275 648.0 
392.191101 1125.0 
392.225159 1143.0 
392.247833 589.0 
392.259186 554.0 
392.287537 327.0 
392.315918 136.0 
392.327271 137.0 
392.361298 104.0 
392.37265 113.0 
392.395355 89.0 
392.412384 107.0 
392.435059 105.0 
392.446411 118.0 
392.474792 101.0 
392.497498 117.0 
392.531525 66.0 
392.548553 50.0 
392.565582 52.0 
392.582611 51.0 
392.59964 59.0 
392.616669 27.0 
392.628021 31.0 
392.656403 55.0 
392.673431 61.0 
392.684784 61.0 
392.707489 71.0 
392.73587 83.0 
392.747223 81.0 
392.764252 80.0 
392.792633 79.0 
392.803986 78.0 
392.832367 63.0 
392.860748 67.0 
392.872101 59.0 
392.883453 58.0 
392.917542 88.0 
392.940247 79.0 
392.962952 81.0 
392.997009 56.0 
393.031097 70.0 
393.04245 54.0 
393.059479 69.0 
393.099243 125.0 
393.161713 1809.0 
393.178741 2247.0 
393.195801 2524.0 
393.21283 2176.0 
393.235535 2278.0 
393.246918 2037.0 
393.275299 1184.0 
393.286682 1039.0 
393.343475 230.0 
393.371887 192.0 
393.411652 150.0 
393.434387 119.0 
393.457092 67.0 
393.474152 97.0 
393.502563 56.0 
393.513916 76.0 
393.55368 146.0 
393.576416 75.0 
393.610504 83.0 
393.627563 93.0 
393.655975 59.0 
393.667358 71.0 
393.678711 68.0 
393.69577 71.0 
393.718506 115.0 
393.741241 72.0 
393.75827 82.0 
393.77533 59.0 
393.798065 90.0 
393.809448 74.0 
393.826508 95.0 
393.832184 95.0 
393.854919 69.0 
393.866272 87.0 
393.877655 86.0 
393.900391 91.0 
393.906067 91.0 
393.940186 91.0 
393.957245 85.0 
393.985657 56.0 
394.014099 81.0 
394.042542 109.0 
394.07663 100.0 
394.099396 130.0 
394.116455 125.0 
394.150574 420.0 
394.173309 638.0 
394.201752 724.0 
394.241547 1042.0 
394.258606 434.0 
394.269989 721.0 
394.292755 394.0 
394.326874 169.0 
394.338257 159.0 
394.349609 170.0 
394.360992 165.0 
394.383759 155.0 
394.412201 116.0 
394.434937 106.0 
394.452026 75.0 
394.474762 98.0 
394.486145 91.0 
394.508911 94.0 
394.52597 86.0 
394.54303 75.0 
394.565796 94.0 
394.582886 59.0 
394.594238 58.0 
394.611328 55.0 
394.622711 65.0 
394.639771 49.0 
394.65683 60.0 
394.668213 62.0 
394.702362 58.0 
394.719452 64.0 
394.730804 36.0 
394.742188 35.0 
394.753571 50.0 
394.77066 66.0 
394.80481 102.0 
394.827576 68.0 
394.850342 66.0 
394.867401 99.0 
394.884491 73.0 
394.907257 58.0 
394.91864 125.0 
394.947113 59.0 
394.958496 59.0 
394.964172 59.0 
394.986938 59.0 
395.009705 52.0 
395.032501 73.0 
395.043884 70.0 
395.055267 101.0 
395.095123 77.0 
395.112183 98.0 
395.186218 1920.0 
395.197601 2033.0 
395.24884 4710.0 
395.28302 3196.0 
395.294403 2828.0 
395.339966 560.0 
395.396942 213.0 
395.408325 258.0 
395.431091 165.0 
395.453888 181.0 
395.482361 142.0 
395.505157 116.0 
395.522247 127.0 
395.53363 116.0 
395.556427 119.0 
395.579224 85.0 
395.60199 71.0 
395.61908 81.0 
395.641876 118.0 
395.67038 91.0 
395.681763 90.0 
395.704559 139.0 
395.733032 129.0 
395.761536 117.0 
395.801422 84.0 
395.829926 65.0 
395.847015 88.0 
395.881195 55.0 
395.909698 97.0 
395.915405 97.0 
395.938202 117.0 
395.949585 118.0 
395.972412 127.0 
395.995209 131.0 
396.012299 103.0 
396.029388 104.0 
396.040802 72.0 
396.063599 144.0 
396.086395 70.0 
396.114899 108.0 
396.149109 550.0 
396.166199 676.0 
396.223236 1212.0 
396.240326 1635.0 
396.274536 1024.0 
396.297363 951.0 
396.314453 614.0 
396.342957 212.0 
396.360077 176.0 
396.38858 112.0 
396.422821 105.0 
396.439911 93.0 
396.451324 99.0 
396.474152 66.0 
396.479828 66.0 
396.496948 52.0 
396.508362 63.0 
396.525482 63.0 
396.548279 65.0 
396.571106 76.0 
396.58252 80.0 
396.599609 93.0 
396.622437 69.0 
396.639557 112.0 
396.685181 113.0 
396.708008 69.0 
396.747955 85.0 
396.816406 103.0 
396.862061 106.0 
396.890594 99.0 
396.913422 66.0 
396.941956 95.0 
396.964783 97.0 
396.98761 58.0 
397.00473 113.0 
397.016144 101.0 
397.038971 91.0 
397.050385 93.0 
397.078918 104.0 
397.090332 87.0 
397.14743 2306.0 
397.198792 3920.0 
397.23877 3264.0 
397.290131 1439.0 
397.318695 789.0 
397.358643 266.0 
397.370087 260.0 
397.404327 204.0 
397.415771 239.0 
397.450012 187.0 
397.47287 151.0 
397.495697 151.0 
397.501404 151.0 
397.535675 140.0 
397.552826 124.0 
397.592804 178.0 
397.638489 136.0 
397.67276 111.0 
397.68988 90.0 
397.724152 139.0 
397.752716 103.0 
397.769867 74.0 
397.787018 84.0 
397.809845 136.0 
397.832703 81.0 
397.844147 76.0 
397.866974 131.0 
397.895569 84.0 
397.924133 108.0 
397.941254 66.0 
397.952698 115.0 
397.969849 113.0 
397.992706 142.0 
398.009827 137.0 
398.026978 103.0 
398.044128 104.0 
398.061279 103.0 
398.095551 138.0 
398.124146 102.0 
398.15271 598.0 
398.175568 887.0 
398.204163 1535.0 
398.238434 1181.0 
398.267029 880.0 
398.289886 426.0 
398.301331 428.0 
398.329895 194.0 
398.341339 152.0 
398.35849 125.0 
398.375641 106.0 
398.387085 110.0 
398.409943 147.0 
398.438538 112.0 
398.444244 112.0 
398.455688 66.0 
398.472839 106.0 
398.484283 88.0 
398.507141 116.0 
398.524292 86.0 
398.54718 128.0 
398.581482 150.0 
398.621521 123.0 
398.644379 47.0 
398.66156 87.0 
398.71875 101.0 
398.753052 93.0 
398.770233 86.0 
398.77594 86.0 
398.787384 59.0 
398.804535 50.0 
398.815979 76.0 
398.827423 77.0 
398.844574 54.0 
398.867462 71.0 
398.884613 70.0 
398.896057 63.0 
398.907501 61.0 
398.918945 81.0 
398.936127 90.0 
398.953278 77.0 
398.970428 81.0 
398.98761 76.0 
399.010498 60.0 
399.027649 82.0 
399.061981 93.0 
399.079163 68.0 
399.102051 52.0 
399.176422 1904.0 
399.210785 2862.0 
399.23938 2178.0 
399.262268 1937.0 
399.296631 1200.0 
399.3367 385.0 
399.399658 120.0 
399.411102 128.0 
399.422546 107.0 
399.439728 100.0 
399.462616 77.0 
399.47406 95.0 
399.496979 89.0 
399.519867 71.0 
399.531311 74.0 
399.548492 76.0 
399.582855 100.0 
399.605774 60.0 
399.617218 54.0 
399.645844 121.0 
399.69165 84.0 
399.708832 101.0 
399.720276 84.0 
399.743195 78.0 
399.754639 76.0 
399.766113 85.0 
399.777557 75.0 
399.806183 130.0 
399.834839 66.0 
399.846283 72.0 
399.857727 67.0 
399.886383 127.0 
399.909302 67.0 
399.926483 74.0 
399.93219 74.0 
399.955109 80.0 
399.966583 81.0 
399.989471 103.0 
400.023865 72.0 
400.046783 93.0 
400.109802 139.0 
400.138458 254.0 
400.149902 348.0 
400.161377 527.0 
400.178558 709.0 
400.19574 763.0 
400.212921 899.0 
400.230133 1005.0 
400.264496 828.0 
400.298889 421.0 
400.316071 221.0 
400.350464 138.0 
400.37912 118.0 
400.396332 109.0 
400.436432 84.0 
400.465088 104.0 
400.493774 97.0 
400.510956 85.0 
400.533875 83.0 
400.551086 64.0 
400.579742 75.0 
400.608429 58.0 
400.631348 54.0 
400.64856 70.0 
400.660004 44.0 
400.677216 76.0 
400.700165 96.0 
400.734558 80.0 
400.75177 47.0 
400.768951 61.0 
400.780426 57.0 
400.803375 69.0 
400.820557 52.0 
400.843506 73.0 
400.85498 45.0 
400.866455 44.0 
400.883636 57.0 
400.935272 93.0 
400.958221 75.0 
400.986877 73.0 
401.004089 49.0 
401.021301 54.0 
401.032776 48.0 
401.049988 116.0 
401.078674 58.0 
401.141754 933.0 
401.164703 1749.0 
401.176178 1874.0 
401.19339 2490.0 
401.216339 2950.0 
401.227814 2924.0 
401.245026 2935.0 
401.273712 2135.0 
401.302429 1262.0 
401.319641 666.0 
401.36554 204.0 
401.377014 187.0 
401.411438 124.0 
401.417175 124.0 
401.434387 136.0 
401.457367 125.0 
401.468842 111.0 
401.480316 97.0 
401.503265 126.0 
401.51474 62.0 
401.520477 62.0 
401.53772 84.0 
401.554932 68.0 
401.572144 81.0 
401.595123 87.0 
401.606598 77.0 
401.618073 104.0 
401.629547 106.0 
401.641022 98.0 
401.652527 97.0 
401.664001 110.0 
401.698425 71.0 
401.727142 82.0 
401.750092 90.0 
401.767334 75.0 
401.784546 80.0 
401.801788 75.0 
401.824738 83.0 
401.853455 92.0 
401.882172 90.0 
401.905121 79.0 
401.916626 103.0 
401.933838 69.0 
401.956818 62.0 
402.014252 66.0 
402.054443 86.0 
402.08316 58.0 
402.111877 130.0 
402.146362 452.0 
402.180817 600.0 
402.198059 990.0 
402.232513 1491.0 
402.272736 1020.0 
402.312958 605.0 
402.341675 245.0 
402.364655 149.0 
402.381897 121.0 
402.393372 136.0 
402.416351 105.0 
402.427856 117.0 
402.439362 106.0 
402.468079 125.0 
402.496826 118.0 
402.537048 100.0 
402.577271 102.0 
402.594513 118.0 
402.628998 165.0 
402.64624 71.0 
402.663483 139.0 
402.703705 87.0 
402.726715 58.0 
402.73819 56.0 
402.755463 71.0 
402.766937 71.0 
402.795685 84.0 
402.80719 77.0 
402.812927 77.0 
402.824432 72.0 
402.835938 60.0 
402.858917 79.0 
402.881927 53.0 
402.916412 86.0 
402.939423 75.0 
402.956665 111.0 
402.996918 105.0 
403.008423 109.0 
403.019928 60.0 
403.03717 83.0 
403.054413 65.0 
403.077423 53.0 
403.106171 62.0 
403.123444 143.0 
403.175201 2142.0 
403.215454 2575.0 
403.249969 2811.0 
403.290222 1587.0 
403.376526 174.0 
403.393768 123.0 
403.428284 194.0 
403.439789 152.0 
403.462799 157.0 
403.480072 132.0 
403.503082 115.0 
403.514587 139.0 
403.53186 105.0 
403.543365 122.0 
403.572144 103.0 
403.595154 81.0 
403.612427 90.0 
403.635437 106.0 
403.669952 57.0 
403.692993 81.0 
403.721771 58.0 
403.750549 84.0 
403.767792 57.0 
403.79657 90.0 
403.819611 92.0 
403.848389 105.0 
403.871399 46.0 
403.882935 55.0 
403.905945 93.0 
403.934723 105.0 
403.969269 106.0 
403.998047 88.0 
404.021088 74.0 
404.038361 71.0 
404.061401 72.0 
404.090179 98.0 
404.136261 144.0 
404.159271 550.0 
404.176544 679.0 
404.18808 723.0 
404.216858 872.0 
404.257172 1060.0 
404.320526 336.0 
404.343567 217.0 
404.36084 112.0 
404.395416 128.0 
404.43573 123.0 
404.453003 81.0 
404.481812 128.0 
404.522156 100.0 
404.539429 67.0 
404.556702 81.0 
404.597046 88.0 
404.608551 75.0 
404.620087 115.0 
404.654663 129.0 
404.677704 57.0 
404.706512 76.0 
404.718048 70.0 
404.735321 78.0 
404.752625 67.0 
404.775665 50.0 
404.787201 77.0 
404.810242 53.0 
404.827545 79.0 
404.83905 50.0 
404.867889 78.0 
404.902466 57.0 
404.925507 83.0 
404.937042 78.0 
404.965851 66.0 
404.988922 61.0 
405.006195 55.0 
405.035034 85.0 
405.075378 87.0 
405.09845 72.0 
405.115753 95.0 
405.144562 821.0 
405.184937 2192.0 
405.231049 6058.0 
405.265656 4379.0 
405.352142 468.0 
405.375214 270.0 
405.398285 243.0 
405.409821 222.0 
405.421356 230.0 
405.43866 183.0 
405.450195 185.0 
405.473267 187.0 
405.484802 160.0 
405.519409 206.0 
405.536713 99.0 
405.554016 184.0 
405.577087 94.0 
405.588623 100.0 
405.62323 98.0 
405.657867 109.0 
405.675171 100.0 
405.686707 105.0 
405.715546 144.0 
405.744385 122.0 
405.773254 142.0 
405.807861 108.0 
405.819397 88.0 
405.859802 101.0 
405.900177 82.0 
405.917511 100.0 
405.929047 86.0 
405.940582 83.0 
405.957886 82.0 
405.97522 66.0 
405.986755 57.0 
406.009857 93.0 
406.05603 119.0 
406.079102 76.0 
406.090637 89.0 
406.113739 108.0 
406.136841 189.0 
406.159912 562.0 
406.19455 943.0 
406.229187 1884.0 
406.240753 1800.0 
406.269592 1244.0 
406.286926 1108.0 
406.327332 418.0 
406.356201 330.0 
406.379303 151.0 
406.402405 182.0 
406.419739 139.0 
406.460144 120.0 
406.47171 106.0 
406.483246 110.0 
406.506348 104.0 
406.523682 96.0 
406.541016 124.0 
406.569885 86.0 
406.592987 115.0 
406.627625 66.0 
406.650726 79.0 
406.685394 95.0 
406.72583 86.0 
406.737396 91.0 
406.766266 70.0 
406.806702 85.0 
406.824036 80.0 
406.835602 81.0 
406.847168 78.0 
406.858704 91.0 
406.87027 79.0 
406.881805 78.0 
406.887604 78.0 
406.899139 67.0 
406.916473 106.0 
406.939606 58.0 
406.968475 92.0 
406.997375 62.0 
407.014709 51.0 
407.032043 73.0 
407.04361 102.0 
407.07251 109.0 
407.089844 49.0 
407.10141 105.0 
407.170746 2725.0 
407.205444 3135.0 
407.222778 3665.0 
407.257446 2165.0 
407.280579 1473.0 
407.326843 535.0 
407.361511 233.0 
407.378845 214.0 
407.39621 170.0 
407.436676 166.0 
407.471375 110.0 
407.482941 109.0 
407.494507 104.0 
407.511841 123.0 
407.546539 100.0 
407.569672 107.0 
407.598572 98.0 
407.60437 98.0 
407.627502 108.0 
407.644836 81.0 
407.662201 80.0 
407.679535 115.0 
407.702667 103.0 
407.720032 114.0 
407.795227 116.0 
407.84729 120.0 
407.870422 76.0 
407.881989 89.0 
407.910919 109.0 
407.945618 153.0 
407.974548 118.0 
407.997681 103.0 
408.015045 86.0 
408.026611 98.0 
408.067139 89.0 
408.107635 98.0 
408.136566 186.0 
408.153931 360.0 
408.171295 884.0 
408.188629 644.0 
408.205994 950.0 
408.229156 918.0 
408.240723 980.0 
408.263885 696.0 
408.292816 338.0 
408.333344 148.0 
408.34491 148.0 
408.37384 67.0 
408.379639 67.0 
408.391205 77.0 
408.408569 83.0 
408.431732 107.0 
408.449097 69.0 
408.466461 136.0 
408.483826 111.0 
408.50119 84.0 
408.512787 111.0 
408.53595 69.0 
408.570679 71.0 
408.588043 103.0 
408.611206 109.0 
408.628571 86.0 
408.645935 107.0 
408.686493 93.0 
408.709656 51.0 
408.738586 92.0 
408.755981 82.0 
408.773346 58.0 
408.796509 51.0 
408.802307 51.0 
408.831268 73.0 
408.854431 58.0 
408.865997 52.0 
408.883392 66.0 
408.894958 65.0 
408.906555 51.0 
408.941315 84.0 
408.970276 49.0 
409.005035 55.0 
409.0224 62.0 
409.033997 46.0 
409.051361 41.0 
409.062958 43.0 
409.074554 59.0 
409.109314 72.0 
409.161438 1292.0 
409.19043 2618.0 
409.201996 2415.0 
409.213593 2297.0 
409.230988 2608.0 
409.271545 1117.0 
409.28891 1210.0 
409.3237 373.0 
409.346863 170.0 
409.352661 170.0 
409.370056 192.0 
409.39325 165.0 
409.410614 154.0 
409.433807 191.0 
409.474365 118.0 
409.503357 68.0 
409.520752 111.0 
409.532349 109.0 
409.543945 92.0 
409.56134 93.0 
409.584503 92.0 
409.5961 91.0 
409.601898 91.0 
409.625092 87.0 
409.659882 79.0 
409.688873 86.0 
409.706268 69.0 
409.729462 86.0 
409.741058 101.0 
409.758453 82.0 
409.781647 68.0 
409.810638 113.0 
409.833832 100.0 
409.857025 109.0 
409.891815 91.0 
409.915009 77.0 
409.949799 117.0 
409.972992 77.0 
409.984589 77.0 
410.013611 66.0 
410.036804 63.0 
410.048401 86.0 
410.071594 74.0 
410.100616 95.0 
410.164398 485.0 
410.19342 1305.0 
410.210815 911.0 
410.245636 947.0 
410.286255 530.0 
410.315247 374.0 
410.326843 231.0 
410.344269 161.0 
410.379089 128.0 
410.390686 88.0 
410.402283 105.0 
410.419708 91.0 
410.425507 91.0 
410.442902 71.0 
410.454529 102.0 
410.495148 105.0 
410.512543 91.0 
410.529968 76.0 
410.547363 66.0 
410.570587 43.0 
410.611206 90.0 
410.640228 110.0 
410.675049 80.0 
410.680878 80.0 
410.7099 94.0 
410.727295 89.0 
410.74472 83.0 
410.773743 88.0 
410.779541 88.0 
410.814392 68.0 
410.825989 63.0 
410.837616 93.0 
410.855011 69.0 
410.872437 77.0 
410.889862 62.0 
410.913086 71.0 
410.942108 73.0 
410.971161 61.0 
411.000183 87.0 
411.029236 55.0 
411.040833 61.0 
411.075684 61.0 
411.093109 68.0 
411.16861 2390.0 
411.191833 2732.0 
411.203461 2759.0 
411.220886 3130.0 
411.24411 2123.0 
411.255737 2172.0 
411.278961 1422.0 
411.302216 628.0 
411.325439 423.0 
411.342865 297.0 
411.366119 180.0 
411.383545 141.0 
411.395142 120.0 
411.435822 143.0 
411.464874 120.0 
411.488098 107.0 
411.505554 98.0 
411.540405 117.0 
411.557831 73.0 
411.575287 91.0 
411.592712 85.0 
411.639191 94.0 
411.656647 43.0 
411.668243 58.0 
411.708923 70.0 
411.738007 130.0 
411.761261 52.0 
411.772858 73.0 
411.784485 66.0 
411.796112 71.0 
411.842621 70.0 
411.871674 83.0 
411.906555 97.0 
411.92981 68.0 
411.947266 112.0 
411.958893 88.0 
411.982147 123.0 
412.017029 86.0 
412.034485 84.0 
412.063538 73.0 
412.075165 56.0 
412.086792 62.0 
412.110046 112.0 
412.144958 201.0 
412.168213 756.0 
412.185669 566.0 
412.197296 671.0 
412.226349 1007.0 
412.249634 791.0 
412.278717 660.0 
412.3078 340.0 
412.331055 245.0 
412.365936 163.0 
412.377594 136.0 
412.400848 178.0 
412.418304 118.0 
412.43576 92.0 
412.453217 125.0 
412.470642 62.0 
412.488098 55.0 
412.517181 109.0 
412.546295 114.0 
412.56955 94.0 
412.587006 78.0 
412.610291 87.0 
412.621918 66.0 
412.639374 59.0 
412.662659 75.0 
412.680115 80.0 
412.697571 51.0 
412.715027 59.0 
412.726654 57.0 
412.755768 108.0 
412.779022 47.0 
412.784851 47.0 
412.808136 67.0 
412.819763 68.0 
412.848877 44.0 
412.866333 86.0 
412.889618 68.0 
412.907074 59.0 
412.918701 44.0 
412.92453 44.0 
412.947815 56.0 
412.9711 66.0 
412.988556 66.0 
413.040955 86.0 
413.058411 47.0 
413.087524 80.0 
413.15155 781.0 
413.186493 2058.0 
413.209778 2396.0 
413.238892 3288.0 
413.268005 2427.0 
413.320435 847.0 
413.343719 622.0 
413.390289 205.0 
413.407776 164.0 
413.419434 154.0 
413.431061 166.0 
413.442719 190.0 
413.48349 129.0 
413.495148 121.0 
413.53009 64.0 
413.541748 104.0 
413.58252 90.0 
413.599976 91.0 
413.634949 93.0 
413.67572 106.0 
413.687378 105.0 
413.699036 112.0 
413.716492 99.0 
413.728149 86.0 
413.739807 79.0 
413.751465 81.0 
413.77475 112.0 
413.803894 101.0 
413.833038 90.0 
413.862152 61.0 
413.879639 97.0 
413.902954 71.0 
413.937927 69.0 
413.943756 69.0 
413.961243 83.0 
413.990387 129.0 
414.019501 119.0 
414.042816 97.0 
414.07196 97.0 
414.101105 72.0 
414.12442 77.0 
414.159393 300.0 
414.182709 578.0 
414.194366 546.0 
414.217712 678.0 
414.246857 960.0 
414.270172 805.0 
414.28183 766.0 
414.305145 437.0 
414.316803 380.0 
414.328461 351.0 
414.369293 148.0 
414.404266 80.0 
414.427582 120.0 
414.445099 76.0 
414.468414 109.0 
414.503387 101.0 
414.526733 98.0 
414.54422 64.0 
414.555878 67.0 
414.567535 84.0 
414.590881 79.0 
414.608368 83.0 
414.643372 93.0 
414.684204 85.0 
414.695862 63.0 
414.730865 71.0 
414.742523 71.0 
414.76004 81.0 
414.795044 61.0 
414.812531 48.0 
414.830048 46.0 
414.865051 59.0 
414.888367 47.0 
414.894196 47.0 
414.905884 58.0 
414.935059 91.0 
414.946716 76.0 
414.975891 53.0 
414.987579 73.0 
414.999237 51.0 
415.010895 59.0 
415.022583 63.0 
415.04007 57.0 
415.063416 54.0 
415.086761 87.0 
415.162628 2560.0 
415.174316 2549.0 
415.215149 3608.0 
415.256012 2639.0 
415.291046 1659.0 
415.314392 775.0 
415.331909 570.0 
415.366943 221.0 
415.396118 246.0 
415.419464 133.0 
415.436981 156.0 
415.454498 139.0 
415.472015 113.0 
415.495361 120.0 
415.524567 101.0 
415.547913 118.0 
415.56543 100.0 
415.588806 109.0 
415.606323 126.0 
415.629669 104.0 
415.647186 131.0 
415.68222 146.0 
415.717255 95.0 
415.763977 98.0 
415.793182 88.0 
415.810699 78.0 
415.822388 100.0 
415.839905 74.0 
415.845764 74.0 
415.86911 84.0 
415.886658 74.0 
415.904175 83.0 
415.945068 43.0 
415.974274 69.0 
415.991791 49.0 
415.99765 49.0 
416.015167 78.0 
416.050232 76.0 
416.073608 69.0 
416.096954 54.0 
416.114502 84.0 
416.172913 822.0 
416.213837 1383.0 
416.243042 1162.0 
416.272278 986.0 
416.301483 349.0 
416.319031 352.0 
416.342407 242.0 
416.354095 189.0 
416.38916 129.0 
416.424225 80.0 
416.441772 104.0 
416.45929 93.0 
416.494385 64.0 
416.511902 71.0 
416.535278 90.0 
416.552826 75.0 
416.564514 64.0 
416.576202 50.0 
416.605438 129.0 
416.622986 71.0 
416.628845 71.0 
416.66391 97.0 
416.699005 57.0 
416.716522 56.0 
416.73407 54.0 
416.763306 56.0 
416.798401 80.0 
416.821777 50.0 
416.851044 79.0 
416.886108 73.0 
416.903656 56.0 
416.915375 78.0 
416.932922 57.0 
416.944611 65.0 
416.962158 69.0 
416.997253 80.0 
417.014801 68.0 
417.044037 122.0 
417.079132 106.0 
417.108398 121.0 
417.143494 487.0 
417.178589 1463.0 
417.201996 2205.0 
417.231262 2738.0 
417.260498 2225.0 
417.272217 1698.0 
417.348267 338.0 
417.40094 141.0 
417.418488 117.0 
417.441895 119.0 
417.459473 108.0 
417.471161 112.0 
417.500427 93.0 
417.517975 78.0 
417.535553 117.0 
417.594086 104.0 
417.617493 64.0 
417.652618 123.0 
417.670166 74.0 
417.711151 89.0 
417.734558 92.0 
417.769684 80.0 
417.798981 107.0 
417.80481 107.0 
417.834106 81.0 
417.851654 56.0 
417.863373 67.0 
417.869232 67.0 
417.88678 64.0 
417.921936 70.0 
417.97464 104.0 
417.998047 52.0 
418.027344 108.0 
418.05661 109.0 
418.085907 111.0 
418.097626 90.0 
418.115173 113.0 
418.138611 270.0 
418.162048 420.0 
418.173767 621.0 
418.185486 715.0 
418.197174 999.0 
418.23819 1203.0 
418.273346 643.0 
418.302643 468.0 
418.337769 140.0 
418.372925 168.0 
418.408081 91.0 
418.443237 143.0 
418.478394 54.0 
418.501831 89.0 
418.51355 69.0 
418.531128 61.0 
418.566284 70.0 
418.595612 78.0 
418.60733 72.0 
418.630768 62.0 
418.642487 54.0 
418.665924 68.0 
418.70108 81.0 
418.730408 96.0 
418.753845 70.0 
418.771423 67.0 
418.789001 89.0 
418.80072 50.0 
418.812469 64.0 
418.824188 69.0 
418.847626 72.0 
418.865204 68.0 
418.900391 88.0 
418.935577 69.0 
418.947296 63.0 
418.988342 155.0 
419.023499 131.0 
419.052826 130.0 
419.070435 79.0 
419.088013 104.0 
419.099731 88.0 
419.170105 2060.0 
419.246338 4907.0 
419.287415 4045.0 
419.369507 422.0 
419.404724 302.0 
419.434052 220.0 
419.475098 227.0 
419.504456 137.0 
419.539642 121.0 
419.557251 99.0 
419.580719 94.0 
419.610046 103.0 
419.639404 105.0 
419.68634 125.0 
419.709808 67.0 
419.727417 73.0 
419.750885 92.0 
419.768494 73.0 
419.780212 92.0 
419.791962 104.0 
419.803711 122.0 
419.827179 109.0 
419.850647 59.0 
419.874115 88.0 
419.903473 81.0 
419.921082 97.0 
419.93869 78.0 
419.962158 125.0 
419.997406 144.0 
420.026733 93.0 
420.056091 114.0 
420.085449 81.0 
420.120667 100.0 
420.132416 63.0 
420.167633 598.0 
420.185272 756.0 
420.226349 1334.0 
420.243988 1913.0 
420.255707 1998.0 
420.279205 1512.0 
420.290955 1594.0 
420.36142 321.0 
420.426025 143.0 
420.437775 139.0 
420.473022 117.0 
420.49649 138.0 
420.531738 217.0 
420.561127 144.0 
420.608124 138.0 
420.619873 101.0 
420.643372 131.0 
420.66098 75.0 
420.678619 121.0 
420.702118 101.0 
420.719727 98.0 
420.760864 66.0 
420.772614 91.0 
420.796112 132.0 
420.8255 89.0 
420.83725 91.0 
420.854889 85.0 
420.872498 101.0 
420.890137 77.0 
420.907776 80.0 
420.937134 79.0 
420.954773 89.0 
420.990051 119.0 
421.025299 87.0 
421.037048 79.0 
421.054688 87.0 
421.078186 116.0 
421.119354 192.0 
421.160492 1302.0 
421.178131 1588.0 
421.20163 2169.0 
421.236908 3084.0 
421.248657 2602.0 
421.283936 2413.0 
421.301575 1245.0 
421.336853 693.0 
421.378021 353.0 
421.40152 209.0 
421.425049 135.0 
421.436829 102.0 
421.460327 195.0 
421.495605 115.0 
421.513275 104.0 
421.525024 99.0 
421.548553 122.0 
421.566193 98.0 
421.589722 126.0 
421.601471 113.0 
421.625 114.0 
421.642639 104.0 
421.666168 73.0 
421.683807 104.0 
421.701477 76.0 
421.713226 58.0 
421.725006 69.0 
421.742645 122.0 
421.766174 126.0 
421.801453 147.0 
421.819122 93.0 
421.854401 82.0 
421.86618 65.0 
421.87796 101.0 
421.895599 84.0 
421.930908 55.0 
421.960327 84.0 
421.995605 87.0 
422.019165 72.0 
422.036804 65.0 
422.060333 82.0 
422.078003 68.0 
422.089783 104.0 
422.119202 117.0 
422.130951 119.0 
422.148621 183.0 
422.16629 361.0 
422.195709 624.0 
422.266327 909.0 
422.289886 559.0 
422.319305 599.0 
422.348724 223.0 
422.372284 121.0 
422.389954 95.0 
422.395844 95.0 
422.413483 122.0 
422.460602 110.0 
422.484131 95.0 
422.51358 54.0 
422.53125 85.0 
422.566559 86.0 
422.596008 77.0 
422.631348 84.0 
422.637238 84.0 
422.654907 74.0 
422.672577 73.0 
422.690216 95.0 
422.713776 96.0 
422.725555 102.0 
422.755005 104.0 
422.784454 43.0 
422.808014 68.0 
422.837463 66.0 
422.861023 44.0 
422.902252 95.0 
422.931702 111.0 
422.961151 79.0 
422.984741 54.0 
422.996521 75.0 
423.02597 62.0 
423.05542 69.0 
423.090759 65.0 
423.10257 54.0 
423.167358 1725.0 
423.208618 2382.0 
423.226288 4763.0 
423.238068 4849.0 
423.279327 3298.0 
423.302887 2609.0 
423.338257 734.0 
423.385406 237.0 
423.403107 278.0 
423.438446 174.0 
423.467926 169.0 
423.491516 153.0 
423.515076 143.0 
423.532776 116.0 
423.544556 100.0 
423.556335 125.0 
423.568146 112.0 
423.585815 111.0 
423.615295 110.0 
423.627106 96.0 
423.638885 81.0 
423.650665 86.0 
423.668365 123.0 
423.691956 93.0 
423.709625 70.0 
423.727325 63.0 
423.744995 69.0 
423.768585 79.0 
423.780396 87.0 
423.798065 77.0 
423.809875 79.0 
423.839355 106.0 
423.862946 58.0 
423.886536 106.0 
423.916016 102.0 
423.921906 102.0 
423.945496 96.0 
423.975006 109.0 
423.980896 109.0 
424.010376 130.0 
424.051666 126.0 
424.063477 113.0 
424.098846 113.0 
424.128357 115.0 
424.151947 583.0 
424.175537 1072.0 
424.187347 1255.0 
424.222748 1591.0 
424.246338 2429.0 
424.264038 1508.0 
424.281738 1546.0 
424.305328 837.0 
424.323029 760.0 
424.346649 230.0 
424.364349 218.0 
424.39975 123.0 
424.41745 145.0 
424.45285 128.0 
424.470551 110.0 
424.488281 109.0 
424.500061 119.0 
424.541382 103.0 
424.559082 75.0 
424.594513 96.0 
424.618103 94.0 
424.659424 92.0 
424.671234 73.0 
424.700745 62.0 
424.718445 67.0 
424.736176 70.0 
424.759766 76.0 
424.783386 65.0 
424.818817 114.0 
424.836517 80.0 
424.848328 66.0 
424.871948 72.0 
424.889648 77.0 
424.913269 66.0 
424.9487 133.0 
424.990051 101.0 
425.019562 114.0 
425.031372 73.0 
425.060913 96.0 
425.096344 72.0 
425.114044 82.0 
425.131775 132.0 
425.179016 2276.0 
425.190826 1927.0 
425.238098 4076.0 
425.267609 2560.0 
425.32077 1052.0 
425.362122 322.0 
425.391663 217.0 
425.415314 218.0 
425.433014 218.0 
425.450745 157.0 
425.468475 177.0 
425.492096 138.0 
425.521637 80.0 
425.533478 127.0 
425.563019 61.0 
425.59256 114.0 
425.60437 123.0 
425.645752 137.0 
425.675293 102.0 
425.722565 106.0 
425.746216 99.0 
425.769836 97.0 
425.787567 111.0 
425.799408 74.0 
425.811218 115.0 
425.823059 102.0 
425.834869 79.0 
425.84668 88.0 
425.888062 101.0 
425.917633 93.0 
425.935364 73.0 
425.964905 100.0 
426.000397 75.0 
426.012207 50.0 
426.029938 77.0 
426.041779 70.0 
426.053589 72.0 
426.06543 81.0 
426.07724 87.0 
426.089081 84.0 
426.100891 90.0 
426.136383 245.0 
426.165924 244.0 
426.189575 716.0 
426.225067 977.0 
426.236908 1042.0 
426.27829 934.0 
426.301941 551.0 
426.325592 310.0 
426.378845 112.0 
426.396576 92.0 
426.408417 106.0 
426.437988 113.0 
426.46756 102.0 
426.497131 113.0 
426.520782 114.0 
426.556305 77.0 
426.574036 51.0 
426.591797 39.0 
426.609528 71.0 
426.633209 69.0 
426.65686 60.0 
426.692352 65.0 
426.704193 56.0 
426.716034 70.0 
426.727875 63.0 
426.745605 71.0 
426.769287 115.0 
426.781128 98.0 
426.798889 115.0 
426.828461 75.0 
426.840302 74.0 
426.869873 56.0 
426.911316 45.0 
426.940918 67.0 
426.97641 47.0 
427.006012 49.0 
427.023773 75.0 
427.035614 84.0 
427.065216 113.0 
427.077057 58.0 
427.100708 84.0 
427.12439 101.0 
427.177673 1639.0 
427.219116 2655.0 
427.236877 2173.0 
427.248718 2011.0 
427.260559 1922.0 
427.2724 1913.0 
427.296082 1177.0 
427.349365 319.0 
427.390839 193.0 
427.41452 118.0 
427.420441 118.0 
427.432281 96.0 
427.455963 108.0 
427.479645 103.0 
427.503357 97.0 
427.515198 86.0 
427.5448 94.0 
427.562561 76.0 
427.574432 92.0 
427.615875 99.0 
427.639587 89.0 
427.657349 85.0 
427.669189 86.0 
427.68103 86.0 
427.698822 99.0 
427.722504 95.0 
427.734344 81.0 
427.763977 84.0 
427.775818 70.0 
427.80545 78.0 
427.829132 100.0 
427.846924 69.0 
427.858765 66.0 
427.888397 78.0 
427.92395 112.0 
427.941711 67.0 
427.953583 70.0 
427.977264 78.0 
428.018738 107.0 
428.04245 119.0 
428.066162 110.0 
428.101715 126.0 
428.119507 58.0 
428.172852 782.0 
428.214325 963.0 
428.238037 1345.0 
428.261749 883.0 
428.27359 916.0 
428.303253 687.0 
428.344727 222.0 
428.38623 129.0 
428.415894 113.0 
428.427734 131.0 
428.451447 125.0 
428.469238 87.0 
428.48111 86.0 
428.498901 67.0 
428.516663 94.0 
428.534454 68.0 
428.552246 94.0 
428.558197 94.0 
428.575958 85.0 
428.611542 71.0 
428.635284 64.0 
428.664917 76.0 
428.676788 79.0 
428.7005 63.0 
428.730164 66.0 
428.742035 72.0 
428.759827 33.0 
428.783539 43.0 
428.807251 83.0 
428.842865 88.0 
428.860657 81.0 
428.884369 81.0 
428.902161 98.0 
428.925903 57.0 
428.943695 71.0 
428.967438 57.0 
428.99115 68.0 
429.014893 50.0 
429.026764 45.0 
429.038635 41.0 
429.050476 39.0 
429.080139 82.0 
429.09201 54.0 
429.121674 90.0 
429.18103 2729.0 
429.234436 3180.0 
429.264099 1970.0 
429.311584 925.0 
429.35907 303.0 
429.394684 164.0 
429.436218 98.0 
429.454041 110.0 
429.495575 103.0 
429.507446 92.0 
429.519318 89.0 
429.549011 120.0 
429.560883 96.0 
429.590576 112.0 
429.614319 69.0 
429.632141 64.0 
429.649933 62.0 
429.667755 78.0 
429.697449 75.0 
429.721191 92.0 
429.739014 69.0 
429.756805 72.0 
429.774628 93.0 
429.816193 102.0 
429.839966 125.0 
429.869659 138.0 
429.899353 79.0 
429.911224 75.0 
429.929047 70.0 
429.952789 78.0 
429.994354 94.0 
430.024078 69.0 
430.053772 87.0 
430.065643 82.0 
430.095337 128.0 
430.125061 113.0 
430.184448 1287.0 
430.220093 1268.0 
430.243866 1443.0 
430.27951 660.0 
430.309235 385.0 
430.332977 225.0 
430.344879 209.0 
430.380524 172.0 
430.404297 95.0 
430.422119 101.0 
430.439941 87.0 
430.457794 95.0 
430.469666 89.0 
430.481567 98.0 
430.49939 88.0 
430.523163 79.0 
430.540985 98.0 
430.564758 71.0 
430.582581 100.0 
430.600433 83.0 
430.636078 102.0 
430.671753 125.0 
430.683624 64.0 
430.701477 83.0 
430.72525 147.0 
430.754974 88.0 
430.790649 103.0 
430.808472 51.0 
430.820374 50.0 
430.832275 50.0 
430.844147 54.0 
430.856049 84.0 
430.879822 50.0 
430.903595 89.0 
430.93927 105.0 
430.963074 75.0 
430.998749 95.0 
431.028473 75.0 
431.058228 58.0 
431.07605 71.0 
431.123627 231.0 
431.153381 630.0 
431.195007 1277.0 
431.230682 2335.0 
431.254486 2141.0 
431.27829 1944.0 
431.296112 1536.0 
431.355621 492.0 
431.397247 144.0 
431.421051 180.0 
431.468658 131.0 
431.498413 124.0 
431.510315 113.0 
431.528168 78.0 
431.54599 79.0 
431.581696 80.0 
431.61145 73.0 
431.635254 77.0 
431.641205 77.0 
431.653107 85.0 
431.665009 80.0 
431.688812 81.0 
431.73645 119.0 
431.772156 101.0 
431.807861 93.0 
431.837616 105.0 
431.849518 80.0 
431.867371 81.0 
431.897156 89.0 
431.915009 81.0 
431.92691 67.0 
431.944763 64.0 
431.962616 86.0 
431.980499 77.0 
432.004303 113.0 
432.04599 76.0 
432.057892 77.0 
432.093597 86.0 
432.117432 108.0 
432.159119 309.0 
432.206757 815.0 
432.218658 1015.0 
432.23056 1268.0 
432.260345 1522.0 
432.2901 839.0 
432.313934 664.0 
432.343719 195.0 
432.355621 181.0 
432.373505 175.0 
432.397308 109.0 
432.421143 120.0 
432.456879 95.0 
432.492615 113.0 
432.534332 90.0 
432.552185 126.0 
432.587952 69.0 
432.599854 53.0 
432.623688 74.0 
432.641571 60.0 
432.665375 109.0 
432.677307 77.0 
432.69519 103.0 
432.724976 81.0 
432.736877 69.0 
432.760712 124.0 
432.778595 78.0 
432.790527 81.0 
432.802429 93.0 
432.814362 80.0 
432.832245 64.0 
432.850098 80.0 
432.873932 102.0 
432.891815 41.0 
432.909698 53.0 
432.933533 60.0 
432.957397 50.0 
432.969299 62.0 
432.987183 56.0 
433.011017 69.0 
433.034882 90.0 
433.08255 118.0 
433.106384 104.0 
433.166016 1972.0 
433.18985 1824.0 
433.225616 3250.0 
433.273315 1917.0 
433.291199 1391.0 
433.332947 623.0 
433.362762 428.0 
433.386627 207.0 
433.398529 192.0 
433.440277 160.0 
433.452209 148.0 
433.470093 122.0 
433.482025 104.0 
433.487976 104.0 
433.523773 124.0 
433.535706 114.0 
433.553589 79.0 
433.571472 71.0 
433.589386 117.0 
433.619202 141.0 
433.637085 77.0 
433.643066 77.0 
433.66095 127.0 
433.684814 72.0 
433.702698 86.0 
433.71463 92.0 
433.738495 53.0 
433.756409 51.0 
433.768341 71.0 
433.780273 66.0 
433.810089 96.0 
433.833954 64.0 
433.851837 72.0 
433.869751 67.0 
433.887634 57.0 
433.899597 56.0 
433.91153 67.0 
433.935394 92.0 
433.947327 87.0 
433.989075 111.0 
434.006989 85.0 
434.018921 60.0 
434.042786 89.0 
434.048767 89.0 
434.084564 85.0 
434.102478 60.0 
434.120361 76.0 
434.174072 690.0 
434.191986 870.0 
434.203918 872.0 
434.227814 1323.0 
434.269592 989.0 
434.305389 418.0 
434.341217 261.0 
434.371063 143.0 
434.400909 101.0 
434.430756 124.0 
434.454651 117.0 
434.472565 78.0 
434.490479 108.0 
434.508392 117.0 
434.526306 76.0 
434.550171 85.0 
434.562134 79.0 
434.603912 125.0 
434.63974 67.0 
434.663635 95.0 
434.687531 71.0 
434.705444 78.0 
434.72934 65.0 
434.741272 63.0 
434.771118 50.0 
434.783081 43.0 
434.795013 51.0 
434.806976 79.0 
434.848785 70.0 
434.872681 68.0 
434.896576 58.0 
434.920471 52.0 
434.932404 54.0 
434.950317 53.0 
434.96228 58.0 
434.992157 85.0 
435.039948 91.0 
435.081757 64.0 
435.093719 64.0 
435.105652 63.0 
435.129547 100.0 
435.183319 1353.0 
435.201263 1719.0 
435.243103 2322.0 
435.255035 1999.0 
435.290894 1512.0 
435.332733 528.0 
435.368591 150.0 
435.380554 192.0 
435.410431 118.0 
435.434326 127.0 
435.452271 116.0 
435.488129 105.0 
435.523987 53.0 
435.541931 59.0 
435.565826 72.0 
435.595734 72.0 
435.601715 72.0 
435.631592 104.0 
435.649536 105.0 
435.66748 99.0 
435.697357 79.0 
435.70932 83.0 
435.733246 72.0 
435.75119 60.0 
435.769104 63.0 
435.781067 61.0 
435.79303 91.0 
435.822937 105.0 
435.858795 88.0 
435.87674 53.0 
435.888702 58.0 
435.91861 63.0 
435.948517 60.0 
435.966461 87.0 
436.00235 88.0 
436.026276 66.0 
436.050201 87.0 
436.080109 100.0 
436.115997 103.0 
436.133942 84.0 
436.163849 484.0 
436.199738 690.0 
436.223663 831.0 
436.253571 651.0 
436.283478 580.0 
436.307434 443.0 
436.325378 231.0 
436.349304 262.0 
436.379211 151.0 
436.421112 81.0 
436.433075 74.0 
436.451019 103.0 
436.462982 83.0 
436.474976 76.0 
436.49292 87.0 
436.504883 90.0 
436.528839 104.0 
436.546783 86.0 
436.564728 43.0 
436.594666 71.0 
436.630554 91.0 
436.672455 78.0 
436.684448 71.0 
436.708374 48.0 
436.73233 75.0 
436.762268 61.0 
436.786194 46.0 
436.798187 51.0 
436.804169 51.0 
436.828094 49.0 
436.840088 68.0 
436.864014 65.0 
436.876007 61.0 
436.893951 88.0 
436.905945 88.0 
436.923889 58.0 
436.935883 82.0 
436.96582 119.0 
437.00174 75.0 
437.049652 66.0 
437.073578 59.0 
437.103546 89.0 
437.12149 56.0 
437.169403 1307.0 
437.193359 1725.0 
437.205353 1781.0 
437.229309 2271.0 
437.253265 2627.0 
437.277222 2055.0 
437.313171 1341.0 
437.414978 149.0 
437.432953 128.0 
437.444946 131.0 
437.474915 121.0 
437.504852 112.0 
437.516846 119.0 
437.534821 89.0 
437.546783 75.0 
437.57077 53.0 
437.60672 70.0 
437.636688 98.0 
437.666626 54.0 
437.678619 47.0 
437.696594 65.0 
437.744537 89.0 
437.756531 89.0 
437.768524 84.0 
437.786499 77.0 
437.822449 107.0 
437.858398 60.0 
437.90036 57.0 
437.924347 45.0 
437.942322 74.0 
437.97229 80.0 
438.002258 94.0 
438.038239 120.0 
438.062225 63.0 
438.074219 56.0 
438.092194 74.0 
438.110168 89.0 
438.164154 436.0 
438.188141 802.0 
438.200104 766.0 
438.224091 997.0 
438.248077 1049.0 
438.278076 993.0 
438.296051 638.0 
438.314056 773.0 
438.356018 260.0 
438.380005 169.0 
438.39801 98.0 
438.410004 115.0 
438.43399 109.0 
438.451996 78.0 
438.463989 78.0 
438.493958 76.0 
438.517975 95.0 
438.541962 67.0 
438.577942 65.0 
438.607941 59.0 
438.619934 49.0 
438.649933 78.0 
438.679932 72.0 
438.697937 91.0 
438.727936 76.0 
438.757935 61.0 
438.793915 64.0 
438.823914 83.0 
438.835938 78.0 
438.859924 73.0 
438.871918 68.0 
438.889923 78.0 
438.91394 83.0 
438.925934 74.0 
438.937927 71.0 
438.961945 69.0 
438.97995 89.0 
439.009949 82.0 
439.021973 83.0 
439.045959 120.0 
439.069977 70.0 
439.099976 142.0 
439.112 117.0 
439.190033 1244.0 
439.220032 2106.0 
439.244049 2664.0 
439.286072 2035.0 
439.3461 680.0 
439.400146 275.0 
439.424164 122.0 
439.442169 141.0 
439.460175 136.0 
439.496216 147.0 
439.532257 109.0 
439.54425 87.0 
439.556274 89.0 
439.57428 102.0 
439.634338 86.0 
439.658356 59.0 
439.664368 59.0 
439.676392 64.0 
439.694397 72.0 
439.73645 62.0 
439.760468 42.0 
439.784485 66.0 
439.796509 60.0 
439.826538 91.0 
439.844574 78.0 
439.862579 82.0 
439.92868 92.0 
439.940704 71.0 
439.964722 49.0 
439.982758 102.0 
440.006775 68.0 
440.030823 65.0 
440.048828 89.0 
440.066864 41.0 
440.096924 69.0 
440.120941 69.0 
440.132965 132.0 
440.157013 155.0 
440.169006 266.0 
440.205078 444.0 
440.229126 872.0 
440.265167 945.0 
440.289215 567.0 
440.301239 595.0 
440.331299 387.0 
440.355347 168.0 
440.379364 162.0 
440.403412 122.0 
440.409424 122.0 
440.433472 94.0 
440.463531 124.0 
440.505615 89.0 
440.523651 115.0 
440.559723 79.0 
440.583771 89.0 
440.601807 77.0 
440.613831 114.0 
440.649902 73.0 
440.67395 62.0 
440.685974 58.0 
440.704041 66.0 
440.716064 86.0 
440.728088 116.0 
440.740112 117.0 
440.758148 128.0 
440.782196 73.0 
440.79422 131.0 
440.818298 93.0 
440.836334 52.0 
440.848358 74.0 
440.878418 81.0 
440.902496 63.0 
440.926544 74.0 
440.950592 50.0 
440.980682 113.0 
440.992706 54.0 
441.00473 56.0 
441.016754 53.0 
441.040833 100.0 
441.070892 58.0 
441.100983 78.0 
441.113007 95.0 
441.131073 99.0 
441.191223 1897.0 
441.227325 3055.0 
441.239349 2509.0 
441.251404 2652.0 
441.287506 1925.0 
441.341644 557.0 
441.377747 273.0 
441.401825 142.0 
441.413849 172.0 
441.419891 172.0 
441.443939 129.0 
441.462006 147.0 
441.50415 111.0 
441.522186 113.0 
441.540253 94.0 
441.564331 90.0 
441.600433 103.0 
441.624512 106.0 
441.636566 88.0 
441.654602 77.0 
441.67868 84.0 
441.696747 83.0 
441.73288 96.0 
441.744904 94.0 
441.768982 88.0 
441.787048 104.0 
441.79306 104.0 
441.811127 84.0 
441.835205 94.0 
441.84726 67.0 
441.865326 65.0 
441.907471 141.0 
441.96167 126.0 
441.967682 126.0 
441.979736 127.0 
441.997803 130.0 
442.015869 101.0 
442.039948 102.0 
442.052002 56.0 
442.070068 76.0 
442.094147 93.0 
442.100189 93.0 
442.124268 73.0 
442.154388 152.0 
442.184509 727.0 
442.232697 1336.0 
442.268829 995.0 
442.286896 932.0 
442.329071 302.0 
442.359192 138.0 
442.377258 147.0 
442.407379 137.0 
442.431488 138.0 
442.467621 147.0 
442.479675 151.0 
442.503784 136.0 
442.545959 135.0 
442.552002 135.0 
442.570068 74.0 
442.582123 80.0 
442.600189 75.0 
442.612244 114.0 
442.636353 101.0 
442.666473 82.0 
442.696625 64.0 
442.714691 62.0 
442.732788 49.0 
442.756897 82.0 
442.781006 59.0 
442.79306 59.0 
442.811127 79.0 
442.835236 60.0 
442.865387 89.0 
442.895538 39.0 
442.919647 70.0 
442.937714 80.0 
442.955811 71.0 
442.985962 71.0 
443.004028 65.0 
443.028137 75.0 
443.046234 82.0 
443.070343 56.0 
443.08844 48.0 
443.100494 60.0 
443.118591 89.0 
443.136688 183.0 
443.172852 953.0 
443.196991 1725.0 
443.233154 2813.0 
443.251251 2448.0 
443.263306 2510.0 
443.293457 2157.0 
443.395996 204.0 
443.43219 134.0 
443.456299 151.0 
443.486481 107.0 
443.516632 66.0 
443.534729 94.0 
443.552826 115.0 
443.570923 77.0 
443.58902 89.0 
443.601074 72.0 
443.613159 41.0 
443.631256 59.0 
443.643311 74.0 
443.66745 48.0 
443.685547 74.0 
443.697632 60.0 
443.721741 94.0 
443.739868 79.0 
443.751923 109.0 
443.77002 61.0 
443.794159 72.0 
443.812256 73.0 
443.836395 75.0 
443.860535 68.0 
443.884674 69.0 
443.902771 64.0 
443.920898 71.0 
443.95105 62.0 
443.999359 59.0 
444.011414 62.0 
444.047638 80.0 
444.071777 75.0 
444.101959 123.0 
444.156281 122.0 
444.198547 795.0 
444.222687 738.0 
444.246826 1258.0 
444.252869 1258.0 
444.289093 712.0 
444.301178 578.0 
444.343445 196.0 
444.35553 175.0 
444.385712 112.0 
444.409851 128.0 
444.427979 101.0 
444.452118 148.0 
444.476288 222.0 
444.50647 120.0 
444.524597 118.0 
444.536682 167.0 
444.560822 92.0 
444.578949 120.0 
444.603119 80.0 
444.639343 78.0 
444.663513 81.0 
444.687653 81.0 
444.717865 60.0 
444.742035 41.0 
444.75412 44.0 
444.772247 71.0 
444.802429 64.0 
444.880981 117.0 
444.905151 86.0 
444.947449 95.0 
444.977661 69.0 
445.013885 105.0 
445.026001 58.0 
445.038086 76.0 
445.062256 100.0 
445.104553 87.0 
445.116638 132.0 
445.171021 2495.0 
445.183105 2417.0 
445.225403 3353.0 
445.249573 3314.0 
445.261688 3374.0 
445.303986 2399.0 
445.358398 553.0 
445.376526 364.0 
445.406738 209.0 
445.418823 165.0 
445.430939 204.0 
445.455109 152.0 
445.491394 142.0 
445.515564 101.0 
445.533691 75.0 
445.551849 95.0 
445.576019 110.0 
445.60022 122.0 
445.618347 76.0 
445.636505 132.0 
445.654633 90.0 
445.67276 130.0 
445.690918 85.0 
445.715088 91.0 
445.727203 77.0 
445.745331 94.0 
445.763489 61.0 
445.781616 97.0 
445.823944 77.0 
445.842102 84.0 
445.854187 87.0 
445.88443 82.0 
445.90863 92.0 
445.944916 60.0 
445.969116 85.0 
445.987274 67.0 
446.005402 84.0 
446.035675 71.0 
446.04776 96.0 
446.090118 103.0 
446.114319 62.0 
446.16272 296.0 
446.192963 630.0 
446.205048 733.0 
446.229279 846.0 
446.247406 885.0 
446.271606 1443.0 
446.30188 784.0 
446.320038 600.0 
446.332123 622.0 
446.356323 309.0 
446.398712 160.0 
446.428955 105.0 
446.459229 146.0 
446.471313 90.0 
446.495544 115.0 
446.513702 72.0 
446.53186 97.0 
446.550018 92.0 
446.580261 94.0 
446.604492 92.0 
446.62265 103.0 
446.634766 102.0 
446.671082 84.0 
446.707397 64.0 
446.743713 77.0 
446.761871 64.0 
446.78006 70.0 
446.792145 83.0 
446.80426 96.0 
446.822418 72.0 
446.834534 79.0 
446.846649 70.0 
446.889038 64.0 
446.919312 71.0 
446.955658 94.0 
446.985931 61.0 
446.998047 69.0 
447.022247 71.0 
447.058594 117.0 
447.082825 56.0 
447.113098 124.0 
447.149445 306.0 
447.185791 1941.0 
447.197906 2118.0 
447.240295 2633.0 
447.270599 1719.0 
447.306946 1095.0 
447.337219 561.0 
447.379639 248.0 
447.40387 124.0 
447.422058 139.0 
447.452332 116.0 
447.476593 176.0 
447.506866 137.0 
447.518982 120.0 
447.543243 101.0 
447.567474 103.0 
447.603821 105.0 
447.628082 107.0 
447.652313 76.0 
447.664429 96.0 
447.682617 81.0 
447.712921 80.0 
447.737152 44.0 
447.761414 74.0 
447.803833 68.0 
447.828094 70.0 
447.876587 94.0 
447.894745 82.0 
447.919006 116.0 
447.943268 89.0 
447.955383 79.0 
447.979645 130.0 
448.016022 147.0 
448.040253 80.0 
448.058441 104.0 
448.088776 66.0 
448.100891 54.0 
448.137268 63.0 
448.179718 607.0 
448.203979 815.0 
448.222168 662.0 
448.240356 1017.0 
448.264618 840.0 
448.300995 614.0 
448.343445 212.0 
448.367706 144.0 
448.398041 115.0 
448.422302 68.0 
448.440491 114.0 
448.482971 72.0 
448.513306 62.0 
448.525421 60.0 
448.555756 82.0 
448.592163 95.0 
448.610352 72.0 
448.622498 64.0 
448.646759 40.0 
448.664978 101.0 
448.701355 84.0 
448.713501 76.0 
448.73172 67.0 
448.743835 74.0 
448.768097 71.0 
448.804535 54.0 
448.834869 68.0 
448.853058 47.0 
448.895538 49.0 
448.907684 60.0 
448.956238 73.0 
448.980499 91.0 
449.004791 61.0 
449.029083 77.0 
449.041199 71.0 
449.053345 63.0 
449.08371 78.0 
449.095825 71.0 
449.120117 46.0 
449.205109 1319.0 
449.229401 2521.0 
449.247589 2224.0 
449.259735 2029.0 
449.284027 1611.0 
449.302246 1526.0 
449.332611 625.0 
449.35083 371.0 
449.369049 220.0 
449.381165 198.0 
449.405457 144.0 
449.417603 141.0 
449.460114 135.0 
449.496552 119.0 
449.53299 115.0 
449.563354 128.0 
449.599792 99.0 
449.618011 50.0 
449.63623 78.0 
449.666595 81.0 
449.684845 79.0 
449.696991 71.0 
449.745575 89.0 
449.769867 57.0 
449.788086 59.0 
449.812408 67.0 
449.830627 64.0 
449.848846 57.0 
449.860992 62.0 
449.897461 54.0 
449.927826 54.0 
449.946045 68.0 
449.97644 106.0 
449.994659 81.0 
450.006805 85.0 
450.031128 56.0 
450.05542 49.0 
450.073669 67.0 
450.091888 53.0 
450.116211 100.0 
450.13443 80.0 
450.170898 267.0 
450.189117 352.0 
450.219513 832.0 
450.249908 835.0 
450.2742 655.0 
450.310669 453.0 
450.347137 170.0 
450.365387 138.0 
450.407928 96.0 
450.420105 94.0 
450.444427 69.0 
450.462646 90.0 
450.499115 65.0 
450.517365 63.0 
450.541687 75.0 
450.572083 88.0 
450.590332 57.0 
450.614655 79.0 
450.632904 89.0 
450.657227 54.0 
450.681549 75.0 
450.724091 84.0 
450.74234 55.0 
450.766663 75.0 
450.784912 87.0 
450.809235 31.0 
450.827484 53.0 
450.839661 41.0 
450.851807 37.0 
450.882233 60.0 
450.900482 70.0 
450.918732 50.0 
450.924805 50.0 
450.943054 61.0 
450.9552 45.0 
450.985626 86.0 
451.016052 41.0 
451.034302 52.0 
451.058624 58.0 
451.070801 69.0 
451.095123 90.0 
451.113373 50.0 
451.137726 128.0 
451.180298 1339.0 
451.210724 1777.0 
451.259399 2232.0 
451.289825 1463.0 
451.320251 779.0 
451.332428 695.0 
451.362854 265.0 
451.387177 247.0 
451.423706 171.0 
451.478485 122.0 
451.502808 113.0 
451.527161 78.0 
451.54541 99.0 
451.56369 87.0 
451.588043 69.0 
451.606293 59.0 
451.624542 86.0 
451.667175 66.0 
451.697601 74.0 
451.734131 61.0 
451.746307 75.0 
451.776733 83.0 
451.78891 68.0 
451.801086 60.0 
451.819366 71.0 
451.837616 79.0 
451.855896 65.0 
451.874176 85.0 
451.904602 74.0 
451.922882 63.0 
451.941132 69.0 
451.959412 69.0 
451.965515 69.0 
451.983765 65.0 
452.002045 73.0 
452.014221 55.0 
452.020294 55.0 
452.050751 77.0 
452.069031 52.0 
452.081207 55.0 
452.099487 53.0 
452.117737 102.0 
452.129944 123.0 
452.16037 118.0 
452.17865 187.0 
452.209106 529.0 
452.239563 584.0 
452.27002 643.0 
452.2883 451.0 
452.32486 426.0 
452.361389 208.0 
452.385773 162.0 
452.422333 87.0 
452.446686 77.0 
452.477173 90.0 
452.501526 49.0 
452.532013 54.0 
452.544189 65.0 
452.586853 76.0 
452.605133 65.0 
452.61731 97.0 
452.623413 97.0 
452.647766 66.0 
452.678253 120.0 
452.714813 44.0 
452.739197 67.0 
452.76358 39.0 
452.78186 34.0 
452.80014 69.0 
452.81842 43.0 
452.861084 66.0 
452.885468 55.0 
452.897675 58.0 
452.928162 35.0 
452.946442 42.0 
452.958618 73.0 
452.983002 102.0 
453.025696 108.0 
453.037872 75.0 
453.056183 49.0 
453.068359 70.0 
453.098846 148.0 
453.135437 148.0 
453.178131 1326.0 
453.202515 1142.0 
453.220795 1736.0 
453.239105 2011.0 
453.257385 1898.0 
453.269592 1828.0 
453.300079 1338.0 
453.33667 776.0 
453.37326 259.0 
453.415955 113.0 
453.434265 128.0 
453.452545 76.0 
453.483063 87.0 
453.507446 88.0 
453.544037 111.0 
453.574554 99.0 
453.592865 116.0 
453.635559 167.0 
453.678253 48.0 
453.696564 124.0 
453.720978 60.0 
453.733185 51.0 
453.745392 59.0 
453.763672 45.0 
453.775879 65.0 
453.788086 68.0 
453.800293 83.0 
453.8125 55.0 
453.824707 50.0 
453.830811 50.0 
453.843018 49.0 
453.861298 48.0 
453.867401 48.0 
453.885712 106.0 
453.928436 100.0 
453.965057 68.0 
453.989471 78.0 
453.995575 78.0 
454.007782 67.0 
454.032196 68.0 
454.05661 56.0 
454.087128 55.0 
454.099335 52.0 
454.129852 108.0 
454.142059 84.0 
454.17868 376.0 
454.196991 285.0 
454.215302 633.0 
454.239716 772.0 
454.270264 708.0 
454.300781 612.0 
454.331299 327.0 
454.343506 251.0 
454.361847 291.0 
454.398468 105.0 
454.416779 101.0 
454.435089 109.0 
454.459534 88.0 
454.471741 123.0 
454.502258 81.0 
454.514496 80.0 
454.53891 79.0 
454.55722 66.0 
454.587769 81.0 
454.606079 111.0 
454.62442 52.0 
454.642731 76.0 
454.661041 81.0 
454.673279 98.0 
454.70993 66.0 
454.734344 114.0 
454.758789 67.0 
454.770996 70.0 
454.795441 80.0 
454.807648 67.0 
454.838196 39.0 
454.856506 55.0 
454.880951 52.0 
454.899292 63.0 
454.923737 61.0 
454.948151 49.0 
454.960388 78.0 
454.990936 63.0 
455.009247 61.0 
455.033691 57.0 
455.058136 60.0 
455.100922 51.0 
455.113129 44.0 
455.125366 48.0 
455.149811 59.0 
455.186462 1161.0 
455.21701 1701.0 
455.229248 1567.0 
455.247589 2396.0 
455.272034 2163.0 
455.302582 1237.0 
455.327026 832.0 
455.339264 799.0 
455.38205 238.0 
455.394257 163.0 
455.437042 125.0 
455.461517 101.0 
455.473724 91.0 
455.498169 88.0 
455.522644 78.0 
455.540985 80.0 
455.571533 117.0 
455.608215 138.0 
455.63269 71.0 
455.644928 74.0 
455.663269 84.0 
455.675476 96.0 
455.687714 101.0 
455.699951 94.0 
455.724396 126.0 
455.736633 100.0 
455.754974 98.0 
455.797791 59.0 
455.809998 55.0 
455.822235 59.0 
455.828369 59.0 
455.852814 64.0 
455.883392 64.0 
455.901733 49.0 
455.926208 71.0 
455.956787 65.0 
455.987366 98.0 
455.999603 92.0 
456.017944 78.0 
456.036316 108.0 
456.054657 83.0 
456.072998 89.0 
456.109711 100.0 
456.152527 91.0 
456.195343 537.0 
456.219818 411.0 
456.250427 746.0 
456.274902 705.0 
456.299377 497.0 
456.311615 539.0 
456.348328 259.0 
456.372803 94.0 
456.403381 142.0 
456.421753 92.0 
456.458466 101.0 
456.476837 88.0 
456.51355 74.0 
456.538025 64.0 
456.556396 62.0 
456.574738 48.0 
456.605347 48.0 
456.617584 76.0 
456.654327 46.0 
456.672668 85.0 
456.684937 87.0 
456.697174 98.0 
456.721649 96.0 
456.733887 107.0 
456.758392 61.0 
456.789001 117.0 
456.819611 65.0 
456.837952 57.0 
456.862457 80.0 
456.893066 100.0 
456.905304 97.0 
456.92981 64.0 
456.942047 58.0 
456.966553 76.0 
456.97879 50.0 
456.997162 47.0 
457.015533 61.0 
457.021637 61.0 
457.033905 55.0 
457.05838 64.0 
457.070648 59.0 
457.076752 59.0 
457.101257 74.0 
457.138 103.0 
457.187012 1678.0 
457.211487 2052.0 
457.254364 2959.0 
457.291107 1967.0 
457.303375 2119.0 
457.382996 342.0 
457.413635 187.0 
457.425873 126.0 
457.444275 170.0 
457.456512 150.0 
457.487152 117.0 
457.49939 139.0 
457.530029 114.0 
457.548431 82.0 
457.572937 111.0 
457.585175 101.0 
457.603577 56.0 
457.615814 70.0 
457.64032 58.0 
457.658722 68.0 
457.670959 94.0 
457.707733 71.0 
457.732239 107.0 
457.781281 79.0 
457.805786 85.0 
457.824158 116.0 
457.84256 89.0 
457.867065 149.0 
457.909973 88.0 
457.922241 76.0 
457.940613 102.0 
457.959015 83.0 
457.989655 64.0 
458.020325 79.0 
458.057098 100.0 
458.087738 74.0 
458.118408 99.0 
458.130676 72.0 
458.142914 100.0 
458.185852 620.0 
458.19812 699.0 
458.210358 781.0 
458.253296 1294.0 
458.277832 859.0 
458.29007 1050.0 
458.32074 583.0 
458.357544 420.0 
458.38205 194.0 
458.41272 127.0 
458.449524 115.0 
458.480194 93.0 
458.523132 124.0 
458.547668 63.0 
458.578339 104.0 
458.590607 60.0 
458.609009 67.0 
458.633545 89.0 
458.664215 57.0 
458.670349 57.0 
458.682617 61.0 
458.707153 60.0 
458.737823 70.0 
458.750092 70.0 
458.774628 108.0 
458.79303 72.0 
458.811432 88.0 
458.854401 122.0 
458.872803 57.0 
458.897339 96.0 
458.915741 36.0 
458.940308 110.0 
458.977112 112.0 
459.013947 96.0 
459.032349 75.0 
459.044617 68.0 
459.056885 63.0 
459.075317 71.0 
459.112122 87.0 
459.142822 115.0 
459.191925 2046.0 
459.234894 2638.0 
459.253296 3469.0 
459.290131 2288.0 
459.314697 1629.0 
459.394501 311.0 
459.419037 162.0 
459.437469 200.0 
459.449738 140.0 
459.474304 114.0 
459.498871 85.0 
459.517303 80.0 
459.535706 79.0 
459.560272 88.0 
459.578705 94.0 
459.590973 110.0 
459.61554 97.0 
459.633972 107.0 
459.658508 84.0 
459.701508 125.0 
459.726074 92.0 
459.750641 85.0 
459.775208 74.0 
459.787506 66.0 
459.799774 98.0 
459.818207 65.0 
459.842773 129.0 
459.855072 91.0 
459.879639 119.0 
459.904205 118.0 
459.934906 147.0 
459.947205 185.0 
459.971771 44.0 
459.990204 151.0 
460.014771 58.0 
460.033203 135.0 
460.082367 86.0 
460.094635 66.0 
460.106934 53.0 
460.1315 84.0 
460.186798 658.0 
460.229828 1040.0 
460.24826 1449.0 
460.285126 1299.0 
460.321991 588.0 
460.346588 398.0 
460.389587 200.0 
460.426483 153.0 
460.457214 106.0 
460.481781 103.0 
460.512543 102.0 
460.543274 97.0 
460.574005 73.0 
460.586304 61.0 
460.604736 66.0 
460.641632 76.0 
460.666199 83.0 
460.690796 105.0 
460.69696 105.0 
460.727692 67.0 
460.752289 74.0 
460.764587 71.0 
460.78302 74.0 
460.807617 64.0 
460.819916 73.0 
460.832214 55.0 
460.838379 55.0 
460.862976 70.0 
460.899872 86.0 
460.924469 73.0 
460.936768 66.0 
460.949066 68.0 
460.961365 59.0 
460.992096 50.0 
461.004395 71.0 
461.022858 51.0 
461.047455 61.0 
461.059753 77.0 
461.102814 66.0 
461.121277 57.0 
461.219696 1552.0 
461.256592 2308.0 
461.299652 1532.0 
461.36734 325.0 
461.391937 230.0 
461.422699 171.0 
461.434998 151.0 
461.459625 133.0 
461.478088 105.0 
461.496552 96.0 
461.521149 100.0 
461.545776 95.0 
461.576538 91.0 
461.588837 127.0 
461.6073 111.0 
461.631927 108.0 
461.675018 90.0 
461.699615 122.0 
461.718079 63.0 
461.736542 123.0 
461.773468 99.0 
461.80426 98.0 
461.841187 156.0 
461.884277 74.0 
461.90274 66.0 
461.921234 41.0 
461.945831 78.0 
461.976624 92.0 
461.995087 71.0 
462.01358 86.0 
462.050507 66.0 
462.06897 40.0 
462.087463 64.0 
462.112091 44.0 
462.12439 70.0 
462.136719 66.0 
462.149017 71.0 
462.192139 344.0 
462.204437 434.0 
462.222931 484.0 
462.259857 960.0 
462.272186 926.0 
462.284515 967.0 
462.315308 829.0 
462.3461 319.0 
462.370728 230.0 
462.413849 132.0 
462.426178 125.0 
462.45697 120.0 
462.481598 86.0 
462.506256 67.0 
462.518555 51.0 
462.543213 88.0 
462.592499 111.0 
462.604797 92.0 
462.617126 131.0 
462.647949 130.0 
462.672577 72.0 
462.691071 72.0 
462.7034 64.0 
462.728027 67.0 
462.771149 71.0 
462.808136 92.0 
462.82663 53.0 
462.838959 55.0 
462.857422 66.0 
462.869751 65.0 
462.900574 74.0 
462.912903 62.0 
462.943726 63.0 
462.974518 68.0 
463.005341 77.0 
463.029999 86.0 
463.060822 65.0 
463.08548 50.0 
463.103973 56.0 
463.110138 56.0 
463.190277 1777.0 
463.239594 2594.0 
463.251923 2723.0 
463.270416 3160.0 
463.301239 2499.0 
463.325897 1921.0 
463.362885 658.0 
463.393707 330.0 
463.418396 225.0 
463.461548 188.0 
463.473877 191.0 
463.5047 140.0 
463.517059 138.0 
463.541718 116.0 
463.578705 113.0 
463.609558 98.0 
463.628052 53.0 
463.65274 76.0 
463.671234 108.0 
463.708221 128.0 
463.73291 76.0 
463.751404 104.0 
463.769928 117.0 
463.81311 148.0 
463.843933 85.0 
463.868622 79.0 
463.887115 90.0 
463.899475 107.0 
463.911804 57.0 
463.930328 75.0 
463.961151 75.0 
463.979675 79.0 
464.004364 64.0 
464.035217 79.0 
464.059875 107.0 
464.090729 88.0 
464.115417 137.0 
464.164795 193.0 
464.195648 420.0 
464.220337 526.0 
464.245026 1087.0 
464.275879 1287.0 
464.306732 1072.0 
464.35611 423.0 
464.399323 116.0 
464.411652 153.0 
464.424011 110.0 
464.4487 139.0 
464.479553 69.0 
464.510437 81.0 
464.528961 86.0 
464.547485 103.0 
464.559814 131.0 
464.603027 135.0 
464.633911 86.0 
464.677124 109.0 
464.720367 84.0 
464.732697 87.0 
464.745056 96.0 
464.76358 76.0 
464.788269 109.0 
464.800629 72.0 
464.825317 99.0 
464.843872 58.0 
464.862396 48.0 
464.88092 56.0 
464.89325 64.0 
464.917969 69.0 
464.930328 66.0 
464.961212 75.0 
464.973541 93.0 
464.979736 93.0 
465.004425 54.0 
465.016785 74.0 
465.035309 50.0 
465.078552 57.0 
465.115631 109.0 
465.152679 159.0 
465.177399 312.0 
465.214478 928.0 
465.270081 2367.0 
465.300964 1384.0 
465.313324 1307.0 
465.325684 1150.0 
465.393646 224.0 
465.443085 96.0 
465.455444 93.0 
465.473999 135.0 
465.511078 98.0 
465.535797 133.0 
465.572876 106.0 
465.597595 59.0 
465.616119 57.0 
465.634674 61.0 
465.653229 81.0 
465.671753 64.0 
465.696472 71.0 
465.708832 62.0 
465.733582 45.0 
465.752106 59.0 
465.764496 72.0 
465.776855 67.0 
465.813934 86.0 
465.832489 67.0 
465.869568 67.0 
465.888123 66.0 
465.906677 64.0 
465.931396 71.0 
465.956146 66.0 
465.968506 73.0 
465.987061 56.0 
466.01178 44.0 
466.042694 56.0 
466.079803 74.0 
466.104553 40.0 
466.110718 40.0 
466.123077 44.0 
466.135468 57.0 
466.203491 552.0 
466.222046 455.0 
466.240601 581.0 
466.26535 764.0 
466.308624 389.0 
466.327179 472.0 
466.376678 148.0 
466.389038 104.0 
466.426147 95.0 
466.444733 73.0 
466.463287 81.0 
466.488037 109.0 
466.500397 81.0 
466.512756 79.0 
466.531342 61.0 
466.574646 65.0 
466.587006 53.0 
466.599396 51.0 
466.61795 77.0 
466.65509 84.0 
466.716949 79.0 
466.741699 61.0 
466.778839 54.0 
466.803589 51.0 
466.815979 51.0 
466.840729 50.0 
466.877869 60.0 
466.927368 62.0 
466.945953 57.0 
466.976898 56.0 
466.995453 50.0 
467.014038 77.0 
467.051178 57.0 
467.063538 48.0 
467.082123 77.0 
467.094513 61.0 
467.119263 80.0 
467.144043 89.0 
467.187378 945.0 
467.205933 1132.0 
467.243103 2148.0 
467.261658 1515.0 
467.274048 1535.0 
467.298828 1222.0 
467.342163 465.0 
467.348358 465.0 
467.391693 207.0 
467.441254 152.0 
467.459808 77.0 
467.490784 105.0 
467.515564 76.0 
467.534149 88.0 
467.552704 75.0 
467.571289 73.0 
467.602264 96.0 
467.627045 62.0 
467.639435 60.0 
467.65802 106.0 
467.6828 62.0 
467.69519 52.0 
467.701385 52.0 
467.726166 60.0 
467.763336 71.0 
467.781921 57.0 
467.800507 55.0 
467.825287 57.0 
467.856262 68.0 
467.868652 65.0 
467.887238 99.0 
467.899628 43.0 
467.912018 49.0 
467.942993 83.0 
467.980164 54.0 
467.992554 74.0 
468.011169 124.0 
468.02356 42.0 
468.03595 127.0 
468.066925 156.0 
468.091705 75.0 
468.122711 49.0 
468.147491 88.0 
468.178467 231.0 
468.221863 772.0 
468.246643 905.0 
468.265259 871.0 
468.277649 777.0 
468.302429 638.0 
468.32724 348.0 
468.33963 336.0 
468.35202 293.0 
468.376831 118.0 
468.414032 86.0 
468.445007 154.0 
468.457428 134.0 
468.476013 87.0 
468.488403 112.0 
468.525604 55.0 
468.54422 93.0 
468.575226 70.0 
468.606232 86.0 
468.643433 78.0 
468.680634 59.0 
468.717834 75.0 
468.73645 48.0 
468.74884 42.0 
468.767456 40.0 
468.792267 51.0 
468.810852 76.0 
468.829468 38.0 
468.854279 40.0 
468.866669 63.0 
468.897705 54.0 
468.922516 44.0 
468.934906 69.0 
468.959717 57.0 
468.972137 54.0 
468.996948 76.0 
469.034149 88.0 
469.052765 42.0 
469.077576 49.0 
469.096191 95.0 
469.127228 62.0 
469.158234 156.0 
469.232697 1479.0 
469.245087 1597.0 
469.276123 2148.0 
469.400238 290.0 
469.456085 148.0 
469.480896 131.0 
469.518158 90.0 
469.536774 75.0 
469.549194 72.0 
469.5802 77.0 
469.598846 84.0 
469.636078 82.0 
469.660919 68.0 
469.67334 78.0 
469.704376 83.0 
469.729187 64.0 
469.741608 70.0 
469.772644 67.0 
469.785065 65.0 
469.80368 36.0 
469.822327 87.0 
469.847168 67.0 
469.878204 86.0 
469.921661 92.0 
469.940277 71.0 
469.977539 90.0 
469.996185 63.0 
470.008606 61.0 
470.039642 70.0 
470.064484 61.0 
470.114166 72.0 
470.151428 126.0 
470.17627 175.0 
470.194916 419.0 
470.232178 993.0 
470.26944 886.0 
470.288086 918.0 
470.306702 749.0 
470.325348 597.0 
470.368835 234.0 
470.399902 141.0 
470.424744 103.0 
470.437164 98.0 
470.462036 92.0 
470.493103 73.0 
470.505524 72.0 
470.517944 86.0 
470.536591 84.0 
470.555206 51.0 
470.586304 103.0 
470.611145 57.0 
470.629791 68.0 
470.642212 71.0 
470.691925 88.0 
470.710571 68.0 
470.735443 65.0 
470.747864 68.0 
470.760284 51.0 
470.772705 60.0 
470.791351 59.0 
470.809998 48.0 
470.853516 77.0 
470.872162 45.0 
470.890808 56.0 
470.91568 61.0 
470.940521 41.0 
470.959167 41.0 
470.977844 51.0 
471.002686 68.0 
471.040009 62.0 
471.058655 44.0 
471.071075 61.0 
471.102173 73.0 
471.114594 65.0 
471.120819 65.0 
471.13324 61.0 
471.158112 155.0 
471.189209 775.0 
471.245178 2002.0 
471.276245 1400.0 
471.301117 1299.0 
471.326019 659.0 
471.363312 318.0 
471.400635 152.0 
471.419281 163.0 
471.450378 113.0 
471.46283 119.0 
471.481476 125.0 
471.506348 76.0 
471.518799 64.0 
471.53125 68.0 
471.574768 65.0 
471.605865 49.0 
471.618317 58.0 
471.661865 98.0 
471.680542 91.0 
471.717865 130.0 
471.761414 109.0 
471.773834 95.0 
471.804962 56.0 
471.83606 83.0 
471.879608 81.0 
471.892059 61.0 
471.90451 39.0 
471.910736 39.0 
471.923187 68.0 
471.948059 80.0 
471.966736 46.0 
471.991608 74.0 
472.010284 65.0 
472.028961 42.0 
472.07251 100.0 
472.097412 61.0 
472.12854 96.0 
472.147217 43.0 
472.190765 348.0 
472.203217 304.0 
472.246796 1007.0 
472.284149 668.0 
472.309052 570.0 
472.346405 286.0 
472.377533 196.0 
472.389984 129.0 
472.421112 82.0 
472.439789 72.0 
472.458466 93.0 
472.495819 89.0 
472.520721 72.0 
472.533173 76.0 
472.564301 102.0 
472.576752 71.0 
472.589203 89.0 
472.620361 117.0 
472.645264 66.0 
472.670166 57.0 
472.676392 57.0 
472.70752 88.0 
472.726227 80.0 
472.76358 74.0 
472.782257 67.0 
472.819641 92.0 
472.838318 52.0 
472.856995 56.0 
472.881927 59.0 
472.900604 51.0 
472.919281 84.0 
472.937988 52.0 
472.975342 78.0 
473.0065 103.0 
473.043884 73.0 
473.068817 49.0 
473.081268 53.0 
473.118652 76.0 
473.205872 903.0 
473.230804 1077.0 
473.243256 1066.0 
473.261963 1364.0 
473.311798 865.0 
473.349182 383.0 
473.392822 191.0 
473.417755 110.0 
473.448914 126.0 
473.486298 88.0 
473.505005 88.0 
473.548645 93.0 
473.579803 106.0 
473.610962 74.0 
473.635895 111.0 
473.648376 100.0 
473.667084 87.0 
473.692017 72.0 
473.716949 59.0 
473.735657 43.0 
473.748108 42.0 
473.76059 49.0 
473.779297 33.0 
473.798004 40.0 
473.810455 69.0 
473.84787 55.0 
473.885284 82.0 
473.916473 105.0 
473.941406 75.0 
473.985046 80.0 
474.01001 49.0 
474.034943 55.0 
474.066132 70.0 
474.097321 70.0 
474.12851 55.0 
474.153442 80.0 
474.203339 379.0 
474.21582 470.0 
474.247009 645.0 
474.278198 576.0 
474.29068 592.0 
474.309387 441.0 
474.334351 240.0 
474.359283 206.0 
474.384247 86.0 
474.396729 108.0 
474.415436 66.0 
474.427917 90.0 
474.446625 118.0 
474.452881 118.0 
474.48407 84.0 
474.515259 80.0 
474.546478 51.0 
474.55896 40.0 
474.583923 45.0 
474.608856 43.0 
474.621338 46.0 
474.646301 44.0 
474.658783 35.0 
474.677521 35.0 
474.702484 43.0 
474.721191 70.0 
474.752411 86.0 
474.764893 61.0 
474.7836 78.0 
474.808563 115.0 
474.833557 48.0 
474.864746 70.0 
474.902191 65.0 
474.914673 40.0 
474.933411 68.0 
474.958374 63.0 
474.977112 91.0 
475.033295 151.0 
475.064514 102.0 
475.095734 114.0 
475.126953 141.0 
475.151917 202.0 
475.189392 1527.0 
475.220612 1743.0 
475.264313 3319.0 
475.308014 2007.0 
475.376709 365.0 
475.395447 284.0 
475.414185 176.0 
475.432922 160.0 
475.45166 152.0 
475.464142 170.0 
475.495392 144.0 
475.539124 99.0 
475.551605 108.0 
475.582825 89.0 
475.607819 92.0 
475.6203 108.0 
475.645294 74.0 
475.664032 76.0 
475.676544 73.0 
475.695282 79.0 
475.71402 98.0 
475.739014 75.0 
475.757751 66.0 
475.764008 66.0 
475.770264 66.0 
475.801483 102.0 
475.820221 65.0 
475.838989 52.0 
475.851471 69.0 
475.876465 98.0 
475.895203 71.0 
475.913971 79.0 
475.932709 100.0 
475.94519 94.0 
475.957703 74.0 
476.001434 81.0 
476.020203 51.0 
476.032684 51.0 
476.045197 48.0 
476.076447 57.0 
476.10144 43.0 
476.113953 60.0 
476.138947 98.0 
476.157684 198.0 
476.201447 661.0 
476.213959 733.0 
476.232697 952.0 
476.25769 1186.0 
476.276459 1399.0 
476.295197 1054.0 
476.338959 604.0 
476.401489 162.0 
476.438995 143.0 
476.476501 125.0 
476.501526 90.0 
476.514038 83.0 
476.52652 96.0 
476.539032 105.0 
476.545288 105.0 
476.564056 81.0 
476.576569 80.0 
476.58905 81.0 
476.607819 70.0 
476.626587 65.0 
476.645355 80.0 
476.657837 68.0 
476.682861 41.0 
476.70163 63.0 
476.720398 39.0 
476.739136 66.0 
476.757904 42.0 
476.782928 73.0 
476.801697 68.0 
476.832977 36.0 
476.851715 46.0 
476.857971 46.0 
476.870483 42.0 
476.895508 70.0 
476.914276 80.0 
476.939301 81.0 
476.958069 90.0 
476.976837 68.0 
477.001862 117.0 
477.026886 102.0 
477.058167 118.0 
477.083191 48.0 
477.095703 67.0 
477.108215 67.0 
477.139496 119.0 
477.16452 172.0 
477.239624 2190.0 
477.264648 2536.0 
477.289673 2628.0 
477.327209 1361.0 
477.377289 356.0 
477.396057 291.0 
477.421082 185.0 
477.458649 137.0 
477.496185 142.0 
477.546265 98.0 
477.57132 76.0 
477.615143 99.0 
477.640167 68.0 
477.665222 106.0 
477.702759 108.0 
477.740326 96.0 
477.771637 91.0 
477.809204 125.0 
477.821716 136.0 
477.846771 92.0 
477.884338 69.0 
477.903137 62.0 
477.940704 90.0 
477.972015 66.0 
477.99707 125.0 
478.003326 125.0 
478.028381 88.0 
478.04715 78.0 
478.078461 52.0 
478.103516 76.0 
478.134857 93.0 
478.166168 71.0 
478.197479 474.0 
478.222534 768.0 
478.253845 1359.0 
478.272644 1324.0 
478.335297 552.0 
478.391663 169.0 
478.416718 86.0 
478.42926 110.0 
478.454315 161.0 
478.473114 107.0 
478.485657 105.0 
478.516968 129.0 
478.52951 128.0 
478.579651 93.0 
478.592163 109.0 
478.636047 98.0 
478.667358 66.0 
478.6987 67.0 
478.717499 68.0 
478.730042 100.0 
478.767639 89.0 
478.792725 103.0 
478.836578 66.0 
478.874207 61.0 
478.893005 27.0 
478.924347 56.0 
478.955688 61.0 
478.974487 41.0 
478.999573 69.0 
479.012115 44.0 
479.030914 70.0 
479.049713 35.0 
479.081055 44.0 
479.10614 45.0 
479.137482 41.0 
479.181396 366.0 
479.206451 876.0 
479.24408 1654.0 
479.275452 2071.0 
479.300537 1719.0 
479.325623 1201.0 
479.338165 1027.0 
479.369507 504.0 
479.419678 163.0 
479.469849 101.0 
479.488678 69.0 
479.501221 88.0 
479.52002 79.0 
479.545135 65.0 
479.576477 45.0 
479.607849 96.0 
479.632935 55.0 
479.651764 45.0 
479.670593 71.0 
479.708221 73.0 
479.739594 55.0 
479.752136 60.0 
479.796051 81.0 
479.81488 44.0 
479.83371 34.0 
479.858795 85.0 
479.877625 58.0 
479.890167 62.0 
479.908997 82.0 
479.934113 97.0 
479.971741 92.0 
480.015686 119.0 
480.047058 84.0 
480.07843 97.0 
480.103546 116.0 
480.141205 103.0 
480.172577 56.0 
480.197693 240.0 
480.222809 358.0 
480.241638 488.0 
480.266724 876.0 
480.279297 880.0 
480.304413 913.0 
480.335785 737.0 
480.37973 284.0 
480.404846 120.0 
480.411133 120.0 
480.423676 75.0 
480.436249 74.0 
480.455078 90.0 
480.499023 69.0 
480.536682 83.0 
480.561798 51.0 
480.593201 60.0 
480.618317 80.0 
480.649719 129.0 
480.706238 98.0 
480.731354 62.0 
480.743927 59.0 
480.781616 69.0 
480.794159 67.0 
480.806732 66.0 
480.825562 56.0 
480.838135 58.0 
480.856964 39.0 
480.882111 48.0 
480.90094 72.0 
480.9198 93.0 
480.944916 59.0 
480.963776 28.0 
480.982605 74.0 
481.007721 49.0 
481.014008 49.0 
481.08313 64.0 
481.101959 76.0 
481.114532 94.0 
481.164795 110.0 
481.208771 969.0 
481.227631 1451.0 
481.26532 3191.0 
481.30304 2790.0 
481.397308 277.0 
481.434998 147.0 
481.447571 175.0 
481.460144 175.0 
481.497864 153.0 
481.516724 141.0 
481.54187 99.0 
481.554443 114.0 
481.573273 83.0 
481.592133 145.0 
481.604706 112.0 
481.648712 123.0 
481.673859 123.0 
481.705292 88.0 
481.736725 69.0 
481.755585 92.0 
481.768158 72.0 
481.780731 58.0 
481.812164 77.0 
481.831024 74.0 
481.856201 42.0 
481.875061 64.0 
481.887634 57.0 
481.912781 59.0 
481.931641 111.0 
481.96936 86.0 
482.000824 103.0 
482.02597 84.0 
482.057404 95.0 
482.10144 75.0 
482.126587 81.0 
482.164337 91.0 
482.189484 147.0 
482.220947 395.0 
482.258667 961.0 
482.271271 983.0 
482.290131 1223.0 
482.321594 1037.0 
482.346741 587.0 
482.409668 128.0 
482.422241 167.0 
482.459991 112.0 
482.485168 123.0 
482.516602 97.0 
482.541779 107.0 
482.585815 55.0 
482.598419 47.0 
482.610992 63.0 
482.629883 59.0 
482.636169 59.0 
482.648743 79.0 
482.667633 72.0 
482.686523 75.0 
482.699097 93.0 
482.71167 100.0 
482.755737 70.0 
482.768311 91.0 
482.780914 99.0 
482.812378 67.0 
482.831268 43.0 
482.856445 56.0 
482.875336 36.0 
482.900513 92.0 
482.931976 74.0 
482.957153 59.0 
482.969727 62.0 
483.007507 73.0 
483.032684 52.0 
483.045288 78.0 
483.070465 58.0 
483.089355 52.0 
483.101929 35.0 
483.127136 64.0 
483.146027 77.0 
483.183777 256.0 
483.215271 803.0 
483.271942 2413.0 
483.290833 2128.0 
483.303436 2049.0 
483.322327 1833.0 
483.3349 1663.0 
483.366394 694.0 
483.404175 268.0 
483.423065 195.0 
483.448273 157.0 
483.467163 146.0 
483.479767 129.0 
483.492371 143.0 
483.511261 124.0 
483.530151 114.0 
483.549042 114.0 
483.561646 77.0 
483.599426 90.0 
483.624634 79.0 
483.637238 111.0 
483.668732 79.0 
483.681335 89.0 
483.693909 81.0 
483.71283 77.0 
483.744324 83.0 
483.756927 58.0 
483.769531 59.0 
483.788422 53.0 
483.801025 59.0 
483.826233 64.0 
483.845123 69.0 
483.864014 50.0 
483.889221 98.0 
483.901825 91.0 
483.93335 74.0 
483.97113 87.0 
483.990051 53.0 
484.015259 45.0 
484.040466 78.0 
484.078278 129.0 
484.103485 80.0 
484.109772 80.0 
484.128693 64.0 
484.141296 116.0 
484.198029 416.0 
484.223236 246.0 
484.242157 558.0 
484.267365 636.0 
484.279968 842.0 
484.305176 709.0 
484.324097 758.0 
484.361908 308.0 
484.387115 170.0 
484.431244 101.0 
484.456482 59.0 
484.469086 75.0 
484.488007 72.0 
484.513214 89.0 
484.538452 79.0 
484.569977 82.0 
484.588867 71.0 
484.607788 85.0 
484.64563 81.0 
484.670868 76.0 
484.696075 79.0 
484.733917 75.0 
484.778076 80.0 
484.809601 53.0 
484.822205 45.0 
484.841125 65.0 
484.866364 56.0 
484.878967 50.0 
484.891602 69.0 
484.910522 67.0 
484.93573 73.0 
484.948364 66.0 
484.979889 91.0 
485.011444 38.0 
485.030365 72.0 
485.042969 74.0 
485.068207 51.0 
485.093445 95.0 
485.118683 94.0 
485.137604 54.0 
485.162842 195.0 
485.18808 802.0 
485.225952 1193.0 
485.257477 2035.0 
485.295349 1605.0 
485.320587 953.0 
485.383698 228.0 
485.446808 139.0 
485.459412 127.0 
485.490967 87.0 
485.522522 81.0 
485.566711 75.0 
485.598267 72.0 
485.617218 80.0 
485.65509 82.0 
485.680328 77.0 
485.718201 71.0 
485.749786 85.0 
485.768707 48.0 
485.793976 95.0 
485.819214 63.0 
485.831848 67.0 
485.857086 43.0 
485.888672 68.0 
485.920227 98.0 
485.926544 98.0 
485.939178 60.0 
485.951813 66.0 
485.95813 66.0 
485.989685 111.0 
486.014954 56.0 
486.040222 70.0 
486.052856 64.0 
486.071777 68.0 
486.078094 68.0 
486.097046 67.0 
486.115997 52.0 
486.1539 97.0 
486.217041 509.0 
486.229675 730.0 
486.24231 744.0 
486.254944 838.0 
486.267578 785.0 
486.292847 750.0 
486.349701 314.0 
486.374969 195.0 
486.387604 134.0 
486.412872 86.0 
486.425507 88.0 
486.444458 102.0 
486.463409 105.0 
486.494995 90.0 
486.507629 72.0 
486.532898 62.0 
486.545532 61.0 
486.564484 52.0 
486.596069 35.0 
486.608704 36.0 
486.621368 45.0 
486.64032 65.0 
486.665588 94.0 
486.703491 110.0 
486.735107 86.0 
486.754059 50.0 
486.77301 71.0 
486.798279 84.0 
486.823578 58.0 
486.829895 58.0 
486.842529 65.0 
486.861481 46.0 
486.874146 57.0 
486.899414 45.0 
486.912048 56.0 
486.937347 51.0 
486.956299 34.0 
486.968933 50.0 
486.994232 35.0 
487.038483 60.0 
487.051117 56.0 
487.070068 61.0 
487.076416 61.0 
487.08905 67.0 
487.108002 60.0 
487.126984 48.0 
487.152252 60.0 
487.183868 432.0 
487.221802 989.0 
487.253418 1193.0 
487.285034 1564.0 
487.304016 1275.0 
487.329285 892.0 
487.354584 564.0 
487.398865 232.0 
487.411499 180.0 
487.436798 101.0 
487.449432 100.0 
487.468414 104.0 
487.493713 61.0 
487.512695 91.0 
487.544312 68.0 
487.582275 85.0 
487.601227 67.0 
487.645508 87.0 
487.658173 64.0 
487.670807 79.0 
487.689789 51.0 
487.715088 82.0 
487.73407 46.0 
487.765686 82.0 
487.791016 48.0 
487.80365 82.0 
487.828949 61.0 
487.87326 109.0 
487.89856 53.0 
487.911194 51.0 
487.930176 66.0 
487.961823 66.0 
487.993469 60.0 
488.031433 84.0 
488.06308 54.0 
488.082062 63.0 
488.101044 50.0 
488.126343 50.0 
488.145325 79.0 
488.164337 68.0 
488.176971 72.0 
488.202301 125.0 
488.2276 434.0 
488.240265 604.0 
488.265594 545.0 
488.297241 697.0 
488.328888 584.0 
488.354187 356.0 
488.411163 83.0 
488.449158 77.0 
488.474487 61.0 
488.487122 68.0 
488.506134 64.0 
488.518799 56.0 
488.531464 73.0 
488.556763 87.0 
488.569427 72.0 
488.594757 66.0 
488.61377 107.0 
488.658081 72.0 
488.670746 73.0 
488.689728 59.0 
488.702393 53.0 
488.715057 50.0 
488.73407 73.0 
488.759399 56.0 
488.784729 44.0 
488.803711 68.0 
488.822723 51.0 
488.841736 48.0 
488.854401 55.0 
488.873383 76.0 
488.911377 55.0 
488.936737 50.0 
488.955719 59.0 
488.974731 85.0 
488.993713 47.0 
489.006409 65.0 
489.038055 113.0 
489.07608 94.0 
489.095062 73.0 
489.120422 57.0 
489.133087 51.0 
489.164764 70.0 
489.215454 651.0 
489.240784 1521.0 
489.259796 1802.0 
489.272461 1565.0 
489.297821 1685.0 
489.323151 1119.0 
489.354828 539.0 
489.405518 162.0 
489.462555 63.0 
489.487915 117.0 
489.50058 99.0 
489.513245 98.0 
489.52594 95.0 
489.544952 101.0 
489.582977 100.0 
489.614655 73.0 
489.627319 82.0 
489.646362 67.0 
489.659027 68.0 
489.684387 58.0 
489.7034 64.0 
489.72876 60.0 
489.741425 59.0 
489.766785 109.0 
489.792145 86.0 
489.823822 104.0 
489.842865 63.0 
489.85553 54.0 
489.868225 71.0 
489.887238 65.0 
489.90625 79.0 
489.925262 69.0 
489.969666 62.0 
490.001343 79.0 
490.014038 79.0 
490.033051 69.0 
490.071106 91.0 
490.102814 114.0 
490.134521 97.0 
490.166229 113.0 
490.210602 352.0 
490.248657 548.0 
490.274048 1098.0 
490.305756 822.0 
490.331116 570.0 
490.381866 121.0 
490.394531 103.0 
490.407227 144.0 
490.438934 79.0 
490.457977 77.0 
490.47702 73.0 
490.508728 60.0 
490.527771 55.0 
490.546783 64.0 
490.578522 64.0 
490.610229 82.0 
490.641968 98.0 
490.66098 64.0 
490.686371 96.0 
490.699066 79.0 
490.730774 52.0 
490.756165 80.0 
490.781555 66.0 
490.806946 80.0 
490.825958 40.0 
490.851349 74.0 
490.883087 75.0 
490.90213 60.0 
490.927521 56.0 
490.959229 76.0 
490.990967 61.0 
491.003662 36.0 
491.022705 79.0 
491.0354 63.0 
491.048096 106.0 
491.067139 50.0 
491.092529 114.0 
491.124268 78.0 
491.156006 77.0 
491.187744 250.0 
491.200439 442.0 
491.22583 1064.0 
491.270294 1421.0 
491.289337 1703.0 
491.352814 812.0 
491.378204 256.0 
491.397278 269.0 
491.448059 131.0 
491.460754 106.0 
491.479828 105.0 
491.498871 92.0 
491.511566 104.0 
491.536957 95.0 
491.575073 105.0 
491.587769 96.0 
491.619537 64.0 
491.657623 94.0 
491.670349 68.0 
491.683044 69.0 
491.721161 71.0 
491.746552 74.0 
491.77832 96.0 
491.791016 82.0 
491.816437 81.0 
491.848175 70.0 
491.886292 93.0 
491.899017 78.0 
491.930786 71.0 
491.968903 82.0 
491.981598 86.0 
492.007019 85.0 
492.045135 149.0 
492.076904 71.0 
492.102325 153.0 
492.134094 99.0 
492.165863 83.0 
492.184937 122.0 
492.197632 174.0 
492.248474 404.0 
492.280243 517.0 
492.312042 438.0 
492.343811 259.0 
492.381927 163.0 
492.407379 72.0 
492.426422 70.0 
492.451874 94.0 
492.477295 89.0 
492.515411 67.0 
492.540863 70.0 
492.559937 83.0 
492.57901 57.0 
492.598053 70.0 
492.623505 55.0 
492.642578 89.0 
492.674347 66.0 
492.706146 35.0 
492.718872 45.0 
492.737946 68.0 
492.763367 37.0 
492.78244 39.0 
492.820587 58.0 
492.858765 62.0 
492.884186 46.0 
492.896912 56.0 
492.903259 56.0 
492.915985 48.0 
492.954132 52.0 
492.966858 46.0 
492.99231 51.0 
493.011383 38.0 
493.030457 55.0 
493.04953 56.0 
493.068634 65.0 
493.106781 67.0 
493.119507 79.0 
493.151306 67.0 
493.208557 2027.0 
493.240356 2114.0 
493.272186 2857.0 
493.297607 2105.0 
493.335785 1236.0 
493.361237 715.0 
493.399414 272.0 
493.424866 177.0 
493.450317 173.0 
493.475769 118.0 
493.488495 109.0 
493.520294 107.0 
493.533051 103.0 
493.552124 94.0 
493.59668 126.0 
493.622131 96.0 
493.666687 65.0 
493.692139 45.0 
493.711212 61.0 
493.74942 74.0 
493.774872 77.0 
493.78125 77.0 
493.806702 94.0 
493.832153 99.0 
493.870361 80.0 
493.908539 51.0 
493.946747 88.0 
493.953094 88.0 
493.972198 54.0 
493.991302 67.0 
494.010406 61.0 
494.035858 75.0 
494.067688 45.0 
494.086792 70.0 
494.125 106.0 
494.169586 128.0 
494.207794 1091.0 
494.246002 998.0 
494.271454 1375.0 
494.290558 957.0 
494.303314 1048.0 
494.341522 633.0 
494.37973 214.0 
494.405212 119.0 
494.437042 124.0 
494.462524 77.0 
494.468903 77.0 
494.507111 63.0 
494.526215 79.0 
494.551697 65.0 
494.564423 54.0 
494.589905 61.0 
494.609039 61.0 
494.628143 49.0 
494.666351 56.0 
494.691833 80.0 
494.730072 62.0 
494.755554 71.0 
494.768311 74.0 
494.781036 70.0 
494.806519 57.0 
494.825653 73.0 
494.844757 63.0 
494.863861 67.0 
494.882996 58.0 
494.895721 52.0 
494.908478 62.0 
494.927582 47.0 
494.940338 55.0 
494.96582 60.0 
495.004059 76.0 
495.029541 71.0 
495.055054 48.0 
495.074158 57.0 
495.080536 57.0 
495.09967 83.0 
495.131531 90.0 
495.220764 2305.0 
495.265381 2315.0 
495.284515 2283.0 
495.303619 2242.0 
495.33551 1223.0 
495.412018 196.0 
495.456635 136.0 
495.475769 156.0 
495.494904 119.0 
495.50766 117.0 
495.53952 126.0 
495.565033 74.0 
495.596924 95.0 
495.616058 98.0 
495.628784 89.0 
495.641541 93.0 
495.654297 70.0 
495.686188 129.0 
495.7117 61.0 
495.730835 88.0 
495.794617 62.0 
495.800995 62.0 
495.813751 69.0 
495.839264 94.0 
495.877533 125.0 
495.909424 88.0 
495.934937 95.0 
495.954071 78.0 
495.99234 110.0 
496.011475 58.0 
496.036987 132.0 
496.056152 72.0 
496.068909 123.0 
496.094421 96.0 
496.13269 90.0 
496.164612 188.0 
496.209259 717.0 
496.228394 858.0 
496.24115 1094.0 
496.266693 1358.0 
496.298584 1242.0 
496.330505 772.0 
496.356018 471.0 
496.387939 275.0 
496.413452 138.0 
496.426239 183.0 
496.464508 98.0 
496.496429 122.0 
496.515564 95.0 
496.541107 95.0 
496.585785 82.0 
496.617706 91.0 
496.630463 90.0 
496.656006 58.0 
496.67514 73.0 
496.738983 92.0 
496.764526 78.0 
496.79007 72.0 
496.802826 73.0 
496.821991 95.0 
496.847534 87.0 
496.885834 92.0 
496.904999 59.0 
496.943298 68.0 
496.968842 45.0 
496.994385 50.0 
497.019928 72.0 
497.064636 60.0 
497.077393 83.0 
497.109344 66.0 
497.128479 39.0 
497.154022 76.0 
497.217896 918.0 
497.230682 933.0 
497.249847 1428.0 
497.281769 1902.0 
497.294556 1993.0 
497.313721 1597.0 
497.332886 1574.0 
497.390381 410.0 
497.422302 162.0 
497.447876 109.0 
497.473419 132.0 
497.492584 106.0 
497.511749 115.0 
497.524536 73.0 
497.537323 77.0 
497.569244 110.0 
497.582031 83.0 
497.601196 81.0 
497.613983 62.0 
497.639526 97.0 
497.658722 65.0 
497.684265 70.0 
497.70343 91.0 
497.722626 81.0 
497.760956 99.0 
497.78653 67.0 
497.799286 67.0 
497.812073 68.0 
497.831238 78.0 
497.844025 70.0 
497.875977 68.0 
497.888763 76.0 
497.907959 50.0 
497.933502 88.0 
497.959076 69.0 
497.997437 63.0 
498.02301 74.0 
498.029388 74.0 
498.048584 57.0 
498.093323 77.0 
498.118896 47.0 
498.163635 86.0 
498.189209 66.0 
498.208405 299.0 
498.22757 334.0 
498.26593 591.0 
498.291504 567.0 
498.323486 719.0 
498.34906 546.0 
498.387421 227.0 
498.412994 205.0 
498.444977 120.0 
498.483337 83.0 
498.508942 55.0 
498.528107 56.0 
498.560089 56.0 
498.585663 61.0 
498.617645 49.0 
498.64325 81.0 
498.656036 63.0 
498.688019 99.0 
498.713593 62.0 
498.751984 86.0 
498.790375 56.0 
498.815948 46.0 
498.85434 47.0 
498.873535 44.0 
498.879913 44.0 
498.905518 95.0 
498.943909 76.0 
498.963104 70.0 
498.975891 64.0 
499.020691 61.0 
499.039886 60.0 
499.052673 61.0 
499.078278 69.0 
499.103882 48.0 
499.135864 80.0 
499.174255 87.0 
499.219055 915.0 
499.283081 2932.0 
499.315063 2461.0 
499.423889 221.0 
499.455902 163.0 
499.468689 139.0 
499.494293 133.0 
499.539124 116.0 
499.564728 102.0 
499.577515 88.0 
499.596741 79.0 
499.635132 93.0 
499.667145 65.0 
499.69278 48.0 
499.705566 66.0 
499.731201 91.0 
499.750397 78.0 
499.769623 48.0 
499.78241 65.0 
499.795227 85.0 
499.814423 73.0 
499.859253 89.0 
499.904083 86.0 
499.936127 39.0 
499.955322 51.0 
499.974548 53.0 
499.993744 38.0 
500.032196 39.0 
500.0578 54.0 
500.070618 73.0 
500.077026 73.0 
500.102631 150.0 
500.121857 73.0 
500.141083 156.0 
500.173096 68.0 
500.185913 86.0 
500.205139 246.0 
500.230774 492.0 
500.275604 1189.0 
500.314056 1191.0 
500.339691 768.0 
500.371704 425.0 
500.410156 198.0 
500.429382 101.0 
500.455017 99.0 
500.474243 83.0 
500.499878 125.0 
500.519104 106.0 
500.53833 105.0 
500.544739 105.0 
500.563965 105.0 
500.608795 98.0 
500.63446 129.0 
500.666504 113.0 
500.679321 70.0 
500.692139 112.0 
500.730591 118.0 
500.775452 49.0 
500.794678 43.0 
500.813904 47.0 
500.826721 62.0 
500.852386 71.0 
500.897247 111.0 
500.922882 86.0 
500.942139 72.0 
500.961365 82.0 
501.006226 72.0 
501.012634 72.0 
501.025482 64.0 
501.057526 68.0 
501.070343 70.0 
501.096008 66.0 
501.128052 59.0 
501.172943 111.0 
501.192169 285.0 
501.211426 848.0 
501.281952 2387.0 
501.301208 2094.0 
501.333282 1913.0 
501.416656 307.0 
501.467957 134.0 
501.480774 131.0 
501.519287 120.0 
501.538513 95.0 
501.55777 154.0 
501.564178 154.0 
501.589844 83.0 
501.621918 135.0 
501.666809 83.0 
501.679657 76.0 
501.711731 92.0 
501.724548 87.0 
501.730988 87.0 
501.763062 57.0 
501.795135 91.0 
501.807983 89.0 
501.865723 84.0 
501.884979 62.0 
501.897797 66.0 
501.917053 82.0 
501.929901 63.0 
501.942719 57.0 
501.955566 55.0 
501.974823 95.0 
502.000488 68.0 
502.013336 66.0 
502.032562 50.0 
502.04541 59.0 
502.071075 58.0 
502.090332 59.0 
502.10318 69.0 
502.115997 75.0 
502.135254 77.0 
502.167358 197.0 
502.193024 130.0 
502.231537 669.0 
502.244385 445.0 
502.276489 800.0 
502.295746 974.0 
502.315002 878.0 
502.379211 405.0 
502.398468 127.0 
502.411316 132.0 
502.424133 108.0 
502.430573 108.0 
502.449829 77.0 
502.469086 101.0 
502.494781 85.0 
502.520447 55.0 
502.539734 81.0 
502.552551 71.0 
502.578247 121.0 
502.616791 112.0 
502.648895 73.0 
502.681 103.0 
502.706696 46.0 
502.725952 26.0 
502.758057 90.0 
502.777344 49.0 
502.803009 81.0 
502.815857 58.0 
502.847992 95.0 
502.886536 70.0 
502.925049 67.0 
502.937897 47.0 
502.957184 51.0 
502.98288 72.0 
502.995728 70.0 
503.014984 64.0 
503.053528 79.0 
503.085663 57.0 
503.10495 85.0 
503.156342 77.0 
503.22702 1024.0 
503.252716 1213.0 
503.284851 1495.0 
503.316986 987.0 
503.329834 894.0 
503.368378 234.0 
503.387665 195.0 
503.432648 156.0 
503.477631 75.0 
503.509796 65.0 
503.535492 68.0 
503.561188 90.0 
503.586914 76.0 
503.599762 111.0 
503.625488 73.0 
503.644775 57.0 
503.664062 82.0 
503.689758 54.0 
503.702606 51.0 
503.721893 74.0 
503.734772 60.0 
503.74762 79.0 
503.786194 94.0 
503.805481 113.0 
503.818329 103.0 
503.831207 75.0 
503.850494 66.0 
503.863342 71.0 
503.908356 56.0 
503.927643 39.0 
503.953369 96.0 
503.966217 92.0 
503.991943 69.0 
504.01123 71.0 
504.024109 53.0 
504.036957 47.0 
504.056244 42.0 
504.069122 39.0 
504.101257 87.0 
504.146301 68.0 
504.159149 78.0 
504.210602 294.0 
504.255615 720.0 
504.268494 687.0 
504.281372 754.0 
504.319946 648.0 
504.377838 201.0 
504.397156 166.0 
504.410004 141.0 
504.43573 86.0 
504.455048 73.0 
504.487213 85.0 
504.512939 51.0 
504.525818 59.0 
504.557983 63.0 
504.58371 52.0 
504.615906 50.0 
504.641632 43.0 
504.65451 48.0 
504.699554 60.0 
504.712402 54.0 
504.73172 49.0 
504.751038 85.0 
504.770325 58.0 
504.789642 62.0 
504.808929 39.0 
504.828247 68.0 
504.847565 50.0 
504.860443 52.0 
504.886169 76.0 
504.937653 69.0 
504.95697 56.0 
504.989166 82.0 
505.053528 93.0 
505.092163 48.0 
505.130768 67.0 
505.150085 54.0 
505.162964 57.0 
505.19516 216.0 
505.253113 1239.0 
505.291718 1568.0 
505.35611 703.0 
505.414062 208.0 
505.439819 104.0 
505.452698 113.0 
505.478485 94.0 
505.497803 72.0 
505.529999 85.0 
505.549316 84.0 
505.568634 68.0 
505.594391 81.0 
505.626587 89.0 
505.652374 61.0 
505.678131 47.0 
505.69101 60.0 
505.716766 72.0 
505.736084 93.0 
505.761871 104.0 
505.794067 102.0 
505.819855 67.0 
505.832733 61.0 
505.85849 85.0 
505.884277 53.0 
505.903595 88.0 
505.929352 73.0 
505.968018 65.0 
506.006683 83.0 
506.026001 49.0 
506.045349 55.0 
506.090454 57.0 
506.103333 45.0 
506.116211 36.0 
506.135559 31.0 
506.167786 56.0 
506.199982 273.0 
506.212891 361.0 
506.238678 523.0 
506.257996 613.0 
506.283783 574.0 
506.296661 544.0 
506.30957 526.0 
506.328888 592.0 
506.380463 192.0 
506.39978 117.0 
506.425568 80.0 
506.451355 63.0 
506.457794 63.0 
506.477142 60.0 
506.50293 46.0 
506.515839 54.0 
506.535156 98.0 
506.548065 101.0 
506.573853 77.0 
506.59964 61.0 
506.612518 59.0 
506.638306 47.0 
506.657654 25.0 
506.683441 84.0 
506.709229 78.0 
506.741486 48.0 
506.767273 69.0 
506.79306 59.0 
506.805969 52.0 
506.838196 128.0 
506.876892 89.0 
506.909149 48.0 
506.915588 48.0 
506.922028 48.0 
506.967194 33.0 
506.992981 59.0 
507.031677 57.0 
507.051025 35.0 
507.076813 66.0 
507.102631 85.0 
507.121979 56.0 
507.141327 66.0 
507.173584 106.0 
507.186493 180.0 
507.276794 3025.0 
507.309052 2685.0 
507.412292 243.0 
507.450989 106.0 
507.463898 118.0 
507.483276 115.0 
507.515533 138.0 
507.55423 82.0 
507.580048 85.0 
507.592957 85.0 
507.618774 98.0 
507.638153 55.0 
507.66394 122.0 
507.676849 71.0 
507.702667 68.0 
507.728485 71.0 
507.747864 94.0 
507.767212 54.0 
507.786591 81.0 
507.805939 87.0 
507.812408 87.0 
507.825317 74.0 
507.857574 78.0 
507.91568 73.0 
507.935059 39.0 
507.960876 66.0 
507.986694 73.0 
508.031891 89.0 
508.057709 106.0 
508.077087 71.0 
508.089996 57.0 
508.096466 57.0 
508.122284 98.0 
508.154572 66.0 
508.219147 418.0 
508.244965 820.0 
508.283722 1629.0 
508.31601 1090.0 
508.328918 1101.0 
508.354736 782.0 
508.399963 233.0 
508.432251 119.0 
508.45163 99.0 
508.471008 130.0 
508.483917 102.0 
508.503296 101.0 
508.516205 98.0 
508.529144 120.0 
508.561432 91.0 
508.600189 80.0 
508.658325 89.0 
508.697083 92.0 
508.716461 81.0 
508.729401 87.0 
508.761688 87.0 
508.774628 52.0 
508.787537 60.0 
508.800446 60.0 
508.813385 76.0 
508.858612 61.0 
508.871521 64.0 
508.88446 54.0 
508.916779 59.0 
508.929688 57.0 
508.949066 49.0 
508.981384 72.0 
509.007233 47.0 
509.039551 87.0 
509.084778 62.0 
509.097717 54.0 
509.123566 53.0 
509.142944 63.0 
509.181732 74.0 
509.21405 461.0 
509.233429 535.0 
509.278687 1199.0 
509.298065 1449.0 
509.336853 981.0 
509.38858 315.0 
509.414429 175.0 
509.459686 108.0 
509.472626 116.0 
509.492035 73.0 
509.504944 59.0 
509.524353 92.0 
509.537292 97.0 
509.556671 110.0 
509.59549 108.0 
509.608398 112.0 
509.627808 67.0 
509.640747 84.0 
509.666595 96.0 
509.692474 64.0 
509.705414 60.0 
509.718353 52.0 
509.731262 53.0 
509.744202 49.0 
509.770081 61.0 
509.78949 60.0 
509.834747 82.0 
509.867096 60.0 
509.880035 65.0 
509.892944 72.0 
509.938232 72.0 
509.964111 71.0 
509.98999 51.0 
510.028809 54.0 
510.067596 77.0 
510.093475 60.0 
510.106415 77.0 
510.132294 74.0 
510.151703 56.0 
510.177582 76.0 
510.196991 165.0 
510.2164 267.0 
510.22934 287.0 
510.261688 517.0 
510.274628 617.0 
510.300507 806.0 
510.332886 513.0 
510.365234 424.0 
510.384644 231.0 
510.429932 175.0 
510.442871 112.0 
510.462311 71.0 
510.48819 128.0 
510.520538 120.0 
510.559387 93.0 
510.585266 79.0 
510.611145 59.0 
510.630585 59.0 
510.656464 42.0 
510.682343 52.0 
510.708252 41.0 
510.721191 38.0 
510.747101 103.0 
510.76651 83.0 
510.785919 50.0 
510.805359 93.0 
510.844177 44.0 
510.863617 82.0 
510.883026 67.0 
510.915405 87.0 
510.954254 96.0 
510.993103 72.0 
511.038422 54.0 
511.070801 60.0 
511.11615 39.0 
511.129089 39.0 
511.154999 111.0 
511.219757 1555.0 
511.232697 1806.0 
511.258606 2054.0 
511.284515 2035.0 
511.316895 1510.0 
511.355774 700.0 
511.394623 204.0 
511.414062 181.0 
511.439972 132.0 
511.472351 154.0 
511.504761 115.0 
511.5177 115.0 
511.53714 85.0 
511.55658 84.0 
511.56955 83.0 
511.595459 88.0 
511.640808 69.0 
511.686157 94.0 
511.738007 78.0 
511.750946 62.0 
511.770386 81.0 
511.796326 59.0 
511.809265 59.0 
511.815765 59.0 
511.835205 59.0 
511.848145 52.0 
511.887024 52.0 
511.906464 60.0 
511.912964 60.0 
511.932404 40.0 
511.958313 73.0 
511.984253 39.0 
512.016663 78.0 
512.062012 60.0 
512.075012 62.0 
512.094421 55.0 
512.139832 95.0 
512.22406 779.0 
512.237061 843.0 
512.263 1004.0 
512.28241 1307.0 
512.32135 825.0 
512.34729 439.0 
512.386169 197.0 
512.412109 96.0 
512.418579 96.0 
512.450989 121.0 
512.489929 119.0 
512.509338 115.0 
512.535278 102.0 
512.574219 56.0 
512.600159 67.0 
512.619629 50.0 
512.626099 50.0 
512.645569 43.0 
512.677979 126.0 
512.697449 58.0 
512.716919 93.0 
512.742859 68.0 
512.762268 83.0 
512.781738 86.0 
512.801208 79.0 
512.814209 68.0 
512.840149 67.0 
512.853088 64.0 
512.885559 71.0 
512.924438 59.0 
512.937439 58.0 
512.956909 53.0 
512.969849 59.0 
512.982849 59.0 
513.008789 65.0 
513.034729 88.0 
513.054199 98.0 
513.073669 86.0 
513.099609 55.0 
513.13855 66.0 
513.16449 86.0 
513.19696 327.0 
513.235901 1158.0 
513.24884 1156.0 
513.287781 1611.0 
513.313782 1800.0 
513.352722 1001.0 
513.404602 321.0 
513.417603 273.0 
513.450073 165.0 
513.463013 122.0 
513.482483 167.0 
513.514954 87.0 
513.527954 116.0 
513.534424 116.0 
513.553894 90.0 
513.566895 105.0 
513.612305 141.0 
513.631775 89.0 
513.657776 96.0 
513.703186 143.0 
513.742188 90.0 
513.768127 53.0 
513.781128 99.0 
513.813599 69.0 
513.846069 77.0 
513.90448 154.0 
513.936951 57.0 
513.962952 97.0 
513.982422 105.0 
514.014893 95.0 
514.053833 70.0 
514.079834 113.0 
514.118774 62.0 
514.144775 67.0 
514.190247 84.0 
514.216187 280.0 
514.255188 528.0 
514.281189 773.0 
514.300659 691.0 
514.320129 730.0 
514.3526 487.0 
514.391602 164.0 
514.417603 98.0 
514.443604 100.0 
514.502075 105.0 
514.541016 82.0 
514.560547 62.0 
514.573547 100.0 
514.586487 98.0 
514.619019 61.0 
514.632019 101.0 
514.670959 74.0 
514.68396 82.0 
514.709961 73.0 
514.729492 78.0 
514.755493 112.0 
514.800964 60.0 
514.826965 55.0 
514.839966 74.0 
514.859436 54.0 
514.885437 61.0 
514.904968 58.0 
514.924438 73.0 
514.94397 52.0 
514.97644 56.0 
515.002441 60.0 
515.015442 54.0 
515.041443 55.0 
515.060974 87.0 
515.093445 65.0 
515.106445 66.0 
515.119446 130.0 
515.164978 133.0 
515.223511 954.0 
515.236511 1075.0 
515.249512 1435.0 
515.262512 1327.0 
515.281982 1693.0 
515.320984 1460.0 
515.347046 838.0 
515.425049 204.0 
515.44458 159.0 
515.477051 116.0 
515.483582 116.0 
515.516113 111.0 
515.555115 90.0 
515.594116 93.0 
515.626648 98.0 
515.65271 79.0 
515.66571 83.0 
515.685181 92.0 
515.717712 79.0 
515.756775 138.0 
515.795776 98.0 
515.815308 104.0 
515.828308 95.0 
515.854309 49.0 
515.87384 77.0 
515.899902 65.0 
515.912903 43.0 
515.938904 54.0 
515.971436 61.0 
516.003967 47.0 
516.023499 46.0 
516.036499 56.0 
516.062561 46.0 
516.082092 74.0 
516.127625 89.0 
516.160156 69.0 
516.173157 55.0 
516.192688 87.0 
516.199219 87.0 
516.22522 407.0 
516.244751 583.0 
516.283813 1083.0 
516.316345 974.0 
516.348877 567.0 
516.387939 276.0 
516.407471 174.0 
516.427002 128.0 
516.453003 107.0 
516.472534 124.0 
516.505127 113.0 
516.537659 82.0 
516.544189 82.0 
516.57019 84.0 
516.609253 62.0 
516.635315 55.0 
516.654846 58.0 
516.667847 54.0 
516.687378 52.0 
516.732971 61.0 
516.752502 55.0 
516.765503 53.0 
516.791565 56.0 
516.804626 47.0 
516.824158 39.0 
516.843689 42.0 
516.869751 54.0 
516.895752 62.0 
516.908813 66.0 
516.934814 63.0 
516.980408 91.0 
517.0 64.0 
517.013 56.0 
517.045532 81.0 
517.104187 87.0 
517.182373 105.0 
517.254028 1499.0 
517.28656 2035.0 
517.306091 1867.0 
517.332153 1632.0 
517.397339 434.0 
517.442932 263.0 
517.462463 129.0 
517.482056 170.0 
517.514587 88.0 
517.553711 95.0 
517.573242 84.0 
517.592834 79.0 
517.612366 69.0 
517.631897 36.0 
517.657959 68.0 
517.684021 86.0 
517.710144 87.0 
517.716614 87.0 
517.729675 88.0 
517.749207 73.0 
517.768799 114.0 
517.794861 70.0 
517.833984 62.0 
517.853516 81.0 
517.879578 40.0 
517.899109 39.0 
517.925232 55.0 
517.944763 45.0 
517.957825 33.0 
517.983887 79.0 
517.996948 87.0 
518.009949 83.0 
518.029541 59.0 
518.042542 75.0 
518.068665 68.0 
518.088196 60.0 
518.101257 72.0 
518.114258 54.0 
518.140381 82.0 
518.166443 101.0 
518.179504 104.0 
518.225098 232.0 
518.251221 476.0 
518.270752 739.0 
518.296875 805.0 
518.316406 654.0 
518.335999 828.0 
518.381653 325.0 
518.401184 169.0 
518.427246 160.0 
518.4599 91.0 
518.479431 89.0 
518.492493 97.0 
518.518616 101.0 
518.544678 76.0 
518.557739 126.0 
518.583801 66.0 
518.603394 78.0 
518.622925 69.0 
518.649048 62.0 
518.662109 70.0 
518.681641 56.0 
518.701233 86.0 
518.727295 40.0 
518.753418 74.0 
518.766479 74.0 
518.799072 44.0 
518.812134 49.0 
518.844788 56.0 
518.87085 55.0 
518.883911 73.0 
518.896973 72.0 
518.910034 91.0 
518.923035 83.0 
518.949158 61.0 
518.981812 41.0 
519.007874 70.0 
519.040527 60.0 
519.053589 53.0 
519.066589 44.0 
519.086182 40.0 
519.099243 49.0 
519.112305 52.0 
519.151428 106.0 
519.190613 164.0 
519.229797 894.0 
519.268921 1259.0 
519.288513 1250.0 
519.308105 1788.0 
519.340759 1186.0 
519.373352 763.0 
519.419067 186.0 
519.458252 110.0 
519.477844 119.0 
519.510498 81.0 
519.543091 89.0 
519.569214 54.0 
519.588806 68.0 
519.62146 50.0 
519.634521 54.0 
519.647583 79.0 
519.686768 84.0 
519.70636 58.0 
519.725952 64.0 
519.739014 63.0 
519.765137 103.0 
519.810852 74.0 
519.823914 66.0 
519.843506 60.0 
519.863098 54.0 
519.902283 60.0 
519.928406 67.0 
519.941467 68.0 
519.987183 56.0 
520.000244 84.0 
520.026367 61.0 
520.045959 77.0 
520.078613 71.0 
520.091675 76.0 
520.111267 50.0 
520.124329 66.0 
520.156982 65.0 
520.170105 83.0 
520.183167 117.0 
520.202759 111.0 
520.222351 346.0 
520.261536 602.0 
520.30072 654.0 
520.339966 535.0 
520.366089 284.0 
520.398743 170.0 
520.424866 74.0 
520.457581 88.0 
520.496765 76.0 
520.516357 96.0 
520.53595 87.0 
520.581726 66.0 
520.601318 39.0 
520.61438 52.0 
520.640564 21.0 
520.660156 32.0 
520.673218 33.0 
520.679749 33.0 
520.699341 68.0 
520.725525 115.0 
520.745117 77.0 
520.751648 77.0 
520.764709 103.0 
520.797424 78.0 
520.830078 73.0 
520.869324 68.0 
520.902039 117.0 
520.921631 85.0 
520.941223 58.0 
520.967407 62.0 
520.980469 72.0 
521.013123 72.0 
521.039307 52.0 
521.072021 52.0 
521.098145 45.0 
521.130859 79.0 
521.143921 80.0 
521.170105 62.0 
521.189697 78.0 
521.242004 1145.0 
521.274719 1133.0 
521.294312 990.0 
521.320496 1145.0 
521.359741 657.0 
521.398987 267.0 
521.42511 184.0 
521.451294 159.0 
521.484009 138.0 
521.49707 108.0 
521.529785 64.0 
521.549438 84.0 
521.575562 61.0 
521.608276 65.0 
521.62793 59.0 
521.654053 62.0 
521.667175 65.0 
521.69989 70.0 
521.732605 60.0 
521.771851 101.0 
521.804565 76.0 
521.83728 40.0 
521.863464 51.0 
521.883057 51.0 
521.896179 42.0 
521.935425 37.0 
521.941956 37.0 
521.961609 54.0 
521.97467 37.0 
522.007446 50.0 
522.020508 48.0 
522.046692 48.0 
522.066345 60.0 
522.112122 46.0 
522.131775 49.0 
522.157959 41.0 
522.177612 59.0 
522.197205 62.0 
522.216858 261.0 
522.243042 463.0 
522.275757 529.0 
522.288879 578.0 
522.301941 551.0 
522.321594 575.0 
522.354309 258.0 
522.393616 196.0 
522.4198 96.0 
522.432861 83.0 
522.445984 72.0 
522.472168 107.0 
522.504883 92.0 
522.544189 125.0 
522.576904 78.0 
522.603149 62.0 
522.642395 66.0 
522.668579 63.0 
522.694824 49.0 
522.707886 46.0 
522.73407 65.0 
522.786499 60.0 
522.812683 39.0 
522.825806 46.0 
522.845459 31.0 
522.865051 47.0 
522.884705 84.0 
522.930603 90.0 
522.956787 81.0 
523.002625 74.0 
523.022278 40.0 
523.048462 70.0 
523.068115 75.0 
523.081238 73.0 
523.120544 59.0 
523.146729 91.0 
523.159851 90.0 
523.218811 484.0 
523.277771 1278.0 
523.297424 1692.0 
523.323669 1446.0 
523.343323 1394.0 
523.369507 890.0 
523.408875 336.0 
523.441589 163.0 
523.494019 121.0 
523.533386 88.0 
523.55304 89.0 
523.579224 66.0 
523.598877 84.0 
523.638245 71.0 
523.664429 58.0 
523.677551 54.0 
523.710327 75.0 
523.72345 71.0 
523.743103 54.0 
523.769348 75.0 
523.795532 89.0 
523.815247 40.0 
523.8349 108.0 
523.854553 68.0 
523.861084 68.0 
523.880798 26.0 
523.893921 59.0 
523.920105 25.0 
523.952881 75.0 
523.979126 67.0 
523.998779 62.0 
524.018494 63.0 
524.038147 67.0 
524.064392 51.0 
524.077454 65.0 
524.103699 45.0 
524.136475 55.0 
524.195496 253.0 
524.241455 389.0 
524.254517 515.0 
524.293884 622.0 
524.307007 643.0 
524.320129 598.0 
524.339783 474.0 
524.352905 432.0 
524.37915 300.0 
524.398865 198.0 
524.425049 158.0 
524.464417 96.0 
524.484131 50.0 
524.503784 58.0 
524.516907 59.0 
524.549683 66.0 
524.562805 57.0 
524.575928 69.0 
524.58905 55.0 
524.608765 54.0 
524.628418 54.0 
524.641541 62.0 
524.667786 57.0 
524.700623 67.0 
524.720276 41.0 
524.746521 52.0 
524.779358 82.0 
524.805603 66.0 
524.825256 52.0 
524.844971 169.0 
524.877747 67.0 
524.917175 93.0 
524.936829 43.0 
524.956543 44.0 
524.976196 31.0 
524.995911 39.0 
525.002441 39.0 
525.015625 36.0 
525.04187 115.0 
525.081238 74.0 
525.107483 70.0 
525.127197 73.0 
525.153442 54.0 
525.166565 48.0 
525.186279 38.0 
525.245361 1652.0 
525.29126 4490.0 
525.337219 3188.0 
525.389771 656.0 
525.409485 494.0 
525.43573 280.0 
525.448853 260.0 
525.481689 179.0 
525.501404 181.0 
525.547363 142.0 
525.593323 83.0 
525.62616 107.0 
525.672119 124.0 
525.704956 83.0 
525.718079 88.0 
525.744385 105.0 
525.77063 51.0 
525.783752 53.0 
525.796875 60.0 
525.810059 73.0 
525.816589 73.0 
525.836304 55.0 
525.856018 90.0 
525.882263 76.0 
525.921692 56.0 
525.941406 85.0 
525.954529 73.0 
525.980835 74.0 
526.000549 74.0 
526.026794 84.0 
526.053101 60.0 
526.072815 103.0 
526.118774 81.0 
526.138489 75.0 
526.164795 77.0 
526.177917 106.0 
526.210754 137.0 
526.237061 692.0 
526.289612 1661.0 
526.309326 1438.0 
526.329041 1061.0 
526.348755 1218.0 
526.361877 1100.0 
526.440796 129.0 
526.467041 91.0 
526.480225 104.0 
526.526184 102.0 
526.559082 110.0 
526.585388 78.0 
526.618225 100.0 
526.657654 140.0 
526.690552 131.0 
526.72998 81.0 
526.782593 110.0 
526.828613 86.0 
526.874634 46.0 
526.894348 68.0 
526.927246 42.0 
526.94696 48.0 
526.973267 46.0 
526.986389 59.0 
527.012695 45.0 
527.039001 62.0 
527.052124 49.0 
527.07843 44.0 
527.104736 62.0 
527.11792 59.0 
527.150818 87.0 
527.16394 82.0 
527.183655 80.0 
527.209961 406.0 
527.242859 956.0 
527.262573 1256.0 
527.282349 1847.0 
527.302063 1794.0 
527.321777 1638.0 
527.341553 1214.0 
527.380981 773.0 
527.440186 143.0 
527.459961 118.0 
527.492798 124.0 
527.505981 118.0 
527.532288 75.0 
527.552063 80.0 
527.571777 114.0 
527.617859 106.0 
527.637573 64.0 
527.663879 87.0 
527.683655 59.0 
527.703369 57.0 
527.736267 54.0 
527.755981 76.0 
527.782349 63.0 
527.795471 69.0 
527.821838 58.0 
527.834961 52.0 
527.861267 81.0 
527.881042 90.0 
527.900757 109.0 
527.927124 54.0 
527.946838 68.0 
527.973206 78.0 
528.012695 84.0 
528.039001 63.0 
528.058716 57.0 
528.071899 92.0 
528.085083 84.0 
528.131165 53.0 
528.157471 55.0 
528.170654 102.0 
528.223328 272.0 
528.262817 417.0 
528.282532 466.0 
528.308899 762.0 
528.328674 582.0 
528.348389 509.0 
528.374756 357.0 
528.427429 124.0 
528.480103 79.0 
528.493225 74.0 
528.499817 74.0 
528.526184 58.0 
528.539368 72.0 
528.559082 69.0 
528.611816 70.0 
528.638123 56.0 
528.677673 108.0 
528.697388 71.0 
528.710571 78.0 
528.736938 85.0 
528.756653 64.0 
528.769836 65.0 
528.809387 79.0 
528.829163 49.0 
528.862061 48.0 
528.875244 46.0 
528.89502 52.0 
528.908203 45.0 
528.934509 101.0 
528.967468 67.0 
528.980652 71.0 
528.993835 70.0 
529.000427 70.0 
529.033325 56.0 
529.046509 52.0 
529.066284 95.0 
529.08606 73.0 
529.112427 115.0 
529.158508 123.0 
529.198059 318.0 
529.224426 1594.0 
529.257385 1802.0 
529.296936 2861.0 
529.336426 1452.0 
529.356201 862.0 
529.402344 257.0 
529.415527 258.0 
529.435303 182.0 
529.448486 207.0 
529.468262 117.0 
529.488037 133.0 
529.53418 95.0 
529.547363 111.0 
529.57373 65.0 
529.600098 101.0 
529.619873 65.0 
529.64624 110.0 
529.659424 81.0 
529.679199 90.0 
529.692383 89.0 
529.71875 66.0 
529.731934 71.0 
529.771484 68.0 
529.784668 64.0 
529.817627 53.0 
529.837402 42.0 
529.857178 48.0 
529.89679 82.0 
529.923157 57.0 
529.93634 75.0 
529.969299 78.0 
530.002258 85.0 
530.035217 73.0 
530.081421 108.0 
530.11438 73.0 
530.153931 65.0 
530.193542 163.0 
530.233093 699.0 
530.252869 747.0 
530.272644 844.0 
530.285889 942.0 
530.318848 681.0 
530.345215 427.0 
530.358398 422.0 
530.391418 280.0 
530.424377 213.0 
530.444153 122.0 
530.490356 138.0 
530.523315 60.0 
530.53656 69.0 
530.549744 63.0 
530.589294 79.0 
530.609131 79.0 
530.635498 92.0 
530.648682 80.0 
530.668518 90.0 
530.714661 100.0 
530.767456 55.0 
530.774109 55.0 
530.807068 63.0 
530.820251 54.0 
530.866455 47.0 
530.879639 48.0 
530.899475 42.0 
530.945679 79.0 
530.972046 47.0 
531.005066 93.0 
531.031494 68.0 
531.044678 57.0 
531.057861 54.0 
531.071106 49.0 
531.08429 45.0 
531.097473 44.0 
531.130493 52.0 
531.163513 55.0 
531.18988 96.0 
531.242737 1178.0 
531.25592 990.0 
531.28894 1142.0 
531.308716 1282.0 
531.348328 736.0 
531.361572 693.0 
531.420959 149.0 
531.434204 139.0 
531.460632 115.0 
531.493591 80.0 
531.526611 73.0 
531.539856 73.0 
531.559631 59.0 
531.572876 107.0 
531.632324 71.0 
531.645508 92.0 
531.671936 128.0 
531.704956 97.0 
531.744568 100.0 
531.764404 57.0 
531.784241 57.0 
531.804016 56.0 
531.823853 36.0 
531.850281 107.0 
531.876709 66.0 
531.889893 85.0 
531.916321 94.0 
531.936157 61.0 
531.955994 54.0 
531.969177 57.0 
531.989014 67.0 
532.015442 51.0 
532.04187 75.0 
532.068298 35.0 
532.088135 45.0 
532.101318 53.0 
532.134338 62.0 
532.160767 30.0 
532.180603 55.0 
532.207031 58.0 
532.246704 433.0 
532.266541 525.0 
532.306152 707.0 
532.332581 428.0 
532.378845 249.0 
532.39209 235.0 
532.42511 97.0 
532.458191 89.0 
532.484619 72.0 
532.497864 82.0 
532.524292 48.0 
532.544128 85.0 
532.577148 51.0 
532.590393 54.0 
532.610229 58.0 
532.64325 69.0 
532.682922 51.0 
532.729187 80.0 
532.755676 56.0 
532.775452 78.0 
532.808533 81.0 
532.834961 38.0 
532.848206 47.0 
532.881287 39.0 
532.901123 39.0 
532.934143 59.0 
532.967224 61.0 
533.000305 60.0 
533.01355 64.0 
533.039978 57.0 
533.079651 64.0 
533.092896 81.0 
533.099487 81.0 
533.112732 94.0 
533.152405 81.0 
533.185486 141.0 
533.225159 571.0 
533.25824 1249.0 
533.291321 1506.0 
533.311157 1480.0 
533.324402 1567.0 
533.370667 839.0 
533.4104 319.0 
533.443481 147.0 
533.483154 100.0 
533.509583 124.0 
533.542664 87.0 
533.555908 74.0 
533.569153 71.0 
533.595642 112.0 
533.602234 112.0 
533.615479 88.0 
533.628723 66.0 
533.661804 94.0 
533.694885 54.0 
533.727966 102.0 
533.761047 96.0 
533.800781 90.0 
533.820618 50.0 
533.860291 84.0 
533.919861 104.0 
533.959595 58.0 
533.986084 72.0 
533.992676 72.0 
534.019165 33.0 
534.045654 56.0 
534.072144 57.0 
534.085388 75.0 
534.111816 69.0 
534.118469 69.0 
534.158203 57.0 
534.171448 44.0 
534.184631 45.0 
534.217773 161.0 
534.244263 449.0 
534.257507 458.0 
534.283997 672.0 
534.310425 666.0 
534.323669 557.0 
534.343567 365.0 
534.370056 283.0 
534.396545 146.0 
534.416382 162.0 
534.436279 75.0 
534.456116 79.0 
534.46936 72.0 
534.482605 75.0 
534.515747 80.0 
534.548828 92.0 
534.555481 92.0 
534.588562 65.0 
534.608459 88.0 
534.648193 37.0 
534.674683 37.0 
534.694519 27.0 
534.707764 38.0 
534.721008 77.0 
534.747559 41.0 
534.767395 69.0 
534.78064 67.0 
534.793884 72.0 
534.807129 79.0 
534.840271 57.0 
534.846863 57.0 
534.853516 57.0 
534.880005 53.0 
534.913147 78.0 
534.946289 92.0 
534.966125 46.0 
534.992615 70.0 
535.005859 51.0 
535.03241 82.0 
535.058899 46.0 
535.072144 55.0 
535.092041 48.0 
535.111877 65.0 
535.14502 35.0 
535.164917 60.0 
535.184814 154.0 
535.270935 2422.0 
535.290833 2082.0 
535.317322 2318.0 
535.337219 1854.0 
535.416748 277.0 
535.463135 187.0 
535.50293 120.0 
535.516174 104.0 
535.529419 101.0 
535.542664 98.0 
535.562561 90.0 
535.575806 72.0 
535.602356 80.0 
535.622192 84.0 
535.635498 90.0 
535.695129 105.0 
535.734924 55.0 
535.748169 55.0 
535.761414 63.0 
535.794617 46.0 
535.847656 79.0 
535.874146 71.0 
535.927185 58.0 
535.96698 77.0 
535.99353 51.0 
536.006775 58.0 
536.013428 58.0 
536.033325 47.0 
536.04657 56.0 
536.079712 77.0 
536.106262 39.0 
536.132812 99.0 
536.172607 86.0 
536.212402 142.0 
536.278687 1182.0 
536.305237 1056.0 
536.318481 1070.0 
536.345032 835.0 
536.431274 110.0 
536.451172 112.0 
536.490967 85.0 
536.504272 70.0 
536.52417 92.0 
536.570618 73.0 
536.577271 73.0 
536.610413 140.0 
536.636963 127.0 
536.670166 118.0 
536.703308 64.0 
536.723206 61.0 
536.749756 52.0 
536.776306 39.0 
536.802856 66.0 
536.829407 42.0 
536.849304 63.0 
536.869202 54.0 
536.91571 53.0 
536.922302 53.0 
536.955505 76.0 
536.982056 66.0 
537.015259 54.0 
537.035156 54.0 
537.048462 41.0 
537.075012 65.0 
537.114807 51.0 
537.161255 118.0 
537.187866 50.0 
537.227661 584.0 
537.267517 1121.0 
537.30072 1817.0 
537.327271 891.0 
537.340515 894.0 
537.360474 770.0 
537.387024 365.0 
537.406921 221.0 
537.420227 218.0 
537.460083 162.0 
537.486633 103.0 
537.513184 117.0 
537.559692 65.0 
537.57959 77.0 
537.592896 52.0 
537.60614 62.0 
537.632751 61.0 
537.645996 79.0 
537.679199 116.0 
537.712463 144.0 
537.752258 56.0 
537.772217 46.0 
537.785522 40.0 
537.812073 60.0 
537.845276 62.0 
537.871826 71.0 
537.891785 52.0 
537.90509 54.0 
537.931641 75.0 
537.951599 85.0 
537.991455 48.0 
538.024658 62.0 
538.051208 43.0 
538.091125 37.0 
538.10437 41.0 
538.130981 34.0 
538.137634 34.0 
538.157532 46.0 
538.170837 41.0 
538.190796 56.0 
538.204041 73.0 
538.223999 202.0 
538.237305 167.0 
538.270508 493.0 
538.283813 608.0 
538.317017 460.0 
538.350281 483.0 
538.370178 170.0 
538.390137 211.0 
538.443298 89.0 
538.483215 77.0 
538.523071 89.0 
538.549683 131.0 
538.589539 89.0 
538.596191 89.0 
538.609497 84.0 
538.636108 52.0 
538.662659 46.0 
538.695923 43.0 
538.722473 48.0 
538.755737 39.0 
538.775696 50.0 
538.795654 63.0 
538.848816 62.0 
538.875427 69.0 
538.895386 76.0 
538.921997 105.0 
538.941895 54.0 
538.9552 56.0 
538.968506 80.0 
539.015076 61.0 
539.04834 131.0 
539.07489 117.0 
539.108154 176.0 
539.134766 89.0 
539.148071 75.0 
539.161377 56.0 
539.181335 40.0 
539.194641 45.0 
539.247864 444.0 
539.274475 663.0 
539.287781 774.0 
539.314392 909.0 
539.33429 693.0 
539.347595 578.0 
539.374207 467.0 
539.420776 202.0 
539.454041 79.0 
539.467346 98.0 
539.493958 49.0 
539.513916 63.0 
539.540527 93.0 
539.580444 81.0 
539.61377 42.0 
539.620422 42.0 
539.640381 35.0 
539.660339 57.0 
539.680298 43.0 
539.706909 45.0 
539.733521 64.0 
539.753479 64.0 
539.773438 97.0 
539.800049 101.0 
539.84668 51.0 
539.873291 56.0 
539.899902 58.0 
539.939819 45.0 
539.959778 39.0 
539.973083 46.0 
539.98645 31.0 
540.019714 52.0 
540.059631 49.0 
540.072937 48.0 
540.119568 56.0 
540.159485 58.0 
540.186096 55.0 
540.212769 82.0 
540.259338 445.0 
540.286011 422.0 
540.312622 337.0 
540.332581 628.0 
540.365906 256.0 
540.405823 135.0 
540.419128 132.0 
540.472412 77.0 
540.492432 52.0 
540.519043 48.0 
540.539001 108.0 
540.572327 84.0 
540.612305 79.0 
540.638916 59.0 
540.652222 45.0 
540.665527 54.0 
540.6922 52.0 
540.705505 59.0 
540.732178 53.0 
540.752136 63.0 
540.792114 60.0 
540.812073 36.0 
540.832092 31.0 
540.852051 46.0 
540.878723 68.0 
540.918701 65.0 
540.93866 35.0 
540.951965 35.0 
540.971985 47.0 
540.998596 60.0 
541.018616 44.0 
541.031921 53.0 
541.065247 56.0 
541.098572 48.0 
541.11853 58.0 
541.13855 44.0 
541.158508 48.0 
541.198486 122.0 
541.245178 721.0 
541.265137 800.0 
541.285156 1211.0 
541.305115 1231.0 
541.318481 1232.0 
541.345093 1167.0 
541.378418 744.0 
541.445068 188.0 
541.465088 152.0 
541.49176 135.0 
541.518433 92.0 
541.545044 102.0 
541.571716 92.0 
541.605042 96.0 
541.638367 90.0 
541.671753 47.0 
541.705078 74.0 
541.718384 74.0 
541.738403 55.0 
541.745056 55.0 
541.758423 94.0 
541.785034 58.0 
541.811707 75.0 
541.831726 56.0 
541.851746 78.0 
541.878418 85.0 
541.911743 101.0 
541.945068 96.0 
541.965088 62.0 
541.978455 67.0 
541.998413 59.0 
542.018433 41.0 
542.038452 64.0 
542.051758 49.0 
542.105103 65.0 
542.125122 51.0 
542.145142 55.0 
542.165161 34.0 
542.191833 95.0 
542.2052 71.0 
542.225159 86.0 
542.251892 362.0 
542.278564 477.0 
542.31189 641.0 
542.325256 692.0 
542.345276 604.0 
542.371948 544.0 
542.451965 96.0 
542.465332 110.0 
542.492004 67.0 
542.505371 83.0 
542.518677 80.0 
542.56543 75.0 
542.592102 77.0 
542.618774 50.0 
542.638794 50.0 
542.665466 97.0 
542.685486 56.0 
542.705505 76.0 
542.732239 36.0 
542.778931 76.0 
542.825623 70.0 
542.852356 63.0 
542.872375 63.0 
542.905701 38.0 
542.932434 70.0 
542.94574 80.0 
542.979126 49.0 
542.992493 49.0 
543.019165 76.0 
543.065918 78.0 
543.099304 77.0 
543.112671 67.0 
543.13269 39.0 
543.145996 40.0 
543.166016 51.0 
543.186096 38.0 
543.246155 780.0 
543.299561 3571.0 
543.346313 2977.0 
543.413086 585.0 
543.453125 216.0 
543.473145 148.0 
543.513245 182.0 
543.546631 129.0 
543.58667 129.0 
543.62677 74.0 
543.653503 93.0 
543.673523 62.0 
543.693542 107.0 
543.720276 147.0 
543.773682 132.0 
543.800415 92.0 
543.820435 112.0 
543.833801 92.0 
543.853882 75.0 
543.887268 76.0 
543.907288 48.0 
543.934021 72.0 
543.947388 55.0 
543.987488 116.0 
544.000793 97.0 
544.034241 76.0 
544.05426 68.0 
544.074341 90.0 
544.101013 47.0 
544.11438 53.0 
544.13446 93.0 
544.161194 76.0 
544.207947 136.0 
544.241333 377.0 
544.301514 1421.0 
544.3349 1238.0 
544.35498 1178.0 
544.395081 339.0 
544.461914 97.0 
544.481934 105.0 
544.515381 127.0 
544.5354 90.0 
544.548767 81.0 
544.562134 78.0 
544.582214 84.0 
544.615601 75.0 
544.642395 56.0 
544.662415 83.0 
544.689148 70.0 
544.715881 75.0 
544.735962 61.0 
544.756042 61.0 
544.776062 70.0 
544.822876 91.0 
544.856323 100.0 
544.896423 179.0 
544.929871 100.0 
544.956604 96.0 
544.969971 143.0 
545.003418 82.0 
545.030151 78.0 
545.043518 75.0 
545.056885 74.0 
545.083679 74.0 
545.097046 67.0 
545.110413 50.0 
545.123779 49.0 
545.157227 61.0 
545.18396 51.0 
545.217407 441.0 
545.237488 532.0 
545.264221 1460.0 
545.311035 1816.0 
545.351196 1090.0 
545.371277 876.0 
545.39801 506.0 
545.431458 212.0 
545.451538 200.0 
545.478271 145.0 
545.498352 86.0 
545.511719 107.0 
545.525085 108.0 
545.531799 108.0 
545.57196 103.0 
545.585327 99.0 
545.598694 109.0 
545.625488 91.0 
545.645569 69.0 
545.665588 53.0 
545.679016 58.0 
545.692383 82.0 
545.72583 50.0 
545.745911 73.0 
545.759277 86.0 
545.772644 86.0 
545.792725 70.0 
545.819519 58.0 
545.832886 78.0 
545.879761 79.0 
545.919922 70.0 
545.946655 70.0 
545.99353 86.0 
546.006897 79.0 
546.020264 57.0 
546.040344 81.0 
546.073853 87.0 
546.100586 66.0 
546.114014 91.0 
546.140747 57.0 
546.180969 70.0 
546.234497 359.0 
546.261292 773.0 
546.301453 1249.0 
546.341614 735.0 
546.361694 446.0 
546.388489 284.0 
546.415283 135.0 
546.435364 164.0 
546.475525 102.0 
546.495605 72.0 
546.5224 83.0 
546.575989 103.0 
546.61615 75.0 
546.63623 44.0 
546.656311 42.0 
546.696533 60.0 
546.736694 74.0 
546.763489 50.0 
546.783569 45.0 
546.790283 45.0 
546.810364 47.0 
546.823792 50.0 
546.837158 42.0 
546.870667 56.0 
546.890747 53.0 
546.910828 50.0 
546.930969 67.0 
546.957764 43.0 
546.977844 53.0 
546.991211 56.0 
547.018005 63.0 
547.058228 53.0 
547.085022 72.0 
547.145325 44.0 
547.158752 53.0 
547.1922 73.0 
547.225708 634.0 
547.252502 1270.0 
547.312866 1809.0 
547.353027 788.0 
547.366455 971.0 
547.39325 579.0 
547.413391 252.0 
547.440186 132.0 
547.460266 166.0 
547.487061 106.0 
547.513916 78.0 
547.533997 84.0 
547.547424 90.0 
547.567505 79.0 
547.580933 73.0 
547.601013 51.0 
547.627808 37.0 
547.654663 71.0 
547.694885 66.0 
547.714966 48.0 
547.728394 40.0 
547.741821 109.0 
547.768616 54.0 
547.788696 95.0 
547.808838 47.0 
547.835632 54.0 
547.842346 54.0 
547.855774 76.0 
547.882568 86.0 
547.922791 109.0 
547.949646 124.0 
547.97644 88.0 
547.989868 96.0 
548.023376 77.0 
548.063599 82.0 
548.090454 83.0 
548.123962 71.0 
548.150818 76.0 
548.164185 77.0 
548.19104 71.0 
548.258118 754.0 
548.29834 751.0 
548.325195 684.0 
548.345276 486.0 
548.372131 356.0 
548.398987 236.0 
548.425781 120.0 
548.445923 89.0 
548.472717 116.0 
548.486145 89.0 
548.513 118.0 
548.533142 76.0 
548.553223 88.0 
548.573364 66.0 
548.627014 60.0 
548.647156 78.0 
548.65387 78.0 
548.674011 53.0 
548.694153 102.0 
548.734375 63.0 
548.741089 63.0 
548.767944 68.0 
548.788086 62.0 
548.814941 53.0 
548.835022 67.0 
548.855164 58.0 
548.875305 88.0 
548.895447 59.0 
548.908875 44.0 
548.949158 91.0 
549.016235 69.0 
549.029663 69.0 
549.056519 54.0 
549.07666 125.0 
549.103516 53.0 
549.123657 107.0 
549.157166 64.0 
549.177307 53.0 
549.204163 96.0 
549.237732 254.0 
549.271301 770.0 
549.318298 1461.0 
549.331726 1430.0 
549.358582 1279.0 
549.392151 766.0 
549.432434 273.0 
549.486145 123.0 
549.506287 114.0 
549.526428 93.0 
549.553284 115.0 
549.580139 102.0 
549.593567 107.0 
549.613708 87.0 
549.647278 68.0 
549.66748 39.0 
549.70105 76.0 
549.714478 82.0 
549.761475 91.0 
549.781616 54.0 
549.808472 74.0 
549.828613 74.0 
549.862244 94.0 
549.895813 51.0 
549.902527 51.0 
549.936096 86.0 
549.962952 50.0 
550.003296 71.0 
550.023438 61.0 
550.036865 49.0 
550.050293 50.0 
550.070435 45.0 
550.083862 55.0 
550.104065 53.0 
550.110779 53.0 
550.13092 58.0 
550.144348 51.0 
550.171204 52.0 
550.191406 78.0 
550.204834 69.0 
550.231689 177.0 
550.251831 232.0 
550.26532 243.0 
550.292175 415.0 
550.312317 591.0 
550.332458 694.0 
550.345947 508.0 
550.372803 583.0 
550.406433 297.0 
550.433289 137.0 
550.460144 146.0 
550.487061 71.0 
550.500488 65.0 
550.527344 69.0 
550.560974 104.0 
550.581116 60.0 
550.601318 72.0 
550.62146 61.0 
550.641602 146.0 
550.681946 80.0 
550.72229 107.0 
550.742432 64.0 
550.762634 74.0 
550.78949 64.0 
550.809692 46.0 
550.829834 66.0 
550.85675 90.0 
550.876892 69.0 
550.897095 60.0 
550.950867 66.0 
550.984497 37.0 
551.018066 58.0 
551.031555 53.0 
551.065186 66.0 
551.078613 47.0 
551.125671 96.0 
551.166016 72.0 
551.253479 792.0 
551.280334 1079.0 
551.300537 1312.0 
551.361084 822.0 
551.374512 868.0 
551.428345 295.0 
551.4552 162.0 
551.495605 114.0 
551.515747 127.0 
551.556152 99.0 
551.56958 63.0 
551.583008 82.0 
551.596497 90.0 
551.630127 77.0 
551.65033 53.0 
551.677246 50.0 
551.690674 53.0 
551.704102 46.0 
551.737793 66.0 
551.771423 48.0 
551.791626 48.0 
551.83197 89.0 
551.852173 68.0 
551.872314 56.0 
551.892517 95.0 
551.926147 71.0 
551.953064 111.0 
551.986755 82.0 
552.006958 64.0 
552.0271 55.0 
552.054016 66.0 
552.074219 50.0 
552.128052 246.0 
552.161743 126.0 
552.175171 111.0 
552.208862 190.0 
552.255981 764.0 
552.282898 739.0 
552.303101 1176.0 
552.343445 667.0 
552.363647 561.0 
552.377136 568.0 
552.417542 171.0 
552.437744 171.0 
552.478088 116.0 
552.505066 98.0 
552.531982 69.0 
552.552185 90.0 
552.565613 72.0 
552.585815 53.0 
552.619507 75.0 
552.639709 82.0 
552.653198 70.0 
552.673401 72.0 
552.700317 102.0 
552.740723 40.0 
552.760925 52.0 
552.787842 67.0 
552.801331 69.0 
552.814819 78.0 
552.861938 66.0 
552.882141 81.0 
552.902344 82.0 
552.922546 45.0 
552.936035 43.0 
552.949524 44.0 
552.962952 47.0 
552.996643 28.0 
553.023621 70.0 
553.057251 57.0 
553.090942 80.0 
553.104431 91.0 
553.151611 77.0 
553.171814 53.0 
553.192017 58.0 
553.212219 119.0 
553.293091 2888.0 
553.306519 2292.0 
553.326782 2465.0 
553.373901 1058.0 
553.407593 402.0 
553.421082 354.0 
553.441284 232.0 
553.48175 171.0 
553.508667 142.0 
553.542358 96.0 
553.569336 99.0 
553.609802 61.0 
553.630005 94.0 
553.67041 70.0 
553.690674 68.0 
553.710876 64.0 
553.737854 73.0 
553.751343 64.0 
553.771545 91.0 
553.798523 60.0 
553.812012 55.0 
553.825439 78.0 
553.838928 67.0 
553.852417 55.0 
553.872681 76.0 
553.899597 129.0 
553.940063 79.0 
553.967041 117.0 
553.987244 81.0 
554.000732 68.0 
554.02771 47.0 
554.047913 95.0 
554.07489 65.0 
554.095154 52.0 
554.135559 73.0 
554.155823 76.0 
554.176025 46.0 
554.189514 52.0 
554.216492 128.0 
554.290649 1541.0 
554.331116 1187.0 
554.351379 1253.0 
554.385071 338.0 
554.405334 277.0 
554.439026 126.0 
554.472778 78.0 
554.50647 113.0 
554.519958 130.0 
554.546997 104.0 
554.5672 99.0 
554.587463 81.0 
554.607666 94.0 
554.641418 97.0 
554.648132 97.0 
554.67511 88.0 
554.708862 77.0 
554.722351 68.0 
554.749329 56.0 
554.769592 90.0 
554.789795 68.0 
554.803345 81.0 
554.816833 69.0 
554.830322 83.0 
554.850525 71.0 
554.870789 34.0 
554.884277 43.0 
554.911255 79.0 
554.965271 68.0 
554.998962 69.0 
555.026001 44.0 
555.03949 38.0 
555.059753 77.0 
555.086731 72.0 
555.10022 69.0 
555.133972 95.0 
555.147461 85.0 
555.174438 67.0 
555.228455 263.0 
555.262207 917.0 
555.282471 1185.0 
555.322937 1588.0 
555.349915 859.0 
555.383667 475.0 
555.417419 228.0 
555.451172 121.0 
555.484924 118.0 
555.498474 141.0 
555.53894 88.0 
555.579468 110.0 
555.61322 50.0 
555.626709 39.0 
555.646973 98.0 
555.680725 52.0 
555.707764 77.0 
555.728027 55.0 
555.755005 78.0 
555.775269 68.0 
555.788757 60.0 
555.809021 53.0 
555.83606 72.0 
555.856323 79.0 
555.869812 52.0 
555.890076 63.0 
555.903564 60.0 
555.930603 45.0 
555.957642 86.0 
555.977905 52.0 
555.998169 56.0 
556.011658 73.0 
556.038696 117.0 
556.065674 58.0 
556.085938 168.0 
556.126465 68.0 
556.140015 62.0 
556.160278 52.0 
556.187256 68.0 
556.214294 57.0 
556.248047 118.0 
556.275085 301.0 
556.295349 494.0 
556.315613 285.0 
556.335876 458.0 
556.362915 334.0 
556.416992 89.0 
556.444031 151.0 
556.477783 54.0 
556.511597 100.0 
556.538574 71.0 
556.558899 92.0 
556.585876 78.0 
556.606201 82.0 
556.633179 52.0 
556.660217 47.0 
556.680542 57.0 
556.687256 57.0 
556.70752 64.0 
556.741333 61.0 
556.768372 52.0 
556.815674 77.0 
556.842712 46.0 
556.856262 59.0 
556.89679 73.0 
556.937378 66.0 
556.957642 84.0 
557.004944 56.0 
557.038757 61.0 
557.052246 53.0 
557.079346 74.0 
557.08606 74.0 
557.099609 57.0 
557.126648 59.0 
557.146912 75.0 
557.194275 69.0 
557.214539 108.0 
557.282166 938.0 
557.309204 900.0 
557.322754 1164.0 
557.390381 536.0 
557.444458 134.0 
557.464722 132.0 
557.491821 87.0 
557.50531 93.0 
557.532349 80.0 
557.559448 61.0 
557.579712 49.0 
557.600037 53.0 
557.6203 80.0 
557.640564 54.0 
557.667664 61.0 
557.687927 104.0 
557.721741 74.0 
557.735291 59.0 
557.762329 71.0 
557.789429 133.0 
557.802917 106.0 
557.836792 70.0 
557.850281 58.0 
557.863831 57.0 
557.87738 73.0 
557.904419 46.0 
557.911194 46.0 
557.931458 71.0 
557.972107 45.0 
557.985596 42.0 
558.00592 59.0 
558.039734 79.0 
558.053284 80.0 
558.066833 71.0 
558.087097 62.0 
558.114197 118.0 
558.13446 54.0 
558.154785 54.0 
558.181824 56.0 
558.202148 49.0 
558.229187 68.0 
558.296875 530.0 
558.323975 449.0 
558.364563 399.0 
558.384888 258.0 
558.418701 114.0 
558.432251 106.0 
558.452576 79.0 
558.466125 80.0 
558.486389 92.0 
558.499939 108.0 
558.513489 87.0 
558.533813 121.0 
558.560852 62.0 
558.608276 72.0 
558.621826 98.0 
558.648865 67.0 
558.669189 54.0 
558.689514 105.0 
558.716614 60.0 
558.736877 60.0 
558.757202 36.0 
558.777527 61.0 
558.818176 83.0 
558.858765 55.0 
558.899414 64.0 
558.926514 49.0 
558.940063 35.0 
558.960327 56.0 
559.007751 78.0 
559.041626 65.0 
559.08905 59.0 
559.136414 58.0 
559.170288 69.0 
559.190613 55.0 
559.197388 55.0 
559.258362 755.0 
559.285461 1051.0 
559.305786 1256.0 
559.326111 1414.0 
559.35321 1010.0 
559.36676 967.0 
559.427734 290.0 
559.468384 104.0 
559.488708 107.0 
559.515808 78.0 
559.542908 115.0 
559.549683 115.0 
559.576782 88.0 
559.617432 86.0 
559.644531 77.0 
559.69873 60.0 
559.72583 56.0 
559.746216 90.0 
559.786865 62.0 
559.80719 84.0 
559.854614 69.0 
559.868164 59.0 
559.902039 37.0 
559.915649 40.0 
559.942749 70.0 
559.956299 48.0 
559.990173 46.0 
560.003723 44.0 
560.024048 48.0 
560.037598 55.0 
560.057983 68.0 
560.105408 67.0 
560.132507 57.0 
560.146118 65.0 
560.152893 65.0 
560.179993 23.0 
560.193542 52.0 
560.213867 62.0 
560.234253 123.0 
560.261353 378.0 
560.295227 494.0 
560.322388 444.0 
560.342712 606.0 
560.376587 377.0 
560.396973 259.0 
560.410522 231.0 
560.471558 88.0 
560.498657 56.0 
560.512207 58.0 
560.539368 41.0 
560.552917 66.0 
560.566467 69.0 
560.600403 54.0 
560.613953 89.0 
560.661438 75.0 
560.674988 62.0 
560.695312 83.0 
560.708923 70.0 
560.742798 63.0 
560.756409 84.0 
560.790283 55.0 
560.810669 31.0 
560.837769 85.0 
560.885254 74.0 
560.932739 55.0 
560.94635 59.0 
560.9599 54.0 
560.980225 76.0 
561.007385 45.0 
561.02771 50.0 
561.061646 62.0 
561.122742 65.0 
561.163452 45.0 
561.224487 97.0 
561.265198 1137.0 
561.292358 1708.0 
561.312744 2129.0 
561.360229 1932.0 
561.421326 341.0 
561.44165 209.0 
561.482361 142.0 
561.509521 92.0 
561.543457 97.0 
561.577393 72.0 
561.591003 52.0 
561.611328 94.0 
561.631714 64.0 
561.658875 77.0 
561.672424 72.0 
561.699585 56.0 
561.719971 51.0 
561.747131 55.0 
561.774292 75.0 
561.794678 65.0 
561.808228 65.0 
561.842163 64.0 
561.876099 87.0 
561.889709 73.0 
561.91687 37.0 
561.93042 47.0 
561.950806 63.0 
561.971191 65.0 
561.991577 49.0 
562.018738 107.0 
562.052673 56.0 
562.073059 61.0 
562.10022 72.0 
562.11377 60.0 
562.14093 58.0 
562.168091 53.0 
562.181702 72.0 
562.215637 82.0 
562.236023 82.0 
562.263184 335.0 
562.290344 518.0 
562.31073 810.0 
562.324341 935.0 
562.351501 796.0 
562.371887 503.0 
562.446594 168.0 
562.487366 118.0 
562.528137 101.0 
562.555298 65.0 
562.568909 61.0 
562.589233 71.0 
562.596069 71.0 
562.616455 53.0 
562.636841 77.0 
562.664001 44.0 
562.684387 69.0 
562.711548 44.0 
562.752319 92.0 
562.793091 55.0 
562.806702 59.0 
562.833862 52.0 
562.88147 85.0 
562.90863 40.0 
562.922241 32.0 
562.949402 81.0 
562.969788 48.0 
562.983398 81.0 
563.010559 69.0 
563.051331 98.0 
563.071716 86.0 
563.092102 44.0 
563.119324 37.0 
563.139709 58.0 
563.160095 39.0 
563.207703 89.0 
563.255249 936.0 
563.26886 839.0 
563.289246 1149.0 
563.330078 1334.0 
563.357239 885.0 
563.37085 801.0 
563.411621 259.0 
563.452454 154.0 
563.5 94.0 
563.533997 104.0 
563.574829 70.0 
563.622437 95.0 
563.642822 92.0 
563.663208 104.0 
563.683594 56.0 
563.69043 56.0 
563.710815 82.0 
563.731201 47.0 
563.744812 49.0 
563.778809 76.0 
563.792419 78.0 
563.80603 44.0 
563.819641 62.0 
563.833252 73.0 
563.853638 72.0 
563.867249 74.0 
563.89447 52.0 
563.928467 92.0 
563.976074 64.0 
563.996521 80.0 
564.010071 76.0 
564.057739 88.0 
564.07135 76.0 
564.098511 69.0 
564.112122 64.0 
564.118958 64.0 
564.132568 93.0 
564.146179 97.0 
564.15979 98.0 
564.186951 82.0 
564.207397 80.0 
564.268616 606.0 
564.295837 877.0 
564.33667 763.0 
564.377502 303.0 
564.418335 167.0 
564.465942 85.0 
564.479553 63.0 
564.506775 62.0 
564.527222 53.0 
564.554443 62.0 
564.568054 70.0 
564.608887 57.0 
564.649719 55.0 
564.670166 54.0 
564.697388 50.0 
564.710999 38.0 
564.73822 65.0 
564.785828 53.0 
564.7995 53.0 
564.806274 53.0 
564.826721 61.0 
564.847107 62.0 
564.860718 60.0 
564.894775 75.0 
564.928833 70.0 
564.956055 59.0 
564.983276 74.0 
565.030945 85.0 
565.044556 42.0 
565.058167 54.0 
565.09906 72.0 
565.119446 74.0 
565.153503 70.0 
565.187561 83.0 
565.208008 63.0 
565.235229 191.0 
565.262451 863.0 
565.303345 1207.0 
565.330566 1422.0 
565.371399 1129.0 
565.405457 384.0 
565.419128 376.0 
565.466797 169.0 
565.507629 107.0 
565.534912 98.0 
565.56897 89.0 
565.609802 69.0 
565.643921 76.0 
565.691589 97.0 
565.712036 64.0 
565.732483 53.0 
565.739258 53.0 
565.752869 60.0 
565.786987 66.0 
565.814209 92.0 
565.82782 67.0 
565.848267 97.0 
565.875549 94.0 
565.902771 79.0 
565.916443 75.0 
565.943665 49.0 
565.977722 76.0 
565.991394 56.0 
566.005005 50.0 
566.032288 60.0 
566.045898 59.0 
566.059509 45.0 
566.079956 37.0 
566.100403 70.0 
566.114075 54.0 
566.141296 50.0 
566.161743 45.0 
566.18219 48.0 
566.202637 40.0 
566.24353 128.0 
566.263977 678.0 
566.311707 818.0 
566.332153 822.0 
566.3526 512.0 
566.379883 490.0 
566.434387 189.0 
566.46167 95.0 
566.475281 75.0 
566.509399 55.0 
566.52301 89.0 
566.57074 71.0 
566.598022 52.0 
566.618469 49.0 
566.645752 32.0 
566.652588 32.0 
566.679871 38.0 
566.707153 34.0 
566.7276 39.0 
566.741211 52.0 
566.754883 58.0 
566.77533 80.0 
566.802612 59.0 
566.816223 56.0 
566.843506 67.0 
566.870789 87.0 
566.918518 73.0 
566.952637 70.0 
566.966248 75.0 
566.99353 61.0 
567.007202 57.0 
567.027649 57.0 
567.041321 67.0 
567.068604 66.0 
567.082214 42.0 
567.095886 47.0 
567.123169 37.0 
567.143616 44.0 
567.157227 42.0 
567.164062 42.0 
567.18457 40.0 
567.205017 37.0 
567.211853 37.0 
567.266418 265.0 
567.286865 608.0 
567.32782 1390.0 
567.348267 1123.0 
567.368713 1079.0 
567.396057 910.0 
567.42334 468.0 
567.471069 191.0 
567.491577 121.0 
567.51886 84.0 
567.546143 82.0 
567.559814 82.0 
567.580261 87.0 
567.607544 74.0 
567.621216 77.0 
567.634888 131.0 
567.682617 122.0 
567.696289 52.0 
567.703125 52.0 
567.723572 57.0 
567.74408 59.0 
567.778198 53.0 
567.812317 58.0 
567.853271 67.0 
567.873718 37.0 
567.894226 56.0 
567.914673 32.0 
567.935181 78.0 
567.955627 46.0 
567.982971 96.0 
567.996582 87.0 
568.044373 63.0 
568.06488 62.0 
568.098999 56.0 
568.14679 60.0 
568.167297 51.0 
568.180969 44.0 
568.201416 38.0 
568.242371 147.0 
568.290161 265.0 
568.331177 680.0 
568.358459 580.0 
568.392639 658.0 
568.413086 455.0 
568.447266 206.0 
568.467712 148.0 
568.495056 113.0 
568.508728 109.0 
568.542847 77.0 
568.57019 62.0 
568.590698 75.0 
568.611145 54.0 
568.624817 65.0 
568.658997 73.0 
568.693115 58.0 
568.720459 78.0 
568.754639 54.0 
568.775085 39.0 
568.795593 66.0 
568.816101 40.0 
568.836609 80.0 
568.884399 120.0 
568.898071 89.0 
568.925415 80.0 
568.945923 79.0 
568.96637 74.0 
568.993713 84.0 
569.014221 69.0 
569.041565 89.0 
569.055237 86.0 
569.089355 47.0 
569.103027 45.0 
569.116699 43.0 
569.137207 52.0 
569.164551 57.0 
569.191895 61.0 
569.212402 98.0 
569.267029 1405.0 
569.31488 1577.0 
569.328552 1634.0 
569.355896 1166.0 
569.396912 531.0 
569.465271 161.0 
569.478943 121.0 
569.513123 82.0 
569.526794 89.0 
569.554138 62.0 
569.581482 89.0 
569.622498 83.0 
569.649841 78.0 
569.663513 47.0 
569.690857 79.0 
569.718201 68.0 
569.745544 52.0 
569.759216 74.0 
569.793396 45.0 
569.82074 58.0 
569.834412 47.0 
569.861755 49.0 
569.882324 47.0 
569.895996 43.0 
569.916504 65.0 
569.95752 43.0 
569.978027 34.0 
569.998535 46.0 
570.046448 70.0 
570.073792 76.0 
570.114807 73.0 
570.135315 98.0 
570.155823 60.0 
570.176392 61.0 
570.196899 89.0 
570.210571 48.0 
570.278992 977.0 
570.320007 1092.0 
570.347351 1100.0 
570.381592 628.0 
570.4021 310.0 
570.443115 170.0 
570.47052 109.0 
570.497864 140.0 
570.518372 72.0 
570.53894 43.0 
570.579956 97.0 
570.607361 56.0 
570.614197 56.0 
570.648376 83.0 
570.675781 72.0 
570.703125 122.0 
570.744202 134.0 
570.785278 84.0 
570.79895 60.0 
570.812622 69.0 
570.83313 62.0 
570.860535 64.0 
570.881042 68.0 
570.908447 65.0 
570.949524 58.0 
570.963196 45.0 
570.983704 75.0 
571.004272 44.0 
571.02478 82.0 
571.052185 59.0 
571.065857 41.0 
571.072693 41.0 
571.093262 54.0 
571.127441 60.0 
571.154846 29.0 
571.168518 41.0 
571.216492 101.0 
571.250671 429.0 
571.298645 2906.0 
571.325989 2488.0 
571.339722 2629.0 
571.387634 1035.0 
571.408142 533.0 
571.442383 276.0 
571.483459 175.0 
571.504028 129.0 
571.531433 130.0 
571.57251 102.0 
571.599915 71.0 
571.634155 68.0 
571.66156 43.0 
571.688904 55.0 
571.716309 50.0 
571.764282 46.0 
571.771118 46.0 
571.78479 45.0 
571.812195 52.0 
571.846436 48.0 
571.867004 57.0 
571.887573 66.0 
571.914978 43.0 
571.942383 77.0 
571.962891 58.0 
571.976624 55.0 
571.990295 55.0 
572.004028 42.0 
572.045105 66.0 
572.058838 89.0 
572.093079 62.0 
572.127319 91.0 
572.168457 72.0 
572.195862 69.0 
572.236938 170.0 
572.291748 1155.0 
572.305481 1277.0 
572.32605 1273.0 
572.346619 1166.0 
572.367126 968.0 
572.401428 453.0 
572.442505 246.0 
572.476807 107.0 
572.511047 131.0 
572.517944 131.0 
572.531616 110.0 
572.565918 58.0 
572.586487 106.0 
572.600159 117.0 
572.627563 74.0 
572.668701 79.0 
572.703003 84.0 
572.744141 72.0 
572.771545 62.0 
572.792114 74.0 
572.819519 66.0 
572.840088 63.0 
572.860657 86.0 
572.881226 78.0 
572.901794 71.0 
572.915527 52.0 
572.929199 51.0 
572.956665 78.0 
572.98407 47.0 
572.997803 55.0 
573.025208 48.0 
573.03894 39.0 
573.066345 75.0 
573.086914 51.0 
573.107483 67.0 
573.134888 73.0 
573.169189 97.0 
573.189758 65.0 
573.210327 43.0 
573.237793 140.0 
573.285767 775.0 
573.320068 1470.0 
573.361206 1310.0 
573.395508 616.0 
573.443542 177.0 
573.48468 96.0 
573.505249 104.0 
573.553284 70.0 
573.573853 89.0 
573.594421 59.0 
573.608154 67.0 
573.649353 82.0 
573.697327 58.0 
573.71106 50.0 
573.724792 56.0 
573.765991 47.0 
573.793396 65.0 
573.820862 61.0 
573.855164 46.0 
573.868896 45.0 
573.903198 73.0 
573.923767 67.0 
573.951233 43.0 
573.971802 138.0 
574.006104 65.0 
574.033569 51.0 
574.047302 83.0 
574.081604 53.0 
574.10907 79.0 
574.122803 65.0 
574.136536 49.0 
574.150269 42.0 
574.170837 48.0 
574.18457 54.0 
574.212036 81.0 
574.260071 261.0 
574.321838 623.0 
574.342468 558.0 
574.363037 456.0 
574.383606 425.0 
574.404236 281.0 
574.431702 156.0 
574.452271 115.0 
574.493469 129.0 
574.534668 69.0 
574.56897 84.0 
574.610168 46.0 
574.651367 51.0 
574.68573 70.0 
574.720032 60.0 
574.754395 72.0 
574.795593 66.0 
574.836792 59.0 
574.857422 78.0 
574.891724 50.0 
574.926086 93.0 
574.946716 60.0 
574.960449 48.0 
574.987915 67.0 
575.008484 65.0 
575.022217 52.0 
575.05658 94.0 
575.090942 101.0 
575.139038 93.0 
575.166504 100.0 
575.180237 70.0 
575.19397 74.0 
575.2146 114.0 
575.255798 464.0 
575.31073 1358.0 
575.324524 1500.0 
575.338257 1590.0 
575.365723 1126.0 
575.379456 1158.0 
575.413818 517.0 
575.448181 243.0 
575.475647 147.0 
575.516907 159.0 
575.558105 103.0 
575.599365 78.0 
575.613098 88.0 
575.619995 88.0 
575.654297 96.0 
575.668091 101.0 
575.681824 95.0 
575.729919 89.0 
575.771179 55.0 
575.784912 70.0 
575.860535 99.0 
575.894897 55.0 
575.92926 57.0 
575.94989 51.0 
575.97052 60.0 
575.99115 59.0 
576.011719 60.0 
576.046143 40.0 
576.059875 48.0 
576.073608 32.0 
576.094238 45.0 
576.121765 72.0 
576.163025 52.0 
576.190491 46.0 
576.204224 65.0 
576.245483 107.0 
576.27301 253.0 
576.307373 513.0 
576.321167 457.0 
576.341797 706.0 
576.369263 544.0 
576.383057 474.0 
576.403687 370.0 
576.444946 192.0 
576.465576 124.0 
576.513672 108.0 
576.541199 98.0 
576.554993 90.0 
576.589355 92.0 
576.630615 96.0 
576.658142 74.0 
576.685669 36.0 
576.699402 77.0 
576.726929 85.0 
576.754456 44.0 
576.775085 89.0 
576.816345 67.0 
576.843872 51.0 
576.864502 75.0 
576.885132 62.0 
576.905762 63.0 
576.933289 50.0 
576.960815 41.0 
576.981445 34.0 
577.002136 52.0 
577.015869 43.0 
577.043396 68.0 
577.07782 49.0 
577.09845 68.0 
577.125977 43.0 
577.146606 30.0 
577.160339 63.0 
577.194763 66.0 
577.208557 60.0 
577.263611 797.0 
577.304871 1708.0 
577.318665 1849.0 
577.346191 1472.0 
577.366821 999.0 
577.387451 1048.0 
577.435669 356.0 
577.476929 127.0 
577.490723 114.0 
577.525146 125.0 
577.545776 129.0 
577.573303 87.0 
577.593994 98.0 
577.628418 86.0 
577.662842 90.0 
577.690369 78.0 
577.731689 109.0 
577.759216 71.0 
577.779846 69.0 
577.828064 67.0 
577.862488 81.0 
577.903809 89.0 
577.952026 68.0 
577.993347 81.0 
578.027771 53.0 
578.055298 42.0 
578.082825 49.0 
578.110413 59.0 
578.124146 65.0 
578.144836 65.0 
578.151733 65.0 
578.17926 80.0 
578.227478 66.0 
578.261902 397.0 
578.296387 579.0 
578.330811 856.0 
578.358337 458.0 
578.372131 579.0 
578.420349 183.0 
578.475464 139.0 
578.502991 59.0 
578.516785 59.0 
578.530579 65.0 
578.565002 81.0 
578.578796 94.0 
578.599487 50.0 
578.620117 58.0 
578.647705 57.0 
578.682129 59.0 
578.709717 41.0 
578.723511 40.0 
578.751038 55.0 
578.757935 55.0 
578.792419 41.0 
578.81311 33.0 
578.83374 45.0 
578.861328 42.0 
578.875122 46.0 
578.902649 49.0 
578.916443 48.0 
578.937134 43.0 
578.950928 35.0 
578.971619 53.0 
578.992249 65.0 
579.006042 45.0 
579.03363 50.0 
579.047424 49.0 
579.061218 60.0 
579.102539 52.0 
579.137024 54.0 
579.171509 84.0 
579.233521 151.0 
579.274902 1008.0 
579.309387 1076.0 
579.336914 1419.0 
579.385193 548.0 
579.412781 300.0 
579.426575 210.0 
579.474854 101.0 
579.488647 104.0 
579.502441 88.0 
579.516174 106.0 
579.543762 82.0 
579.557556 81.0 
579.564453 81.0 
579.585144 92.0 
579.619629 56.0 
579.633423 59.0 
579.667908 76.0 
579.688599 66.0 
579.716187 98.0 
579.736877 62.0 
579.750671 66.0 
579.778259 75.0 
579.792053 83.0 
579.826538 46.0 
579.847229 50.0 
579.861023 45.0 
579.86792 45.0 
579.902405 50.0 
579.916199 57.0 
579.943787 35.0 
579.957581 48.0 
579.971375 55.0 
579.992065 53.0 
580.019653 83.0 
580.054199 81.0 
580.095581 73.0 
580.171448 71.0 
580.21283 58.0 
580.247375 130.0 
580.28186 549.0 
580.323242 596.0 
580.337036 433.0 
580.357727 603.0 
580.385376 253.0 
580.406067 250.0 
580.433655 119.0 
580.454346 117.0 
580.488892 95.0 
580.509583 101.0 
580.530273 80.0 
580.571655 88.0 
580.606201 66.0 
580.626892 45.0 
580.640686 57.0 
580.668335 45.0 
580.689026 58.0 
580.723511 70.0 
580.771851 85.0 
580.785645 75.0 
580.82019 80.0 
580.868469 82.0 
580.889221 66.0 
580.930603 60.0 
580.951355 63.0 
580.965149 73.0 
580.978943 56.0 
580.992737 53.0 
581.006592 49.0 
581.041077 49.0 
581.054932 52.0 
581.075623 41.0 
581.08252 41.0 
581.096313 52.0 
581.123962 61.0 
581.137756 48.0 
581.172302 48.0 
581.186096 58.0 
581.19989 38.0 
581.275879 1385.0 
581.29657 1396.0 
581.324219 1555.0 
581.338013 1567.0 
581.365662 934.0 
581.386353 569.0 
581.414001 351.0 
581.434692 204.0 
581.455444 130.0 
581.469238 131.0 
581.503784 107.0 
581.531433 55.0 
581.545227 61.0 
581.593567 101.0 
581.600464 101.0 
581.628113 94.0 
581.669556 95.0 
581.697205 59.0 
581.704102 59.0 
581.738647 51.0 
581.78009 43.0 
581.821594 91.0 
581.863037 96.0 
581.890686 36.0 
581.90448 34.0 
581.932129 62.0 
581.95282 51.0 
581.973572 59.0 
581.994324 50.0 
582.015015 75.0 
582.042664 47.0 
582.063416 55.0 
582.077209 70.0 
582.104858 60.0 
582.139404 89.0 
582.180908 63.0 
582.215454 79.0 
582.270752 877.0 
582.298401 695.0 
582.312195 760.0 
582.339844 859.0 
582.360596 568.0 
582.429749 147.0 
582.443542 101.0 
582.457397 138.0 
582.478088 85.0 
582.491943 103.0 
582.519592 72.0 
582.533447 96.0 
582.554138 57.0 
582.567993 55.0 
582.602539 92.0 
582.657898 65.0 
582.699341 95.0 
582.733948 85.0 
582.747742 77.0 
582.761597 65.0 
582.796143 92.0 
582.83075 59.0 
582.851501 65.0 
582.899902 67.0 
582.927551 37.0 
582.962158 41.0 
583.010559 31.0 
583.031311 48.0 
583.045105 49.0 
583.05896 54.0 
583.079712 87.0 
583.107361 36.0 
583.128113 50.0 
583.141968 70.0 
583.176514 34.0 
583.204224 51.0 
583.224976 56.0 
583.31488 1290.0 
583.335632 1347.0 
583.349487 1365.0 
583.460205 158.0 
583.487854 139.0 
583.501709 155.0 
583.522461 80.0 
583.536316 101.0 
583.55011 128.0 
583.563965 107.0 
583.584717 68.0 
583.598572 63.0 
583.619324 58.0 
583.633179 85.0 
583.647034 82.0 
583.68158 57.0 
583.702393 83.0 
583.743896 108.0 
583.778503 69.0 
583.820007 69.0 
583.847717 63.0 
583.882324 66.0 
583.896179 79.0 
583.930786 52.0 
583.951538 71.0 
583.965393 76.0 
583.993042 53.0 
584.041504 85.0 
584.069214 30.0 
584.089966 92.0 
584.110718 74.0 
584.124573 63.0 
584.166138 165.0 
584.207642 143.0 
584.235352 88.0 
584.297668 472.0 
584.311523 404.0 
584.332275 695.0 
584.353027 566.0 
584.380737 352.0 
584.415344 264.0 
584.477722 64.0 
584.498474 66.0 
584.512329 54.0 
584.526184 66.0 
584.560791 53.0 
584.588501 53.0 
584.623108 74.0 
584.636963 74.0 
584.657776 58.0 
584.685486 53.0 
584.699341 58.0 
584.72699 74.0 
584.761658 82.0 
584.78241 52.0 
584.81012 73.0 
584.830933 106.0 
584.844788 94.0 
584.858643 40.0 
584.879395 87.0 
584.934814 69.0 
584.962524 30.0 
584.983337 47.0 
585.004089 50.0 
585.017944 53.0 
585.052612 54.0 
585.080322 67.0 
585.121887 68.0 
585.149597 64.0 
585.17041 40.0 
585.191162 58.0 
585.205017 50.0 
585.22583 93.0 
585.267395 298.0 
585.302063 432.0 
585.343628 1424.0 
585.371338 1179.0 
585.392151 949.0 
585.406006 918.0 
585.433716 523.0 
585.461426 180.0 
585.482239 141.0 
585.496094 127.0 
585.523804 97.0 
585.56543 94.0 
585.586182 70.0 
585.600037 75.0 
585.613953 57.0 
585.641663 60.0 
585.669373 73.0 
585.683228 58.0 
585.717896 54.0 
585.73175 65.0 
585.759521 69.0 
585.780273 55.0 
585.794189 62.0 
585.828796 64.0 
585.849609 51.0 
585.870422 47.0 
585.898132 59.0 
585.918945 43.0 
585.9328 58.0 
585.946716 55.0 
585.960571 72.0 
585.988281 42.0 
586.009094 59.0 
586.036804 60.0 
586.05072 73.0 
586.071472 64.0 
586.106201 60.0 
586.126953 65.0 
586.154724 65.0 
586.203247 51.0 
586.22406 101.0 
586.258728 162.0 
586.293396 257.0 
586.307312 338.0 
586.348877 788.0 
586.36969 604.0 
586.383606 572.0 
586.411316 584.0 
586.452942 215.0 
586.494568 80.0 
586.515381 85.0 
586.536194 75.0 
586.570862 61.0 
586.612488 72.0 
586.654114 59.0 
586.702698 94.0 
586.723511 39.0 
586.744324 69.0 
586.772095 110.0 
586.799805 35.0 
586.813721 55.0 
586.834534 53.0 
586.855347 51.0 
586.869202 59.0 
586.896973 56.0 
586.917786 67.0 
586.931702 41.0 
586.945557 39.0 
586.980225 52.0 
587.007996 42.0 
587.028809 48.0 
587.049622 49.0 
587.070496 61.0 
587.105164 79.0 
587.125977 65.0 
587.153748 39.0 
587.174561 74.0 
587.188477 50.0 
587.20929 116.0 
587.216248 116.0 
587.292603 1706.0 
587.334229 1586.0 
587.355042 1606.0 
587.486938 139.0 
587.493896 139.0 
587.507812 142.0 
587.535583 122.0 
587.577209 133.0 
587.611938 64.0 
587.625793 65.0 
587.653564 60.0 
587.674438 72.0 
587.695251 34.0 
587.709167 48.0 
587.743835 67.0 
587.785522 66.0 
587.799438 62.0 
587.813293 61.0 
587.827209 68.0 
587.848022 67.0 
587.875793 69.0 
587.896667 59.0 
587.910522 60.0 
587.945251 69.0 
587.973022 56.0 
588.021667 74.0 
588.056396 37.0 
588.063354 37.0 
588.077209 50.0 
588.118896 55.0 
588.153625 56.0 
588.1745 52.0 
588.202271 89.0 
588.216187 107.0 
588.264771 294.0 
588.285645 531.0 
588.306458 723.0 
588.348145 743.0 
588.369019 456.0 
588.403748 419.0 
588.438477 165.0 
588.452393 166.0 
588.501038 101.0 
588.514893 99.0 
588.549683 81.0 
588.563538 78.0 
588.59137 60.0 
588.633057 75.0 
588.674744 49.0 
588.716431 102.0 
588.744263 61.0 
588.765076 49.0 
588.78595 99.0 
588.799866 54.0 
588.820679 103.0 
588.848511 91.0 
588.862427 85.0 
588.890198 38.0 
588.911072 78.0 
588.952759 66.0 
588.959717 66.0 
588.994507 69.0 
589.008362 45.0 
589.029236 55.0 
589.043152 65.0 
589.057068 52.0 
589.070984 54.0 
589.091797 52.0 
589.105713 52.0 
589.119629 54.0 
589.133545 45.0 
589.161316 66.0 
589.189148 73.0 
589.203064 57.0 
589.223938 53.0 
589.230835 53.0 
589.251709 185.0 
589.293457 2590.0 
589.307373 2579.0 
589.356018 2806.0 
589.376892 1580.0 
589.439453 409.0 
589.467285 167.0 
589.509033 200.0 
589.543762 137.0 
589.578552 125.0 
589.6203 96.0 
589.662048 89.0 
589.682861 96.0 
589.703735 59.0 
589.759399 69.0 
589.801147 57.0 
589.822021 76.0 
589.835938 70.0 
589.891602 81.0 
589.912476 59.0 
589.940308 69.0 
589.961121 53.0 
590.009827 70.0 
590.037659 52.0 
590.072449 68.0 
590.093323 83.0 
590.169861 74.0 
590.197693 61.0 
590.218628 85.0 
590.295166 1091.0 
590.309082 1080.0 
590.357788 1244.0 
590.399536 547.0 
590.4552 201.0 
590.497009 84.0 
590.545715 102.0 
590.573547 86.0 
590.601379 98.0 
590.622253 65.0 
590.650146 93.0 
590.677979 63.0 
590.691895 66.0 
590.740601 67.0 
590.761536 53.0 
590.78241 81.0 
590.810242 100.0 
590.845032 113.0 
590.879883 65.0 
590.900757 75.0 
590.928589 73.0 
590.949524 82.0 
590.970398 67.0 
591.005188 55.0 
591.026123 58.0 
591.074829 74.0 
591.095703 57.0 
591.130554 62.0 
591.14447 71.0 
591.165405 41.0 
591.193237 63.0 
591.214111 52.0 
591.248962 110.0 
591.29071 569.0 
591.339478 1841.0 
591.40918 1057.0 
591.44397 332.0 
591.478821 172.0 
591.492737 166.0 
591.527588 128.0 
591.562439 111.0 
591.583313 126.0 
591.604187 89.0 
591.625122 60.0 
591.645996 69.0 
591.659973 57.0 
591.687805 79.0 
591.70874 57.0 
591.750549 84.0 
591.785339 67.0 
591.806274 63.0 
591.827148 68.0 
591.855042 67.0 
591.875977 57.0 
591.896851 52.0 
591.917786 39.0 
591.945618 53.0 
591.959595 44.0 
591.980469 64.0 
591.994446 51.0 
592.01532 55.0 
592.050171 52.0 
592.071106 81.0 
592.09198 40.0 
592.119873 55.0 
592.140808 68.0 
592.161682 40.0 
592.21051 79.0 
592.231384 47.0 
592.245361 59.0 
592.259277 79.0 
592.335999 905.0 
592.363831 695.0 
592.384766 627.0 
592.405701 715.0 
592.454468 210.0 
592.475403 105.0 
592.524231 63.0 
592.559082 66.0 
592.586975 52.0 
592.614868 46.0 
592.635803 53.0 
592.649719 61.0 
592.670654 76.0 
592.698547 59.0 
592.719482 104.0 
592.76825 72.0 
592.81012 46.0 
592.824036 50.0 
592.865906 56.0 
592.893799 72.0 
592.907776 65.0 
592.92865 66.0 
592.963562 75.0 
592.991455 49.0 
593.026306 69.0 
593.033325 69.0 
593.061218 66.0 
593.103088 93.0 
593.123962 49.0 
593.144897 50.0 
593.151917 50.0 
593.172791 75.0 
593.193726 44.0 
593.214661 61.0 
593.22168 61.0 
593.249573 75.0 
593.326294 2049.0 
593.347229 2271.0 
593.368164 2050.0 
593.389099 2070.0 
593.416992 942.0 
593.437927 789.0 
593.465881 297.0 
593.479797 232.0 
593.507751 159.0 
593.528687 153.0 
593.542603 136.0 
593.577515 98.0 
593.591492 105.0 
593.612427 94.0 
593.64032 81.0 
593.675232 101.0 
593.703125 59.0 
593.744995 67.0 
593.793884 66.0 
593.8078 83.0 
593.863647 80.0 
593.884583 53.0 
593.912537 98.0 
593.954407 121.0 
593.982361 73.0 
594.010254 69.0 
594.031189 67.0 
594.059143 32.0 
594.087036 105.0 
594.11499 73.0 
594.149902 101.0 
594.184814 82.0 
594.226685 63.0 
594.296509 879.0 
594.324463 1283.0 
594.352356 1635.0 
594.401245 902.0 
594.436157 463.0 
594.457153 221.0 
594.506042 129.0 
594.526978 136.0 
594.547913 128.0 
594.589844 109.0 
594.610779 55.0 
594.631714 106.0 
594.69458 87.0 
594.715576 45.0 
594.736511 58.0 
594.764465 49.0 
594.792419 75.0 
594.83429 66.0 
594.869263 81.0 
594.904175 147.0 
594.939087 123.0 
594.981018 89.0 
595.015991 63.0 
595.06488 65.0 
595.092834 72.0 
595.106812 40.0 
595.120789 35.0 
595.134766 34.0 
595.155701 97.0 
595.204651 75.0 
595.274536 442.0 
595.323425 1863.0 
595.365356 1457.0 
595.386353 1338.0 
595.463196 206.0 
595.49115 159.0 
595.512146 92.0 
595.5401 113.0 
595.58905 107.0 
595.603027 86.0 
595.630981 85.0 
595.651978 72.0 
595.672913 86.0 
595.707886 65.0 
595.728882 71.0 
595.756836 32.0 
595.770813 50.0 
595.805786 70.0 
595.819763 62.0 
595.83374 86.0 
595.854675 57.0 
595.868713 106.0 
595.903625 116.0 
595.938599 70.0 
595.973572 97.0 
596.001526 49.0 
596.036499 59.0 
596.071472 25.0 
596.113464 55.0 
596.141418 32.0 
596.155396 33.0 
596.162415 33.0 
596.190369 50.0 
596.218323 85.0 
596.267273 117.0 
596.330261 532.0 
596.351257 532.0 
596.379211 608.0 
596.4422 240.0 
596.470154 91.0 
596.498108 83.0 
596.5401 84.0 
596.568115 73.0 
596.582092 94.0 
596.638062 73.0 
596.680054 79.0 
596.70105 77.0 
596.722046 48.0 
596.763977 48.0 
596.805969 53.0 
596.826965 72.0 
596.862 79.0 
596.875977 66.0 
596.889954 51.0 
596.938965 47.0 
596.959961 43.0 
596.987915 58.0 
597.008911 65.0 
597.022949 62.0 
597.029907 62.0 
597.050903 101.0 
597.071899 69.0 
597.092896 65.0 
597.120911 65.0 
597.141907 42.0 
597.155945 38.0 
597.169922 28.0 
597.190918 54.0 
597.204895 57.0 
597.23291 74.0 
597.260925 214.0 
597.295898 597.0 
597.323914 673.0 
597.337891 574.0 
597.358948 607.0 
597.379944 410.0 
597.407959 296.0 
597.442932 169.0 
597.470947 114.0 
597.484924 95.0 
597.50592 157.0 
597.533936 71.0 
597.547974 65.0 
597.589966 79.0 
597.617981 57.0 
597.631958 55.0 
597.653015 67.0 
597.687988 42.0 
597.702026 58.0 
597.723022 47.0 
597.751038 71.0 
597.772034 37.0 
597.79303 68.0 
597.835083 81.0 
597.870117 77.0 
597.884094 75.0 
597.898132 70.0 
597.933105 59.0 
597.947144 59.0 
597.975159 30.0 
597.996155 42.0 
598.031189 46.0 
598.073242 25.0 
598.087219 46.0 
598.094238 46.0 
598.101257 46.0 
598.13623 87.0 
598.185303 35.0 
598.206299 60.0 
598.220337 60.0 
598.26239 77.0 
598.283386 264.0 
598.311401 358.0 
598.353455 367.0 
598.38147 195.0 
598.409485 130.0 
598.430542 91.0 
598.444519 85.0 
598.458557 54.0 
598.472534 57.0 
598.486572 63.0 
598.507629 63.0 
598.549622 71.0 
598.56366 40.0 
598.591675 68.0 
598.612732 76.0 
598.640747 51.0 
598.654785 60.0 
598.689819 58.0 
598.724854 58.0 
598.738892 61.0 
598.80896 63.0 
598.830017 60.0 
598.851013 51.0 
598.87207 54.0 
598.900085 43.0 
598.928101 44.0 
598.93512 44.0 
598.949158 30.0 
598.977173 35.0 
599.005249 40.0 
599.019287 49.0 
599.054321 23.0 
599.089355 43.0 
599.12439 58.0 
599.138428 44.0 
599.166504 48.0 
599.201538 66.0 
599.222595 80.0 
599.278687 1700.0 
599.306702 1898.0 
599.327759 1460.0 
599.341797 1725.0 
599.390869 625.0 
599.453979 124.0 
599.496094 132.0 
599.51709 88.0 
599.538147 130.0 
599.545166 130.0 
599.566223 95.0 
599.587219 76.0 
599.608276 66.0 
599.629333 70.0 
599.643372 61.0 
599.65741 68.0 
599.699463 73.0 
599.72052 45.0 
599.755615 88.0 
599.776611 94.0 
599.790649 127.0 
599.832764 108.0 
599.86084 62.0 
599.888855 94.0 
599.909912 44.0 
599.945007 68.0 
599.973083 73.0 
600.008118 85.0 
600.057251 88.0 
600.085327 52.0 
600.120422 79.0 
600.148499 35.0 
600.169556 86.0 
600.183594 68.0 
600.20459 50.0 
600.218628 57.0 
600.260742 461.0 
600.288818 1072.0 
600.330933 1213.0 
600.359009 776.0 
600.42218 151.0 
600.436218 185.0 
600.464294 66.0 
600.485352 86.0 
600.506409 62.0 
600.534485 78.0 
600.548523 50.0 
600.56958 87.0 
600.583618 67.0 
600.597656 50.0 
600.611694 47.0 
600.625732 44.0 
600.667847 89.0 
600.709961 64.0 
600.731018 57.0 
600.759094 65.0 
600.780212 65.0 
600.829346 57.0 
600.850403 68.0 
600.87146 91.0 
600.899536 54.0 
600.906555 54.0 
600.927612 77.0 
600.948669 98.0 
600.990845 60.0 
601.018921 58.0 
601.054016 76.0 
601.089111 43.0 
601.110229 67.0 
601.131287 50.0 
601.159363 70.0 
601.18042 81.0 
601.201477 71.0 
601.229614 111.0 
601.250671 186.0 
601.320923 2352.0 
601.356018 2072.0 
601.454346 298.0 
601.482483 193.0 
601.510559 194.0 
601.552734 77.0 
601.580811 120.0 
601.637024 83.0 
601.679199 88.0 
601.700256 86.0 
601.728394 92.0 
601.749451 75.0 
601.763489 69.0 
601.777527 68.0 
601.791626 77.0 
601.812683 62.0 
601.83374 70.0 
601.854858 82.0 
601.868896 87.0 
601.882935 91.0 
601.92511 79.0 
601.981323 117.0 
602.016479 60.0 
602.044617 62.0 
602.086731 67.0 
602.121887 64.0 
602.128906 64.0 
602.164062 100.0 
602.185181 70.0 
602.199219 60.0 
602.220337 58.0 
602.234375 61.0 
602.269531 124.0 
602.311707 1121.0 
602.346863 1118.0 
602.382019 1054.0 
602.417114 432.0 
602.445251 282.0 
602.487427 166.0 
602.515564 96.0 
602.529663 117.0 
602.55072 139.0 
602.585876 83.0 
602.614014 92.0 
602.635132 64.0 
602.656189 57.0 
602.684326 56.0 
602.705444 96.0 
602.719482 54.0 
602.768738 62.0 
602.796814 57.0 
602.832031 51.0 
602.860107 84.0 
602.888245 54.0 
602.902344 63.0 
602.923462 105.0 
602.944519 48.0 
602.965637 71.0 
603.007812 76.0 
603.028931 67.0 
603.078186 69.0 
603.113342 58.0 
603.148499 58.0 
603.176636 53.0 
603.204773 53.0 
603.225891 45.0 
603.254028 52.0 
603.275146 103.0 
603.303284 196.0 
603.352539 1249.0 
603.387695 1107.0 
603.422913 799.0 
603.458069 221.0 
603.514404 107.0 
603.528442 130.0 
603.570679 64.0 
603.584717 87.0 
603.619934 101.0 
603.65509 65.0 
603.669189 105.0 
603.683289 105.0 
603.704407 73.0 
603.718445 87.0 
603.739563 64.0 
603.7677 75.0 
603.817017 62.0 
603.831055 53.0 
603.852173 83.0 
603.880371 108.0 
603.894409 85.0 
603.936646 82.0 
603.978882 60.0 
604.0 54.0 
604.028198 83.0 
604.063354 56.0 
604.084473 43.0 
604.098572 55.0 
604.112671 51.0 
604.176025 89.0 
604.204163 73.0 
604.232361 75.0 
604.246399 87.0 
604.274597 206.0 
604.323853 289.0 
604.36615 738.0 
604.394287 513.0 
604.415405 347.0 
604.436523 476.0 
604.464722 142.0 
604.492859 132.0 
604.542175 73.0 
604.563293 82.0 
604.591492 126.0 
604.61261 47.0 
604.640808 124.0 
604.676025 70.0 
604.711243 55.0 
604.732361 58.0 
604.774597 46.0 
604.788696 55.0 
604.802795 65.0 
604.816895 59.0 
604.845032 112.0 
604.880249 71.0 
604.915527 54.0 
604.929565 72.0 
604.950745 75.0 
604.992981 57.0 
605.00708 61.0 
605.035278 70.0 
605.070496 67.0 
605.098694 89.0 
605.126892 63.0 
605.169128 113.0 
605.204407 77.0 
605.218445 81.0 
605.239624 114.0 
605.274841 1219.0 
605.295959 1061.0 
605.338257 1553.0 
605.394653 500.0 
605.408752 436.0 
605.436951 206.0 
605.486267 134.0 
605.514465 86.0 
605.542664 59.0 
605.563782 104.0 
605.59198 104.0 
605.641357 55.0 
605.662476 47.0 
605.697754 85.0 
605.732971 52.0 
605.761169 59.0 
605.789368 44.0 
605.803467 67.0 
605.838745 53.0 
605.852844 52.0 
605.866943 58.0 
605.93042 70.0 
605.958618 74.0 
606.000916 103.0 
606.050293 94.0 
606.09259 54.0 
606.106689 48.0 
606.120789 56.0 
606.156067 71.0 
606.184265 42.0 
606.205383 94.0 
606.226562 55.0 
606.254761 108.0 
606.311218 542.0 
606.353516 527.0 
606.388794 361.0 
606.44519 269.0 
606.494568 148.0 
606.536926 75.0 
606.579224 73.0 
606.600403 65.0 
606.621582 61.0 
606.64978 69.0 
606.663879 61.0 
606.685059 47.0 
606.734436 99.0 
606.769714 52.0 
606.797974 72.0 
606.840271 86.0 
606.86853 88.0 
606.917908 98.0 
606.932007 51.0 
606.946167 51.0 
606.960266 53.0 
606.974365 48.0 
606.995544 54.0 
607.016724 29.0 
607.044922 47.0 
607.066101 46.0 
607.08728 36.0 
607.101379 33.0 
607.129639 46.0 
607.143738 51.0 
607.171997 61.0 
607.200195 66.0 
607.221375 71.0 
607.256653 260.0 
607.306091 1620.0 
607.33429 1207.0 
607.34845 946.0 
607.376648 1558.0 
607.411987 395.0 
607.461365 160.0 
607.482544 118.0 
607.510803 100.0 
607.531982 126.0 
607.546082 104.0 
607.574341 73.0 
607.630859 72.0 
607.652039 64.0 
607.666138 50.0 
607.673218 50.0 
607.715576 70.0 
607.750854 31.0 
607.779114 73.0 
607.800293 56.0 
607.821472 52.0 
607.870911 70.0 
607.89209 67.0 
607.913269 54.0 
607.955688 68.0 
607.990967 41.0 
608.040405 55.0 
608.061584 50.0 
608.089844 46.0 
608.111084 37.0 
608.132263 32.0 
608.153442 53.0 
608.181702 49.0 
608.209961 78.0 
608.23822 81.0 
608.252319 85.0 
608.280579 282.0 
608.322998 788.0 
608.351257 626.0 
608.393616 509.0 
608.450134 138.0 
608.471375 76.0 
608.485474 65.0 
608.520813 89.0 
608.556152 93.0 
608.598511 62.0 
608.64093 74.0 
608.669189 75.0 
608.68335 52.0 
608.697449 67.0 
608.718689 63.0 
608.732788 82.0 
608.746948 83.0 
608.761047 58.0 
608.796387 64.0 
608.817627 44.0 
608.838806 58.0 
608.852966 55.0 
608.867065 51.0 
608.902405 71.0 
608.923645 41.0 
608.980164 37.0 
609.029663 94.0 
609.057922 73.0 
609.072083 63.0 
609.093262 84.0 
609.107422 56.0 
609.128601 51.0 
609.142761 43.0 
609.156921 51.0 
609.171021 44.0 
609.192261 60.0 
609.2276 104.0 
609.27002 125.0 
609.326599 1336.0 
609.347778 1681.0 
609.376099 1397.0 
609.390198 1674.0 
609.453857 395.0 
609.489197 206.0 
609.517517 95.0 
609.531677 177.0 
609.567017 113.0 
609.581177 106.0 
609.595276 103.0 
609.609436 114.0 
609.637756 79.0 
609.673096 70.0 
609.687256 55.0 
609.701355 68.0 
609.750916 83.0 
609.765015 70.0 
609.786255 82.0 
609.800415 95.0 
609.842834 84.0 
609.871155 79.0 
609.899414 59.0 
609.941895 67.0 
609.977234 70.0 
610.012634 62.0 
610.055054 43.0 
610.097534 49.0 
610.104614 49.0 
610.147034 40.0 
610.161194 47.0 
610.182434 57.0 
610.210754 39.0 
610.231934 69.0 
610.267334 106.0 
610.345154 922.0 
610.373474 820.0 
610.394714 722.0 
610.415955 684.0 
610.465454 225.0 
610.486694 148.0 
610.507935 98.0 
610.522095 85.0 
610.557495 97.0 
610.585815 85.0 
610.614075 60.0 
610.628235 62.0 
610.656555 68.0 
610.677795 55.0 
610.691956 48.0 
610.713196 94.0 
610.734436 46.0 
610.769836 63.0 
610.812317 37.0 
610.840637 63.0 
610.861877 53.0 
610.876038 56.0 
610.890198 64.0 
610.925598 59.0 
610.960999 55.0 
611.003479 65.0 
611.045959 40.0 
611.07428 80.0 
611.11676 82.0 
611.145081 61.0 
611.173401 60.0 
611.215881 81.0 
611.230042 96.0 
611.251282 185.0 
611.343384 3687.0 
611.371704 5001.0 
611.407104 2942.0 
611.499207 337.0 
611.527527 283.0 
611.548767 242.0 
611.570007 195.0 
611.591248 205.0 
611.605408 193.0 
611.626709 136.0 
611.655029 123.0 
611.669189 108.0 
611.69751 97.0 
611.71875 64.0 
611.768372 75.0 
611.796692 94.0 
611.817932 86.0 
611.825073 86.0 
611.860474 122.0 
611.902954 87.0 
611.938416 126.0 
611.980896 101.0 
612.002197 95.0 
612.044678 88.0 
612.058899 79.0 
612.073059 82.0 
612.108459 91.0 
612.136841 70.0 
612.172241 130.0 
612.221863 94.0 
612.236023 65.0 
612.321106 1824.0 
612.356567 2434.0 
612.391968 1870.0 
612.45575 514.0 
612.491211 214.0 
612.526672 209.0 
612.547913 147.0 
612.583374 190.0 
612.618835 145.0 
612.647156 99.0 
612.661377 90.0 
612.668457 90.0 
612.682617 91.0 
612.710999 92.0 
612.725159 66.0 
612.74646 83.0 
612.77478 57.0 
612.796082 102.0 
612.845703 82.0 
612.874084 90.0 
612.902466 64.0 
612.923706 89.0 
612.987549 96.0 
613.03009 98.0 
613.072632 94.0 
613.093933 109.0 
613.122314 50.0 
613.143555 67.0 
613.171936 57.0 
613.186157 51.0 
613.235779 105.0 
613.27832 220.0 
613.335083 1561.0 
613.349304 1673.0 
613.370544 1268.0 
613.398926 1447.0 
613.434387 658.0 
613.48407 210.0 
613.540833 124.0 
613.569214 96.0 
613.590515 119.0 
613.611755 105.0 
613.633057 77.0 
613.647278 91.0 
613.696899 141.0 
613.732422 92.0 
613.774963 125.0 
613.803345 88.0 
613.838867 54.0 
613.874329 67.0 
613.90979 65.0 
613.952393 66.0 
613.973694 48.0 
613.994995 55.0 
614.030457 92.0 
614.051758 54.0 
614.065979 73.0 
614.073059 73.0 
614.10144 65.0 
614.115662 56.0 
614.144043 96.0 
614.172424 49.0 
614.193726 119.0 
614.229248 69.0 
614.286011 232.0 
614.335693 721.0 
614.364136 588.0 
614.385437 420.0 
614.413818 605.0 
614.43512 261.0 
614.463501 199.0 
614.484802 131.0 
614.534546 144.0 
614.570007 117.0 
614.61261 176.0 
614.641052 163.0 
614.683655 57.0 
614.712036 64.0 
614.740479 66.0 
614.76886 93.0 
614.804382 103.0 
614.839905 149.0 
614.882507 109.0 
614.91803 65.0 
614.946411 88.0 
614.989075 69.0 
615.003235 51.0 
615.017456 50.0 
615.038757 52.0 
615.060059 102.0 
615.102722 119.0 
615.145325 52.0 
615.173767 66.0 
615.21637 61.0 
615.244812 46.0 
615.266113 35.0 
615.287415 157.0 
615.301636 165.0 
615.351379 462.0 
615.379822 221.0 
615.393982 236.0 
615.415344 184.0 
615.429565 191.0 
615.450867 95.0 
615.493469 127.0 
615.521912 74.0 
615.564575 97.0 
615.578796 58.0 
615.600098 84.0 
615.656921 73.0 
615.678284 54.0 
615.713806 50.0 
615.735107 52.0 
615.75647 92.0 
615.777771 40.0 
615.799072 56.0 
615.827515 43.0 
615.848877 56.0 
615.870178 54.0 
615.905701 54.0 
615.919922 46.0 
615.948364 60.0 
615.955505 60.0 
615.976807 46.0 
615.991028 59.0 
616.01947 78.0 
616.047913 60.0 
616.062134 44.0 
616.090576 47.0 
616.111877 60.0 
616.154541 52.0 
616.182983 77.0 
616.211426 43.0 
616.239868 50.0 
616.247009 50.0 
616.289673 138.0 
616.318115 101.0 
616.346558 102.0 
616.367859 109.0 
616.396301 95.0 
616.417664 63.0 
616.431885 107.0 
616.460327 74.0 
616.481628 50.0 
616.502991 37.0 
616.531433 58.0 
616.545654 72.0 
616.567017 45.0 
616.581238 44.0 
616.595459 51.0 
616.61676 62.0 
616.638123 70.0 
616.652344 65.0 
616.680786 46.0 
616.702148 75.0 
616.723511 56.0 
616.751953 57.0 
616.794617 75.0 
616.8302 59.0 
616.865784 72.0 
616.894226 32.0 
616.915588 41.0 
616.951111 56.0 
616.965332 57.0 
617.015137 49.0 
617.029419 35.0 
617.064941 73.0 
617.100525 61.0 
617.129028 52.0 
617.157471 60.0 
617.185913 51.0 
617.207275 41.0 
617.221497 55.0 
617.235779 75.0 
617.292664 2047.0 
617.335388 1599.0 
617.434998 238.0 
617.463501 142.0 
617.477722 150.0 
617.527527 136.0 
617.563171 104.0 
617.612976 66.0 
617.620117 66.0 
617.634338 69.0 
617.655701 62.0 
617.677063 46.0 
617.705505 53.0 
617.726868 38.0 
617.74823 41.0 
617.769592 41.0 
617.790955 60.0 
617.812317 56.0 
617.833679 35.0 
617.840759 35.0 
617.855042 53.0 
617.883484 60.0 
617.911987 47.0 
617.93335 42.0 
617.961853 91.0 
618.004578 70.0 
618.040161 73.0 
618.061523 45.0 
618.090027 40.0 
618.111389 50.0 
618.132751 53.0 
618.154114 43.0 
618.175476 58.0 
618.203918 54.0 
618.225342 41.0 
618.253784 54.0 
618.296509 1091.0 
618.325012 806.0 
618.367737 1031.0 
618.39624 353.0 
618.424744 211.0 
618.438965 167.0 
618.467468 151.0 
618.495972 140.0 
618.510254 104.0 
618.531616 95.0 
618.581482 108.0 
618.595703 80.0 
618.638428 66.0 
618.65271 72.0 
618.681213 55.0 
618.695435 63.0 
618.716797 59.0 
618.752441 78.0 
618.766724 52.0 
618.788086 76.0 
618.82373 94.0 
618.852234 64.0 
618.887817 87.0 
618.916321 40.0 
618.944824 57.0 
618.980469 85.0 
619.030334 42.0 
619.051758 50.0 
619.101624 63.0 
619.137268 43.0 
619.151489 40.0 
619.172913 65.0 
619.201416 50.0 
619.244202 72.0 
619.322571 3772.0 
619.351074 3419.0 
619.386719 3217.0 
619.493652 221.0 
619.536438 232.0 
619.579224 178.0 
619.600647 99.0 
619.614868 111.0 
619.62915 107.0 
619.700439 120.0 
619.728943 99.0 
619.743225 56.0 
619.764648 97.0 
619.793152 90.0 
619.814514 65.0 
619.828796 58.0 
619.85022 51.0 
619.878723 60.0 
619.914368 63.0 
619.92865 56.0 
619.950012 107.0 
619.985718 83.0 
620.00708 46.0 
620.028503 77.0 
620.049866 63.0 
620.071289 50.0 
620.092712 78.0 
620.106934 92.0 
620.128357 67.0 
620.142639 57.0 
620.178284 69.0 
620.22821 95.0 
620.320923 1777.0 
620.349487 1877.0 
620.385132 1594.0 
620.413696 1001.0 
620.50647 214.0 
620.527832 115.0 
620.556396 158.0 
620.570679 103.0 
620.592102 114.0 
620.620605 90.0 
620.642029 138.0 
620.670593 103.0 
620.677734 103.0 
620.72052 165.0 
620.763367 52.0 
620.79187 99.0 
620.827576 77.0 
620.841858 67.0 
620.877502 120.0 
620.941772 85.0 
620.963196 92.0 
621.005981 42.0 
621.034546 85.0 
621.055969 70.0 
621.084534 76.0 
621.098816 51.0 
621.12738 49.0 
621.148804 66.0 
621.191589 39.0 
621.227295 115.0 
621.263 108.0 
621.291565 387.0 
621.334412 1126.0 
621.362976 896.0 
621.384399 892.0 
621.420105 793.0 
621.462952 217.0 
621.477234 207.0 
621.520081 109.0 
621.541504 81.0 
621.555786 100.0 
621.584351 80.0 
621.605774 58.0 
621.620056 84.0 
621.677185 76.0 
621.691467 78.0 
621.720032 50.0 
621.734314 66.0 
621.77002 63.0 
621.812866 85.0 
621.841431 66.0 
621.884277 49.0 
621.919983 71.0 
621.970032 76.0 
621.998596 67.0 
622.005737 67.0 
622.041443 75.0 
622.091431 68.0 
622.120056 55.0 
622.134338 47.0 
622.148621 53.0 
622.162903 53.0 
622.177185 51.0 
622.198608 53.0 
622.234375 47.0 
622.248657 36.0 
622.262939 44.0 
622.284363 83.0 
622.334412 150.0 
622.362976 416.0 
622.412964 274.0 
622.434448 255.0 
622.50592 126.0 
622.548767 44.0 
622.57019 54.0 
622.591675 30.0 
622.613098 38.0 
622.641663 75.0 
622.648804 75.0 
622.663147 58.0 
622.677429 57.0 
622.727478 47.0 
622.763184 36.0 
622.777466 28.0 
622.806091 73.0 
622.827515 37.0 
622.863281 77.0 
622.927612 76.0 
622.941895 66.0 
622.956238 40.0 
622.991943 57.0 
623.006287 42.0 
623.020569 56.0 
623.063477 52.0 
623.113525 92.0 
623.163574 52.0 
623.192139 67.0 
623.227905 70.0 
623.242188 64.0 
623.277954 394.0 
623.292297 587.0 
623.30658 715.0 
623.356628 820.0 
623.399536 270.0 
623.413818 299.0 
623.449585 101.0 
623.463928 139.0 
623.513977 115.0 
623.556885 91.0 
623.571167 82.0 
623.58551 107.0 
623.621277 53.0 
623.649902 96.0 
623.685669 51.0 
623.721436 72.0 
623.75 61.0 
623.757202 61.0 
623.771484 67.0 
623.821594 62.0 
623.835876 55.0 
623.850159 59.0 
623.857361 59.0 
623.871643 45.0 
623.885925 53.0 
623.921753 50.0 
623.943176 62.0 
623.971802 54.0 
624.029053 62.0 
624.064819 33.0 
624.086304 56.0 
624.100586 52.0 
624.136414 48.0 
624.150696 42.0 
624.17218 55.0 
624.186462 46.0 
624.207947 59.0 
624.243713 69.0 
624.279541 187.0 
624.293823 275.0 
624.308167 399.0 
624.322449 374.0 
624.358215 464.0 
624.372559 398.0 
624.415527 165.0 
624.458435 84.0 
624.487061 68.0 
624.515686 70.0 
624.530029 60.0 
624.551514 62.0 
624.580139 68.0 
624.594482 61.0 
624.615906 53.0 
624.630249 58.0 
624.644592 61.0 
624.658875 62.0 
624.673218 60.0 
624.680359 60.0 
624.701843 42.0 
624.730469 66.0 
624.751953 31.0 
624.780579 44.0 
624.794922 47.0 
624.823547 60.0 
624.866516 57.0 
624.902283 35.0 
624.923767 41.0 
624.945251 59.0 
624.966736 31.0 
624.98822 67.0 
625.009705 55.0 
625.031189 46.0 
625.067017 69.0 
625.102844 46.0 
625.117126 38.0 
625.138611 42.0 
625.152954 51.0 
625.167297 43.0 
625.18158 28.0 
625.210266 65.0 
625.23175 29.0 
625.253235 92.0 
625.317688 608.0 
625.332031 664.0 
625.367798 670.0 
625.396484 429.0 
625.468079 103.0 
625.511108 64.0 
625.525391 69.0 
625.561218 60.0 
625.604248 85.0 
625.640015 39.0 
625.66156 77.0 
625.675842 81.0 
625.71167 124.0 
625.726013 65.0 
625.747498 66.0 
625.776184 86.0 
625.826355 49.0 
625.876526 48.0 
625.890808 33.0 
625.905151 38.0 
625.919495 41.0 
625.940979 41.0 
625.99115 49.0 
626.062805 85.0 
626.091492 75.0 
626.105835 64.0 
626.127319 107.0 
626.170349 44.0 
626.191833 79.0 
626.22052 95.0 
626.263489 137.0 
626.292175 192.0 
626.320862 346.0 
626.363892 376.0 
626.392578 210.0 
626.414062 200.0 
626.44989 60.0 
626.464233 83.0 
626.471436 83.0 
626.500061 28.0 
626.543091 85.0 
626.586121 66.0 
626.62915 57.0 
626.636292 57.0 
626.650635 59.0 
626.657837 59.0 
626.700867 64.0 
626.71521 55.0 
626.743896 56.0 
626.765381 38.0 
626.786926 77.0 
626.815613 52.0 
626.837097 40.0 
626.858643 63.0 
626.887329 52.0 
626.916016 46.0 
626.9375 72.0 
626.959045 28.0 
626.987732 69.0 
627.030762 42.0 
627.045105 68.0 
627.095276 69.0 
627.116821 38.0 
627.15271 97.0 
627.188538 56.0 
627.202881 89.0 
627.23877 64.0 
627.281799 131.0 
627.317688 541.0 
627.346375 1264.0 
627.36792 1315.0 
627.418091 1262.0 
627.518555 166.0 
627.547302 147.0 
627.575989 99.0 
627.611877 121.0 
627.640564 52.0 
627.654907 62.0 
627.66925 57.0 
627.697937 51.0 
627.719482 70.0 
627.741028 63.0 
627.762573 40.0 
627.798462 66.0 
627.834351 63.0 
627.87738 77.0 
627.898926 46.0 
627.913269 50.0 
627.949158 94.0 
627.970703 55.0 
627.992249 73.0 
628.020935 86.0 
628.035278 121.0 
628.064026 57.0 
628.085571 77.0 
628.107056 58.0 
628.128601 77.0 
628.143005 68.0 
628.157349 57.0 
628.178894 35.0 
628.207581 57.0 
628.221924 53.0 
628.243469 52.0 
628.272217 81.0 
628.300903 64.0 
628.36554 1141.0 
628.40863 929.0 
628.437378 563.0 
628.501953 143.0 
628.537903 97.0 
628.552246 94.0 
628.588135 78.0 
628.638428 81.0 
628.652771 82.0 
628.695862 59.0 
628.710266 60.0 
628.731812 85.0 
628.7677 50.0 
628.782043 52.0 
628.796448 67.0 
628.817993 73.0 
628.853882 66.0 
628.868286 78.0 
628.918518 51.0 
628.947266 40.0 
628.96167 57.0 
628.968811 57.0 
628.997559 51.0 
629.019104 48.0 
629.040649 54.0 
629.076599 62.0 
629.105347 53.0 
629.134033 60.0 
629.148438 49.0 
629.162781 42.0 
629.19873 64.0 
629.234619 95.0 
629.31366 2403.0 
629.356812 4917.0 
629.378357 5322.0 
629.42865 3714.0 
629.536438 234.0 
629.572388 199.0 
629.622681 188.0 
629.644287 162.0 
629.673035 116.0 
629.69458 139.0 
629.723328 116.0 
629.759277 107.0 
629.780823 75.0 
629.795227 89.0 
629.838318 67.0 
629.867065 90.0 
629.903015 129.0 
629.910217 129.0 
629.946167 96.0 
629.974915 77.0 
630.010864 81.0 
630.06842 85.0 
630.082764 115.0 
630.118713 80.0 
630.133118 85.0 
630.161865 145.0 
630.197815 91.0 
630.233765 158.0 
630.276917 85.0 
630.341614 1937.0 
630.377625 3039.0 
630.413574 2264.0 
630.492676 470.0 
630.535828 215.0 
630.571777 148.0 
630.600586 153.0 
630.658081 125.0 
630.672485 122.0 
630.708435 97.0 
630.722839 104.0 
630.751648 129.0 
630.7948 110.0 
630.823547 102.0 
630.852356 84.0 
630.895508 125.0 
630.924255 131.0 
630.953064 88.0 
630.981873 83.0 
631.003418 53.0 
631.025024 47.0 
631.053772 95.0 
631.075378 92.0 
631.096985 113.0 
631.125732 81.0 
631.147339 90.0 
631.168945 68.0 
631.190491 97.0 
631.204895 85.0 
631.233704 125.0 
631.25531 66.0 
631.298462 261.0 
631.348816 1142.0 
631.377625 1155.0 
631.420837 1026.0 
631.449585 581.0 
631.5 192.0 
631.528809 96.0 
631.557556 137.0 
631.593567 80.0 
631.600769 80.0 
631.665588 69.0 
631.701538 80.0 
631.737549 62.0 
631.787964 86.0 
631.80957 55.0 
631.823975 74.0 
631.838379 64.0 
631.852722 57.0 
631.874329 80.0 
631.895935 64.0 
631.939148 46.0 
631.953552 51.0 
631.975159 88.0 
632.011169 76.0 
632.068787 168.0 
632.097595 85.0 
632.133606 121.0 
632.162415 62.0 
632.198425 36.0 
632.234436 89.0 
632.263245 71.0 
632.31366 278.0 
632.34967 433.0 
632.364075 424.0 
632.385681 556.0 
632.41449 394.0 
632.428894 455.0 
632.479309 131.0 
632.500916 103.0 
632.536926 93.0 
632.551331 76.0 
632.565735 65.0 
632.580139 68.0 
632.587341 68.0 
632.601807 52.0 
632.616211 57.0 
632.64502 62.0 
632.666626 53.0 
632.68103 41.0 
632.709839 76.0 
632.753052 71.0 
632.781921 58.0 
632.803528 62.0 
632.825134 72.0 
632.846741 55.0 
632.861145 49.0 
632.882751 49.0 
632.911621 79.0 
632.926025 78.0 
632.969238 89.0 
632.983643 67.0 
632.998108 60.0 
633.026917 38.0 
633.048523 46.0 
633.055725 46.0 
633.098999 75.0 
633.120605 52.0 
633.142212 68.0 
633.163818 27.0 
633.178284 40.0 
633.228699 43.0 
633.243103 53.0 
633.293579 152.0 
633.315186 86.0 
633.336853 179.0 
633.351257 261.0 
633.380066 450.0 
633.42334 214.0 
633.452148 211.0 
633.473816 96.0 
633.495422 76.0 
633.524292 81.0 
633.545898 42.0 
633.567505 75.0 
633.603577 71.0 
633.646851 61.0 
633.682861 107.0 
633.718933 176.0 
633.769409 188.0 
633.791077 57.0 
633.819885 65.0 
633.870361 64.0 
633.899231 61.0 
633.920837 94.0 
633.942505 51.0 
633.978577 56.0 
634.014587 62.0 
634.036255 50.0 
634.057861 43.0 
634.086731 59.0 
634.122803 75.0 
634.14447 59.0 
634.158875 67.0 
634.209351 70.0 
634.216553 70.0 
634.259888 86.0 
634.281494 45.0 
634.310364 117.0 
634.346436 66.0 
634.36084 69.0 
634.375305 69.0 
634.396912 78.0 
634.411377 109.0 
634.454651 56.0 
634.490723 58.0 
634.51239 55.0 
634.541199 29.0 
634.562866 61.0 
634.577332 56.0 
634.627808 58.0 
634.649475 28.0 
634.671082 40.0 
634.707214 46.0 
634.736084 42.0 
634.75769 54.0 
634.78656 26.0 
634.822632 52.0 
634.844299 40.0 
634.865967 36.0 
634.880371 44.0 
634.894836 37.0 
634.909241 44.0 
634.930908 32.0 
634.945374 35.0 
634.952576 35.0 
634.974243 29.0 
634.988647 36.0 
635.010315 58.0 
635.024719 67.0 
635.046387 52.0 
635.060852 47.0 
635.08252 53.0 
635.096924 53.0 
635.118591 22.0 
635.140259 22.0 
635.161926 51.0 
635.197998 50.0 
635.241333 72.0 
635.313477 1400.0 
635.364075 1283.0 
635.400146 447.0 
635.429016 324.0 
635.465149 208.0 
635.501221 121.0 
635.53009 69.0 
635.544556 70.0 
635.580688 107.0 
635.623962 68.0 
635.652893 85.0 
635.667297 80.0 
635.696228 45.0 
635.717896 56.0 
635.739563 60.0 
635.768433 73.0 
635.782898 62.0 
635.804565 55.0 
635.81897 61.0 
635.833435 56.0 
635.855103 43.0 
635.891235 71.0 
635.920105 60.0 
635.93457 64.0 
635.96344 98.0 
635.985107 62.0 
636.014038 76.0 
636.057373 83.0 
636.064575 83.0 
636.093506 70.0 
636.122375 112.0 
636.16571 89.0 
636.216309 50.0 
636.230774 63.0 
636.317444 1015.0 
636.346375 534.0 
636.360779 615.0 
636.389709 538.0 
636.411377 212.0 
636.433044 113.0 
636.512573 81.0 
636.592041 70.0 
636.642639 38.0 
636.649841 38.0 
636.664307 42.0 
636.700439 51.0 
636.714905 49.0 
636.751038 57.0 
636.78717 64.0 
636.801636 61.0 
636.830566 73.0 
636.866699 30.0 
636.89563 46.0 
636.924561 51.0 
636.946228 85.0 
636.967896 88.0 
636.989563 58.0 
637.018494 71.0 
637.032959 57.0 
637.054688 40.0 
637.076355 49.0 
637.119751 61.0 
637.170349 56.0 
637.184814 82.0 
637.206482 50.0 
637.22821 111.0 
637.264343 288.0 
637.33667 8073.0 
637.401733 6377.0 
637.488525 684.0 
637.553589 294.0 
637.568054 234.0 
637.61145 216.0 
637.662109 165.0 
637.683777 142.0 
637.698242 129.0 
637.712708 127.0 
637.756104 126.0 
637.770569 126.0 
637.785034 123.0 
637.814026 92.0 
637.850159 112.0 
637.886353 89.0 
637.922485 74.0 
637.958679 75.0 
637.973145 75.0 
637.994873 132.0 
638.038269 104.0 
638.052734 95.0 
638.074463 120.0 
638.088928 111.0 
638.103394 117.0 
638.125122 110.0 
638.14679 142.0 
638.17572 115.0 
638.197449 74.0 
638.211914 146.0 
638.248108 98.0 
638.269836 136.0 
638.342163 4511.0 
638.392822 4174.0 
638.486938 424.0 
638.530334 185.0 
638.544861 207.0 
638.559326 248.0 
638.609985 201.0 
638.624451 171.0 
638.653381 167.0 
638.67511 120.0 
638.711304 140.0 
638.747498 131.0 
638.790955 116.0 
638.819885 131.0 
638.856079 123.0 
638.870605 123.0 
638.906799 114.0 
638.928528 98.0 
638.942993 113.0 
638.971924 96.0 
638.993652 117.0 
639.073303 119.0 
639.109558 70.0 
639.138489 120.0 
639.174683 77.0 
639.203674 138.0 
639.232666 68.0 
639.261597 74.0 
639.276062 90.0 
639.341248 1075.0 
639.377502 996.0 
639.420959 926.0 
639.486145 147.0 
639.50061 167.0 
639.544067 117.0 
639.573059 98.0 
639.587524 93.0 
639.630981 124.0 
639.652771 115.0 
639.688965 91.0 
639.710693 99.0 
639.739685 85.0 
639.75415 87.0 
639.790405 69.0 
639.804871 50.0 
639.826599 71.0 
639.862854 81.0 
639.877319 86.0 
639.92804 105.0 
639.942566 82.0 
639.964294 92.0 
639.986023 108.0 
640.007751 44.0 
640.036743 52.0 
640.072998 77.0 
640.123718 58.0 
640.145447 67.0 
640.174438 58.0 
640.225159 130.0 
640.283142 158.0 
640.297668 120.0 
640.341125 455.0 
640.355652 617.0 
640.399109 418.0 
640.420898 289.0 
640.471619 179.0 
640.50061 108.0 
640.522339 75.0 
640.544128 83.0 
640.57312 79.0 
640.594849 64.0 
640.638367 94.0 
640.674622 89.0 
640.710876 95.0 
640.725342 81.0 
640.747131 92.0 
640.76886 94.0 
640.797852 65.0 
640.819641 63.0 
640.855896 56.0 
640.877625 65.0 
640.913879 80.0 
640.950134 65.0 
640.964661 85.0 
640.993652 84.0 
641.022644 121.0 
641.073425 94.0 
641.102417 88.0 
641.13147 57.0 
641.153198 57.0 
641.174988 51.0 
641.203979 40.0 
641.232971 32.0 
641.262024 74.0 
641.291016 380.0 
641.305542 502.0 
641.320007 467.0 
641.341797 337.0 
641.356323 423.0 
641.378052 343.0 
641.42157 187.0 
641.450623 92.0 
641.486877 86.0 
641.494141 86.0 
641.537659 76.0 
641.573914 83.0 
641.624756 98.0 
641.639221 65.0 
641.653748 64.0 
641.668274 72.0 
641.697266 74.0 
641.711792 75.0 
641.726318 133.0 
641.7771 141.0 
641.813354 61.0 
641.835144 68.0 
641.84967 57.0 
641.885925 78.0 
641.914978 53.0 
641.944031 70.0 
641.958496 48.0 
641.994812 62.0 
642.009338 50.0 
642.045593 48.0 
642.06012 51.0 
642.089172 48.0 
642.147217 74.0 
642.198059 55.0 
642.212585 68.0 
642.234314 52.0 
642.24884 55.0 
642.277893 62.0 
642.306946 222.0 
642.328735 154.0 
642.357727 185.0 
642.372253 160.0 
642.401306 142.0 
642.437622 48.0 
642.452148 59.0 
642.488403 40.0 
642.517456 37.0 
642.546509 46.0 
642.561035 52.0 
642.597351 57.0 
642.64093 57.0 
642.669922 60.0 
642.713501 44.0 
642.728027 30.0 
642.75708 64.0 
642.800659 61.0 
642.836975 73.0 
642.880554 70.0 
642.91687 88.0 
642.945923 55.0 
642.989502 65.0 
643.025818 47.0 
643.040344 64.0 
643.07666 62.0 
643.091187 77.0 
643.120239 55.0 
643.163818 66.0 
643.185608 51.0 
643.200134 52.0 
643.221924 41.0 
643.23645 45.0 
643.250977 50.0 
643.272766 65.0 
643.316406 221.0 
643.345459 277.0 
643.389038 210.0 
643.418091 153.0 
643.490723 55.0 
643.512573 42.0 
643.541626 48.0 
643.556152 46.0 
643.599731 49.0 
643.621521 40.0 
643.643372 60.0 
643.672424 58.0 
643.716003 75.0 
643.759644 93.0 
643.795959 68.0 
643.832275 33.0 
643.846863 46.0 
643.868652 42.0 
643.875916 42.0 
643.890442 52.0 
643.912231 51.0 
643.941345 159.0 
643.963135 74.0 
643.992188 101.0 
644.006775 96.0 
644.035828 55.0 
644.043091 55.0 
644.06488 74.0 
644.079468 45.0 
644.101257 63.0 
644.13031 48.0 
644.17395 52.0 
644.188477 69.0 
644.232117 134.0 
644.253906 52.0 
644.28302 106.0 
644.30481 54.0 
644.341187 129.0 
644.355713 86.0 
644.377502 54.0 
644.399353 103.0 
644.406616 103.0 
644.442932 62.0 
644.472046 55.0 
644.486572 50.0 
644.530212 38.0 
644.573853 66.0 
644.595642 61.0 
644.617493 57.0 
644.632019 75.0 
644.668396 35.0 
644.682922 39.0 
644.704773 36.0 
644.719299 36.0 
644.733826 48.0 
644.777466 57.0 
644.813843 58.0 
644.842957 52.0 
644.864746 47.0 
644.89386 50.0 
644.908386 43.0 
644.922974 38.0 
644.9375 49.0 
644.973877 34.0 
645.002991 74.0 
645.032104 94.0 
645.068481 86.0 
645.083008 86.0 
645.119385 81.0 
645.163025 74.0 
645.221252 83.0 
645.250366 48.0 
645.279419 63.0 
645.308533 187.0 
645.352234 421.0 
645.381287 529.0 
645.424988 581.0 
645.446777 278.0 
645.497742 180.0 
645.519592 74.0 
645.570496 93.0 
645.606934 38.0 
645.636047 64.0 
645.657837 74.0 
645.679688 47.0 
645.701538 35.0 
645.730652 50.0 
645.745178 60.0 
645.788879 69.0 
645.832581 43.0 
645.861694 65.0 
645.898071 57.0 
645.927185 45.0 
645.941772 45.0 
645.970886 62.0 
646.014526 55.0 
646.036377 73.0 
646.050964 45.0 
646.065491 49.0 
646.101929 74.0 
646.145569 59.0 
646.167419 60.0 
646.196594 37.0 
646.240234 53.0 
646.262085 44.0 
646.291199 155.0 
646.320374 206.0 
646.349487 408.0 
646.371338 425.0 
646.393188 268.0 
646.422302 336.0 
646.45874 131.0 
646.495117 94.0 
646.516968 69.0 
646.553406 97.0 
646.60437 83.0 
646.633545 90.0 
646.640808 90.0 
646.655396 67.0 
646.677246 71.0 
646.699097 53.0 
646.720947 55.0 
646.764648 75.0 
646.786499 38.0 
646.801086 54.0 
646.8302 46.0 
646.844788 45.0 
646.866638 58.0 
646.888489 70.0 
646.910339 51.0 
646.93219 84.0 
646.954041 41.0 
646.975891 39.0 
646.997742 42.0 
647.03418 42.0 
647.05603 45.0 
647.070618 34.0 
647.099792 55.0 
647.128906 51.0 
647.158081 67.0 
647.201782 87.0 
647.23822 97.0 
647.332947 2524.0 
647.391235 4323.0 
647.42041 3491.0 
647.522461 433.0 
647.544312 388.0 
647.566162 184.0 
647.6026 210.0 
647.639099 168.0 
647.675537 164.0 
647.690125 152.0 
647.704651 117.0 
647.755737 106.0 
647.792175 136.0 
647.806763 94.0 
647.82135 78.0 
647.843201 142.0 
647.857788 129.0 
647.894226 89.0 
647.908813 116.0 
647.945251 66.0 
647.974426 74.0 
647.996277 76.0 
648.025452 80.0 
648.040039 69.0 
648.069214 80.0 
648.091125 90.0 
648.105713 80.0 
648.142151 55.0 
648.156738 58.0 
648.178589 54.0 
648.2005 29.0 
648.215088 51.0 
648.229675 52.0 
648.251526 97.0 
648.346313 1370.0 
648.382812 2627.0 
648.426575 1838.0 
648.463074 1061.0 
648.499512 368.0 
648.521423 302.0 
648.557861 184.0 
648.579773 116.0 
648.601624 165.0 
648.616211 149.0 
648.65271 142.0 
648.696472 111.0 
648.740234 71.0 
648.805908 116.0 
648.835083 82.0 
648.84967 86.0 
648.878845 90.0 
648.922668 100.0 
648.937256 77.0 
648.966431 48.0 
648.988342 59.0 
649.017517 79.0 
649.032104 91.0 
649.068604 104.0 
649.112366 147.0 
649.163452 87.0 
649.192688 133.0 
649.214539 62.0 
649.23645 72.0 
649.258362 147.0 
649.316711 199.0 
649.375122 843.0 
649.411621 662.0 
649.426208 518.0 
649.440796 522.0 
649.491943 161.0 
649.528442 113.0 
649.557617 119.0 
649.60144 88.0 
649.630615 92.0 
649.637939 92.0 
649.681702 49.0 
649.703613 106.0 
649.732849 56.0 
649.747437 64.0 
649.783936 74.0 
649.813171 47.0 
649.835083 62.0 
649.856934 72.0 
649.908081 84.0 
649.922668 65.0 
649.959167 57.0 
650.010315 144.0 
650.032227 51.0 
650.061462 161.0 
650.083313 95.0 
650.105225 89.0 
650.141785 104.0 
650.178284 83.0 
650.185608 83.0 
650.222107 75.0 
650.251343 84.0 
650.273254 77.0 
650.295166 78.0 
650.331665 110.0 
650.368225 253.0 
650.404724 261.0 
650.448547 267.0 
650.477783 126.0 
650.499695 136.0 
650.550842 85.0 
650.609253 85.0 
650.645813 72.0 
650.69696 115.0 
650.748108 95.0 
650.784668 57.0 
650.813843 65.0 
650.835815 42.0 
650.86499 97.0 
650.886963 53.0 
650.916199 61.0 
650.930786 50.0 
650.952698 49.0 
650.967346 46.0 
650.981934 75.0 
651.011169 59.0 
651.033081 72.0 
651.055054 52.0 
651.069641 49.0 
651.091553 39.0 
651.120789 26.0 
651.142761 37.0 
651.157349 38.0 
651.186584 36.0 
651.208496 46.0 
651.25238 74.0 
651.274292 38.0 
651.281616 38.0 
651.340088 169.0 
651.362 65.0 
651.376648 79.0 
651.405884 86.0 
651.420532 84.0 
651.442444 59.0 
651.464355 81.0 
651.486328 84.0 
651.493652 84.0 
651.50824 73.0 
651.537476 72.0 
651.566711 99.0 
651.610596 74.0 
651.65448 87.0 
651.698364 91.0 
651.7276 73.0 
651.749512 53.0 
651.771484 44.0 
651.793396 42.0 
651.851929 51.0 
651.859253 51.0 
651.888489 84.0 
651.932373 46.0 
651.954285 56.0 
651.968933 63.0 
651.990845 47.0 
651.998169 47.0 
652.020142 63.0 
652.056702 69.0 
652.07135 51.0 
652.100586 70.0 
652.115234 48.0 
652.129822 27.0 
652.159119 48.0 
652.166443 48.0 
652.195679 77.0 
652.239563 34.0 
652.26886 55.0 
652.298096 37.0 
652.312744 28.0 
652.327332 25.0 
652.34198 26.0 
652.363953 79.0 
652.400513 106.0 
652.42981 100.0 
652.459045 52.0 
652.488342 89.0 
652.532227 76.0 
652.568787 52.0 
652.576111 52.0 
652.605408 33.0 
652.612732 33.0 
652.649292 43.0 
652.678589 48.0 
652.693176 47.0 
652.722473 53.0 
652.744446 40.0 
652.795654 54.0 
652.817627 38.0 
652.832214 37.0 
652.846863 42.0 
652.861511 41.0 
652.890808 30.0 
652.91272 46.0 
652.942017 33.0 
652.963989 41.0 
652.978638 33.0 
653.007874 36.0 
653.044495 75.0 
653.073792 58.0 
653.125 61.0 
653.154297 54.0 
653.17627 56.0 
653.205566 67.0 
653.227478 52.0 
653.256775 77.0 
653.315369 638.0 
653.330017 542.0 
653.359314 610.0 
653.381226 650.0 
653.403198 353.0 
653.461792 91.0 
653.483765 59.0 
653.52771 68.0 
653.549683 78.0 
653.593628 74.0 
653.630188 93.0 
653.659485 60.0 
653.696106 95.0 
653.725403 65.0 
653.747375 47.0 
653.776672 50.0 
653.798645 55.0 
653.827942 39.0 
653.849915 60.0 
653.871887 49.0 
653.908508 60.0 
653.952454 45.0 
653.967102 35.0 
654.018372 63.0 
654.047668 41.0 
654.069702 39.0 
654.098999 49.0 
654.113647 45.0 
654.150269 70.0 
654.179565 48.0 
654.194214 77.0 
654.238159 74.0 
654.260132 74.0 
654.311462 289.0 
654.333435 300.0 
654.362732 207.0 
654.384705 269.0 
654.414001 206.0 
654.42865 136.0 
654.509277 92.0 
654.553223 73.0 
654.582581 61.0 
654.604553 50.0 
654.619202 47.0 
654.63385 53.0 
654.670532 50.0 
654.685181 49.0 
654.707153 43.0 
654.73645 24.0 
654.751099 24.0 
654.773132 60.0 
654.824402 45.0 
654.861084 52.0 
654.890381 42.0 
654.905029 37.0 
654.949036 65.0 
654.993042 49.0 
655.022339 58.0 
655.066345 50.0 
655.088318 60.0 
655.125 51.0 
655.139648 45.0 
655.161621 65.0 
655.205627 112.0 
655.2276 82.0 
655.256958 344.0 
655.352295 15187.0 
655.403625 13254.0 
655.557617 476.0 
655.572266 543.0 
655.623596 383.0 
655.667603 235.0 
655.704285 236.0 
655.733643 172.0 
655.755615 203.0 
655.784973 191.0 
655.836304 180.0 
655.88031 165.0 
655.931702 177.0 
655.953674 128.0 
655.968384 129.0 
656.005066 129.0 
656.019714 149.0 
656.041748 144.0 
656.071106 159.0 
656.093079 129.0 
656.122437 204.0 
656.14447 176.0 
656.195801 235.0 
656.225159 174.0 
656.239807 247.0 
656.269165 164.0 
656.357239 7428.0 
656.401245 6857.0 
656.423279 5616.0 
656.548035 345.0 
656.577393 338.0 
656.628784 331.0 
656.643494 308.0 
656.6875 190.0 
656.702209 215.0 
656.724182 202.0 
656.738892 191.0 
656.753601 157.0 
656.790283 164.0 
656.804932 165.0 
656.841675 149.0 
656.863708 132.0 
656.878357 132.0 
656.922424 203.0 
656.951782 206.0 
656.966492 176.0 
656.98114 190.0 
657.010498 135.0 
657.039917 191.0 
657.098633 182.0 
657.120667 161.0 
657.135315 96.0 
657.179382 163.0 
657.201416 168.0 
657.245483 224.0 
657.274841 180.0 
657.355652 2245.0 
657.3703 2179.0 
657.38501 2026.0 
657.407043 2192.0 
657.421753 1949.0 
657.473145 636.0 
657.502502 317.0 
657.539246 171.0 
657.553955 224.0 
657.583313 142.0 
657.598022 120.0 
657.62738 153.0 
657.649414 146.0 
657.678833 97.0 
657.708191 133.0 
657.730225 100.0 
657.759644 203.0 
657.789001 169.0 
657.803711 128.0 
657.825745 141.0 
657.855103 128.0 
657.884521 96.0 
657.906555 92.0 
657.921265 130.0 
657.950623 150.0 
657.980042 102.0 
658.009399 131.0 
658.031433 148.0 
658.060852 92.0 
658.104919 137.0 
658.134338 102.0 
658.163696 141.0 
658.207825 132.0 
658.222534 82.0 
658.244568 68.0 
658.259277 68.0 
658.281311 111.0 
658.318054 180.0 
658.332764 231.0 
658.362122 589.0 
658.376831 399.0 
658.398865 390.0 
658.428284 609.0 
658.472412 175.0 
658.509155 168.0 
658.553223 126.0 
658.582642 107.0 
658.619385 90.0 
658.641479 92.0 
658.685547 77.0 
658.737 68.0 
658.751709 68.0 
658.766418 74.0 
658.803162 64.0 
658.84729 97.0 
658.869385 80.0 
658.898743 110.0 
658.935547 95.0 
658.979675 100.0 
659.016418 86.0 
659.060547 121.0 
659.104675 50.0 
659.126709 54.0 
659.148804 73.0 
659.200256 60.0 
659.229675 76.0 
659.266418 99.0 
659.325256 205.0 
659.347351 212.0 
659.37677 152.0 
659.391479 184.0 
659.420898 156.0 
659.450317 70.0 
659.465027 77.0 
659.509155 75.0 
659.538574 65.0 
659.560669 83.0 
659.575378 69.0 
659.604797 58.0 
659.626892 67.0 
659.641602 64.0 
659.656311 51.0 
659.671021 53.0 
659.68573 47.0 
659.707825 95.0 
659.751953 84.0 
659.773987 86.0 
659.803467 80.0 
659.818176 83.0 
659.854919 122.0 
659.891724 82.0 
659.906433 63.0 
659.921143 91.0 
659.950623 84.0 
659.994751 80.0 
660.031555 109.0 
660.046265 87.0 
660.083069 134.0 
660.105164 86.0 
660.127197 71.0 
660.156677 42.0 
660.171387 48.0 
660.186096 58.0 
660.200806 67.0 
660.2229 54.0 
660.23761 54.0 
660.267029 99.0 
660.303833 107.0 
660.318604 98.0 
660.340637 84.0 
660.355347 91.0 
660.392151 148.0 
660.43634 92.0 
660.48053 94.0 
660.509949 61.0 
660.532043 67.0 
660.561462 104.0 
660.613037 93.0 
660.649841 47.0 
660.664551 50.0 
660.671936 50.0 
660.701355 50.0 
660.72345 70.0 
660.738159 69.0 
660.75293 79.0 
660.767639 85.0 
660.789734 81.0 
660.804443 77.0 
660.819153 55.0 
660.841248 54.0 
660.863342 62.0 
660.885437 47.0 
660.922241 88.0 
660.973816 52.0 
660.995911 85.0 
661.025391 66.0 
661.06958 101.0 
661.08429 116.0 
661.11377 52.0 
661.128479 51.0 
661.157959 111.0 
661.187378 44.0 
661.209473 74.0 
661.231567 59.0 
661.268433 86.0 
661.312622 102.0 
661.349426 49.0 
661.371521 102.0 
661.393616 66.0 
661.41571 98.0 
661.452576 68.0 
661.47467 43.0 
661.51886 69.0 
661.53363 44.0 
661.54834 39.0 
661.563049 47.0 
661.585205 66.0 
661.63678 64.0 
661.651489 51.0 
661.695679 67.0 
661.717773 46.0 
661.762024 86.0 
661.813599 84.0 
661.843079 89.0 
661.857788 81.0 
661.879883 37.0 
661.902039 52.0 
661.931519 73.0 
661.946228 71.0 
661.983093 55.0 
662.005188 38.0 
662.034668 71.0 
662.071533 50.0 
662.108398 54.0 
662.137878 40.0 
662.174683 141.0 
662.204224 119.0 
662.248413 189.0 
662.270508 77.0 
662.300049 85.0 
662.329529 35.0 
662.344238 44.0 
662.366394 44.0 
662.403198 47.0 
662.417969 50.0 
662.440063 67.0 
662.491699 59.0 
662.50647 67.0 
662.550659 67.0 
662.580139 81.0 
662.602295 39.0 
662.62439 63.0 
662.653931 31.0 
662.676025 47.0 
662.69812 30.0 
662.712891 38.0 
662.720276 38.0 
662.734985 32.0 
662.757141 41.0 
662.779236 42.0 
662.808777 39.0 
662.823486 42.0 
662.853027 42.0 
662.867737 39.0 
662.904602 53.0 
662.919373 48.0 
662.941467 73.0 
662.978394 57.0 
663.000488 57.0 
663.015259 48.0 
663.044739 62.0 
663.066895 43.0 
663.088989 35.0 
663.11853 40.0 
663.14801 51.0 
663.162781 37.0 
663.17749 44.0 
663.192261 44.0 
663.243896 52.0 
663.280823 59.0 
663.317688 138.0 
663.325073 138.0 
663.361938 179.0 
663.384094 258.0 
663.428345 186.0 
663.4505 70.0 
663.46521 76.0 
663.509521 53.0 
663.575928 65.0 
663.627563 69.0 
663.671814 54.0 
663.69397 51.0 
663.723511 40.0 
663.752991 63.0 
663.789917 56.0 
663.804688 46.0 
663.826782 38.0 
663.848938 53.0 
663.871094 72.0 
663.922729 72.0 
663.944885 44.0 
663.967041 67.0 
663.996521 66.0 
664.011292 44.0 
664.026062 48.0 
664.077759 59.0 
664.099915 50.0 
664.122009 70.0 
664.15155 42.0 
664.195862 78.0 
664.218018 62.0 
664.240173 83.0 
664.262268 74.0 
664.284424 45.0 
664.299194 63.0 
664.350891 55.0 
664.373047 143.0 
664.417358 131.0 
664.454224 108.0 
664.476379 122.0 
664.528076 82.0 
664.550232 54.0 
664.565002 65.0 
664.579773 47.0 
664.594543 43.0 
664.616699 50.0 
664.638855 51.0 
664.683167 47.0 
664.720093 54.0 
664.779175 50.0 
664.801331 42.0 
664.830872 38.0 
664.867798 57.0 
664.912109 73.0 
664.94165 64.0 
664.963806 40.0 
664.978577 49.0 
665.000732 40.0 
665.015503 41.0 
665.030273 47.0 
665.059814 25.0 
665.104126 47.0 
665.141113 57.0 
665.185425 48.0 
665.207581 47.0 
665.237122 46.0 
665.251892 39.0 
665.281433 50.0 
665.296204 114.0 
665.377502 2855.0 
665.392273 3068.0 
665.407043 3254.0 
665.444031 2710.0 
665.569641 253.0 
665.584412 159.0 
665.599182 137.0 
665.613953 171.0 
665.628723 161.0 
665.66571 102.0 
665.680481 99.0 
665.695251 98.0 
665.724792 116.0 
665.76178 126.0 
665.791321 75.0 
665.835693 80.0 
665.857849 108.0 
665.902222 71.0 
665.931763 45.0 
665.953918 42.0 
665.976135 62.0 
665.998291 70.0 
666.042664 81.0 
666.07959 74.0 
666.09436 70.0 
666.123962 73.0 
666.146118 82.0 
666.16095 66.0 
666.183105 64.0 
666.197876 73.0 
666.234863 63.0 
666.286621 76.0 
666.323608 299.0 
666.345764 465.0 
666.404907 1349.0 
666.44928 1162.0 
666.493652 413.0 
666.523254 292.0 
666.552795 139.0 
666.604553 152.0 
666.634155 93.0 
666.648926 91.0 
666.685913 76.0 
666.737671 85.0 
666.774658 101.0 
666.811646 86.0 
666.848633 107.0 
666.87085 70.0 
666.88562 58.0 
666.915222 47.0 
666.937439 57.0 
666.96698 81.0 
666.981812 91.0 
667.055786 93.0 
667.092773 91.0 
667.151978 79.0 
667.166748 49.0 
667.181519 60.0 
667.19635 67.0 
667.218506 105.0 
667.240723 76.0 
667.270325 158.0 
667.292542 129.0 
667.314697 129.0 
667.336914 171.0 
667.359131 208.0 
667.388733 465.0 
667.433105 341.0 
667.455322 293.0 
667.477539 210.0 
667.514526 141.0 
667.558899 66.0 
667.595947 49.0 
667.610718 46.0 
667.625549 80.0 
667.662537 51.0 
667.677368 72.0 
667.70697 85.0 
667.729126 61.0 
667.766174 45.0 
667.788391 48.0 
667.817993 68.0 
667.832764 66.0 
667.891968 49.0 
667.936401 91.0 
667.97345 96.0 
668.003052 68.0 
668.017822 82.0 
668.054871 56.0 
668.069641 53.0 
668.099304 51.0 
668.136292 79.0 
668.180725 84.0 
668.18811 84.0 
668.210327 81.0 
668.232544 54.0 
668.247375 55.0 
668.269592 61.0 
668.284363 119.0 
668.336243 50.0 
668.351013 68.0 
668.365845 73.0 
668.402893 107.0 
668.432495 87.0 
668.469543 119.0 
668.506531 51.0 
668.543579 86.0 
668.588013 63.0 
668.617615 41.0 
668.639893 44.0 
668.662109 60.0 
668.691711 40.0 
668.721313 61.0 
668.743591 75.0 
668.773193 72.0 
668.817627 41.0 
668.84729 81.0 
668.862061 54.0 
668.876892 99.0 
668.928772 162.0 
668.958374 47.0 
669.002869 116.0 
669.025085 60.0 
669.054688 67.0 
669.069519 57.0 
669.084351 53.0 
669.099182 48.0 
669.113953 52.0 
669.13623 41.0 
669.158447 62.0 
669.188049 34.0 
669.210327 64.0 
669.225098 65.0 
669.284424 52.0 
669.306641 51.0 
669.343689 86.0 
669.365906 77.0 
669.380737 53.0 
669.4104 88.0 
669.440002 83.0 
669.46228 41.0 
669.484497 60.0 
669.558594 81.0 
669.588257 51.0 
669.610474 38.0 
669.640137 49.0 
669.677185 63.0 
669.714294 94.0 
669.758728 71.0 
669.788391 36.0 
669.803223 82.0 
669.855103 51.0 
669.884766 50.0 
669.936646 46.0 
669.951477 43.0 
669.98114 38.0 
670.003418 42.0 
670.062683 63.0 
670.099792 50.0 
670.122009 50.0 
670.166504 56.0 
670.203613 131.0 
670.22583 36.0 
670.255493 97.0 
670.277771 46.0 
670.299988 65.0 
670.329651 51.0 
670.359314 68.0 
670.403809 44.0 
670.41864 42.0 
670.440918 50.0 
670.463135 38.0 
670.500244 49.0 
670.515076 73.0 
670.544739 52.0 
670.567017 58.0 
670.59668 42.0 
670.618896 55.0 
670.656006 37.0 
670.670837 57.0 
670.707947 58.0 
670.73761 42.0 
670.767273 37.0 
670.789551 40.0 
670.811768 46.0 
670.848877 74.0 
670.87854 61.0 
670.908264 86.0 
670.945312 56.0 
671.012085 46.0 
671.034363 34.0 
671.071472 59.0 
671.123413 64.0 
671.138245 61.0 
671.160522 45.0 
671.167908 45.0 
671.205017 70.0 
671.227295 40.0 
671.242126 44.0 
671.256958 31.0 
671.279236 82.0 
671.316345 276.0 
671.346069 241.0 
671.390564 246.0 
671.412842 106.0 
671.449951 58.0 
671.464783 57.0 
671.479614 86.0 
671.52417 76.0 
671.561279 51.0 
671.591003 56.0 
671.642944 69.0 
671.672607 52.0 
671.694885 73.0 
671.717163 38.0 
671.754272 43.0 
671.769165 50.0 
671.783997 46.0 
671.821106 40.0 
671.828552 40.0 
671.85083 46.0 
671.873108 55.0 
671.895386 57.0 
671.925049 58.0 
671.954773 56.0 
671.991882 72.0 
671.999329 72.0 
672.028992 43.0 
672.05127 47.0 
672.066162 82.0 
672.08844 56.0 
672.103271 42.0 
672.118103 44.0 
672.132996 44.0 
672.155273 62.0 
672.192383 29.0 
672.214661 53.0 
672.236938 48.0 
672.259216 32.0 
672.281494 36.0 
672.303772 90.0 
672.333496 164.0 
672.370605 191.0 
672.415161 201.0 
672.437439 42.0 
672.467163 160.0 
672.511719 85.0 
672.548889 42.0 
672.556335 42.0 
672.578613 47.0 
672.600891 36.0 
672.638062 43.0 
672.652893 36.0 
672.682617 48.0 
672.704895 41.0 
672.734619 51.0 
672.749451 39.0 
672.764343 40.0 
672.808899 60.0 
672.838623 34.0 
672.868347 43.0 
672.898071 56.0 
672.927795 44.0 
672.979797 70.0 
673.031799 57.0 
673.076416 88.0 
673.091248 80.0 
673.10614 45.0 
673.128418 72.0 
673.165588 48.0 
673.173035 48.0 
673.202759 74.0 
673.247314 205.0 
673.299377 837.0 
673.358826 20574.0 
673.418274 17114.0 
673.544678 840.0 
673.581848 752.0 
673.619019 534.0 
673.641296 538.0 
673.685913 337.0 
673.723083 382.0 
673.760254 309.0 
673.797424 254.0 
673.819702 201.0 
673.834595 242.0 
673.871765 213.0 
673.90155 160.0 
673.916382 161.0 
673.938721 222.0 
673.975891 199.0 
674.020508 220.0 
674.065125 143.0 
674.087402 239.0 
674.117188 260.0 
674.13208 212.0 
674.146912 239.0 
674.161804 273.0 
674.184082 217.0 
674.198975 229.0 
674.221313 226.0 
674.26593 225.0 
674.303101 510.0 
674.36261 11512.0 
674.377502 10722.0 
674.422119 9075.0 
674.563477 491.0 
674.585815 474.0 
674.600647 453.0 
674.637878 316.0 
674.667603 337.0 
674.71228 219.0 
674.749451 187.0 
674.801575 274.0 
674.823853 191.0 
674.846191 210.0 
674.875977 288.0 
674.920593 210.0 
674.935486 220.0 
674.957825 176.0 
675.009888 200.0 
675.091797 178.0 
675.136414 233.0 
675.181091 139.0 
675.240601 222.0 
675.262939 196.0 
675.277832 188.0 
675.359741 3065.0 
675.396912 3123.0 
675.426697 2816.0 
675.50116 482.0 
675.516052 423.0 
675.523499 423.0 
675.553284 213.0 
675.568176 198.0 
675.597961 197.0 
675.6203 204.0 
675.657532 180.0 
675.687317 178.0 
675.73938 144.0 
675.754272 154.0 
675.791504 173.0 
675.828735 207.0 
675.858521 141.0 
675.903259 139.0 
675.933044 106.0 
675.955383 110.0 
675.985168 128.0 
676.007507 137.0 
676.037292 132.0 
676.089417 135.0 
676.119202 158.0 
676.134094 148.0 
676.163879 147.0 
676.186218 185.0 
676.216003 128.0 
676.260742 102.0 
676.283081 138.0 
676.30542 167.0 
676.327759 308.0 
676.350098 560.0 
676.379883 599.0 
676.394836 555.0 
676.424622 539.0 
676.44696 463.0 
676.476746 167.0 
676.506531 180.0 
676.543823 148.0 
676.566162 113.0 
676.588501 201.0 
676.63324 126.0 
676.648132 157.0 
676.663025 136.0 
676.677917 135.0 
676.700256 102.0 
676.730103 160.0 
676.752441 94.0 
676.77478 135.0 
676.819519 109.0 
676.841858 118.0 
676.871643 72.0 
676.894043 97.0 
676.931274 91.0 
676.983459 97.0 
677.013245 63.0 
677.028137 83.0 
677.050537 95.0 
677.072876 100.0 
677.117615 87.0 
677.139954 126.0 
677.1698 103.0 
677.192139 94.0 
677.214478 125.0 
677.236877 91.0 
677.289062 95.0 
677.318848 52.0 
677.35614 140.0 
677.400879 156.0 
677.438171 175.0 
677.475403 178.0 
677.527588 81.0 
677.549988 78.0 
677.56488 81.0 
677.602173 66.0 
677.632019 95.0 
677.684204 77.0 
677.706543 108.0 
677.728943 85.0 
677.766235 68.0 
677.803528 80.0 
677.848267 85.0 
677.907898 97.0 
677.94519 113.0 
677.960083 77.0 
677.975037 83.0 
677.989929 70.0 
678.027222 63.0 
678.049622 66.0 
678.07196 63.0 
678.101807 74.0 
678.124207 46.0 
678.154053 64.0 
678.206238 72.0 
678.236084 37.0 
678.258484 76.0 
678.273376 73.0 
678.28833 71.0 
678.303223 59.0 
678.333069 72.0 
678.340515 72.0 
678.362915 65.0 
678.415161 65.0 
678.430054 90.0 
678.467346 53.0 
678.489746 53.0 
678.519592 68.0 
678.549438 55.0 
678.586731 72.0 
678.624023 74.0 
678.661377 50.0 
678.698669 57.0 
678.735962 48.0 
678.758362 42.0 
678.780762 50.0 
678.803162 70.0 
678.810608 70.0 
678.825562 67.0 
678.855408 91.0 
678.877747 75.0 
678.900146 82.0 
678.922546 91.0 
678.952393 56.0 
678.967346 59.0 
678.997192 66.0 
679.019592 107.0 
679.027039 107.0 
679.056885 111.0 
679.094238 124.0 
679.124084 72.0 
679.153931 49.0 
679.176331 58.0 
679.213684 73.0 
679.280823 74.0 
679.295776 73.0 
679.35553 91.0 
679.385376 59.0 
679.407776 74.0 
679.452576 81.0 
679.489868 102.0 
679.542175 70.0 
679.564575 48.0 
679.586975 51.0 
679.631775 79.0 
679.654175 54.0 
679.684021 75.0 
679.706421 87.0 
679.736328 41.0 
679.751221 71.0 
679.773682 53.0 
679.788574 59.0 
679.796082 59.0 
679.810974 54.0 
679.840881 63.0 
679.848328 63.0 
679.870728 89.0 
679.893127 54.0 
679.908081 65.0 
679.945435 91.0 
679.960388 103.0 
679.997742 72.0 
680.027588 54.0 
680.049988 70.0 
680.072388 67.0 
680.109741 64.0 
680.147095 96.0 
680.199402 130.0 
680.214355 114.0 
680.236755 58.0 
680.266663 58.0 
680.281555 83.0 
680.311462 51.0 
680.326416 66.0 
680.356262 90.0 
680.371216 136.0 
680.416077 134.0 
680.445923 63.0 
680.468384 87.0 
680.490784 78.0 
680.520691 64.0 
680.543091 76.0 
680.565491 63.0 
680.595398 52.0 
680.625305 86.0 
680.670105 88.0 
680.707458 110.0 
680.759827 40.0 
680.782227 102.0 
680.804626 55.0 
680.856934 53.0 
680.879395 38.0 
680.909302 53.0 
680.924255 68.0 
680.976562 79.0 
680.998962 34.0 
681.013916 46.0 
681.043823 38.0 
681.058777 39.0 
681.088684 41.0 
681.103638 56.0 
681.118591 93.0 
681.170898 127.0 
681.223206 102.0 
681.238159 83.0 
681.275574 72.0 
681.335388 89.0 
681.372742 79.0 
681.387695 67.0 
681.440063 117.0 
681.484924 76.0 
681.522339 105.0 
681.5672 68.0 
681.597107 86.0 
681.612061 57.0 
681.63446 65.0 
681.649414 57.0 
681.664368 60.0 
681.679382 100.0 
681.701782 39.0 
681.724243 103.0 
681.746643 78.0 
681.799011 75.0 
681.843872 87.0 
681.903748 64.0 
681.926147 53.0 
681.963562 48.0 
682.000977 62.0 
682.045837 105.0 
682.075745 36.0 
682.098206 63.0 
682.128113 61.0 
682.195496 66.0 
682.240356 75.0 
682.277771 57.0 
682.330139 87.0 
682.3526 39.0 
682.375061 40.0 
682.397461 57.0 
682.442383 72.0 
682.487305 30.0 
682.532166 38.0 
682.554626 53.0 
682.577087 56.0 
682.584534 56.0 
682.621948 76.0 
682.636963 62.0 
682.66687 92.0 
682.696838 69.0 
682.719299 58.0 
682.741699 39.0 
682.76416 50.0 
682.794128 53.0 
682.83905 42.0 
682.876465 49.0 
682.906372 63.0 
682.951294 54.0 
682.981262 40.0 
682.996216 57.0 
683.03363 56.0 
683.078552 62.0 
683.101013 51.0 
683.145935 40.0 
683.18335 33.0 
683.205811 52.0 
683.228271 108.0 
683.250732 58.0 
683.273193 94.0 
683.318115 147.0 
683.393005 2337.0 
683.415466 1869.0 
683.467896 2199.0 
683.512817 555.0 
683.580261 160.0 
683.610168 108.0 
683.640137 121.0 
683.692566 126.0 
683.70752 70.0 
683.730042 83.0 
683.759949 152.0 
683.804932 73.0 
683.8349 88.0 
683.857361 74.0 
683.887329 88.0 
683.924744 60.0 
683.954712 78.0 
683.999695 57.0 
684.022156 72.0 
684.082092 73.0 
684.0896 73.0 
684.142029 63.0 
684.171997 60.0 
684.194458 60.0 
684.246887 77.0 
684.269409 43.0 
684.29187 82.0 
684.321838 105.0 
684.344299 235.0 
684.381775 908.0 
684.411743 1291.0 
684.449219 1413.0 
684.494202 674.0 
684.554138 134.0 
684.576599 117.0 
684.614075 160.0 
684.659058 170.0 
684.689026 86.0 
684.719055 92.0 
684.763977 103.0 
684.786499 87.0 
684.801453 94.0 
684.816467 66.0 
684.846436 94.0 
684.876465 45.0 
684.91394 73.0 
684.928894 57.0 
684.943909 62.0 
684.958923 72.0 
685.003906 52.0 
685.01886 62.0 
685.033875 98.0 
685.063843 65.0 
685.086365 59.0 
685.108826 63.0 
685.131348 59.0 
685.161316 85.0 
685.183838 86.0 
685.221313 82.0 
685.236328 61.0 
685.258789 72.0 
685.273804 83.0 
685.303772 71.0 
685.326294 72.0 
685.36377 117.0 
685.378784 190.0 
685.401245 341.0 
685.41626 277.0 
685.431274 319.0 
685.476257 351.0 
685.498779 183.0 
685.55127 74.0 
685.57373 69.0 
685.596252 68.0 
685.618774 69.0 
685.633728 95.0 
685.663757 88.0 
685.716248 60.0 
685.761292 70.0 
685.783752 73.0 
685.79126 73.0 
685.813782 40.0 
685.836304 79.0 
685.873779 47.0 
685.888794 37.0 
685.911316 68.0 
685.933777 69.0 
685.963806 81.0 
686.001343 124.0 
686.053833 67.0 
686.076355 75.0 
686.113831 69.0 
686.151367 57.0 
686.196411 72.0 
686.233887 83.0 
686.263916 60.0 
686.278931 69.0 
686.301453 90.0 
686.338928 58.0 
686.368958 112.0 
686.414001 184.0 
686.466553 155.0 
686.504028 75.0 
686.55658 41.0 
686.579102 65.0 
686.616638 47.0 
686.631653 94.0 
686.654175 42.0 
686.669189 57.0 
686.706726 117.0 
686.75177 59.0 
686.766785 46.0 
686.796753 61.0 
686.83429 16.0 
686.864319 30.0 
686.886841 39.0 
686.901855 26.0 
686.931885 50.0 
686.954407 29.0 
686.969421 37.0 
686.991943 39.0 
687.006958 34.0 
687.036987 27.0 
687.074524 64.0 
687.104614 80.0 
687.127136 49.0 
687.149658 60.0 
687.17218 74.0 
687.202209 61.0 
687.232239 64.0 
687.269775 51.0 
687.28479 40.0 
687.329834 91.0 
687.367371 104.0 
687.397461 128.0 
687.404968 128.0 
687.442505 165.0 
687.480042 108.0 
687.532593 87.0 
687.555176 50.0 
687.585205 52.0 
687.607727 51.0 
687.622742 51.0 
687.637756 54.0 
687.697876 72.0 
687.705383 72.0 
687.720398 44.0 
687.74292 57.0 
687.77301 76.0 
687.810547 69.0 
687.848083 60.0 
687.878174 70.0 
687.908203 40.0 
687.94574 48.0 
687.960815 54.0 
687.97583 55.0 
687.998352 55.0 
688.03595 57.0 
688.065979 44.0 
688.096008 38.0 
688.103577 38.0 
688.111084 38.0 
688.133606 41.0 
688.141113 41.0 
688.163635 38.0 
688.178711 43.0 
688.216248 64.0 
688.231262 48.0 
688.246338 56.0 
688.261353 60.0 
688.283875 35.0 
688.306458 48.0 
688.336487 46.0 
688.351501 66.0 
688.389099 50.0 
688.404114 45.0 
688.426697 47.0 
688.449219 31.0 
688.464233 35.0 
688.494324 37.0 
688.509338 40.0 
688.546936 29.0 
688.576965 45.0 
688.607056 25.0 
688.637146 38.0 
688.674683 77.0 
688.704773 34.0 
688.727356 37.0 
688.749878 47.0 
688.787476 68.0 
688.809998 64.0 
688.832581 48.0 
688.862671 39.0 
688.885193 71.0 
688.930298 65.0 
688.952881 38.0 
688.967896 55.0 
688.98291 60.0 
689.013 62.0 
689.035583 47.0 
689.058105 35.0 
689.088196 55.0 
689.10321 35.0 
689.118286 54.0 
689.140808 52.0 
689.170898 47.0 
689.193481 38.0 
689.208496 32.0 
689.231079 35.0 
689.276184 73.0 
689.313782 42.0 
689.343872 81.0 
689.373962 109.0 
689.396484 200.0 
689.419067 49.0 
689.449158 166.0 
689.494263 85.0 
689.516846 47.0 
689.539429 72.0 
689.554443 82.0 
689.584534 58.0 
689.599609 65.0 
689.622131 44.0 
689.644714 55.0 
689.674805 35.0 
689.704895 40.0 
689.719971 44.0 
689.734985 44.0 
689.757568 40.0 
689.772583 43.0 
689.780151 43.0 
689.802673 53.0 
689.825256 54.0 
689.847839 53.0 
689.870422 71.0 
689.915527 30.0 
689.930603 55.0 
689.975708 67.0 
689.998291 58.0 
690.013367 78.0 
690.058472 79.0 
690.09613 45.0 
690.111145 36.0 
690.133728 43.0 
690.171387 57.0 
690.216553 41.0 
690.239075 49.0 
690.269226 61.0 
690.329407 207.0 
690.359497 126.0 
690.38208 65.0 
690.397156 168.0 
690.427246 83.0 
690.449829 59.0 
690.472412 33.0 
690.494995 68.0 
690.532593 82.0 
690.547668 78.0 
690.570251 70.0 
690.577759 70.0 
690.600342 58.0 
690.615417 48.0 
690.645508 47.0 
690.653076 47.0 
690.683167 82.0 
690.713257 93.0 
690.758423 91.0 
690.796082 42.0 
690.826172 40.0 
690.856323 60.0 
690.871399 56.0 
690.893982 62.0 
690.924072 44.0 
690.954224 43.0 
690.969238 48.0 
690.984314 45.0 
691.006897 57.0 
691.02948 41.0 
691.052063 55.0 
691.097229 108.0 
691.134888 77.0 
691.172546 91.0 
691.180115 91.0 
691.225281 116.0 
691.255371 155.0 
691.375916 14832.0 
691.398499 12302.0 
691.428589 13419.0 
691.534058 969.0 
691.59436 567.0 
691.647034 462.0 
691.684753 262.0 
691.707336 256.0 
691.729919 303.0 
691.782654 195.0 
691.812805 213.0 
691.842957 103.0 
691.857971 139.0 
691.880615 144.0 
691.903198 121.0 
691.925781 112.0 
691.940857 110.0 
691.978577 98.0 
692.008667 109.0 
692.031311 97.0 
692.053894 151.0 
692.06897 129.0 
692.084045 155.0 
692.114197 101.0 
692.144348 148.0 
692.166931 179.0 
692.189575 121.0 
692.212158 122.0 
692.227234 200.0 
692.24231 230.0 
692.257385 224.0 
692.287537 324.0 
692.37793 9592.0 
692.423157 8388.0 
692.558838 512.0 
692.581482 402.0 
692.611633 422.0 
692.65686 362.0 
692.702087 281.0 
692.747314 229.0 
692.777466 196.0 
692.807617 151.0 
692.822693 211.0 
692.830261 211.0 
692.860413 161.0 
692.875488 148.0 
692.898132 188.0 
692.943359 207.0 
692.965942 165.0 
692.981079 191.0 
693.003662 168.0 
693.033813 150.0 
693.056458 172.0 
693.079102 186.0 
693.109253 239.0 
693.15448 180.0 
693.199768 159.0 
693.214844 152.0 
693.237427 148.0 
693.260071 119.0 
693.282715 197.0 
693.297791 213.0 
693.312866 202.0 
693.380737 2426.0 
693.395813 1927.0 
693.426025 2140.0 
693.448608 2090.0 
693.486328 875.0 
693.55426 254.0 
693.59198 203.0 
693.607056 199.0 
693.614563 199.0 
693.644775 137.0 
693.659851 174.0 
693.682495 218.0 
693.727722 142.0 
693.77301 99.0 
693.788086 145.0 
693.825806 106.0 
693.840942 102.0 
693.863525 110.0 
693.893738 127.0 
693.923889 121.0 
693.976746 84.0 
693.991821 74.0 
694.029541 175.0 
694.074829 124.0 
694.082397 124.0 
694.127625 128.0 
694.142761 98.0 
694.172913 118.0 
694.203125 108.0 
694.225769 107.0 
694.278564 85.0 
694.323853 110.0 
694.376709 645.0 
694.399353 526.0 
694.421997 623.0 
694.452209 619.0 
694.497498 203.0 
694.557861 86.0 
694.572998 114.0 
694.610718 126.0 
694.633362 106.0 
694.67865 107.0 
694.716431 81.0 
694.746582 108.0 
694.791931 85.0 
694.807007 85.0 
694.837219 100.0 
694.859863 75.0 
694.874939 109.0 
694.890076 85.0 
694.920288 130.0 
694.958008 76.0 
694.973145 68.0 
695.003296 134.0 
695.018433 100.0 
695.056213 111.0 
695.071289 131.0 
695.101501 110.0 
695.131714 61.0 
695.169495 76.0 
695.18457 90.0 
695.199646 73.0 
695.207214 73.0 
695.244995 82.0 
695.267639 56.0 
695.297852 39.0 
695.328064 77.0 
695.365845 128.0 
695.373413 128.0 
695.403625 114.0 
695.441345 118.0 
695.471558 144.0 
695.516907 102.0 
695.539551 73.0 
695.547119 73.0 
695.577332 97.0 
695.637756 101.0 
695.66803 65.0 
695.70575 53.0 
695.720886 74.0 
695.758667 59.0 
695.804016 85.0 
695.834229 83.0 
695.856873 91.0 
695.872009 82.0 
695.894653 71.0 
695.90979 76.0 
695.924866 76.0 
695.977783 84.0 
696.015564 44.0 
696.045776 84.0 
696.068481 70.0 
696.121338 73.0 
696.174255 87.0 
696.234741 60.0 
696.264954 79.0 
696.287659 61.0 
696.340576 94.0 
696.36322 49.0 
696.385925 42.0 
696.416138 70.0 
696.438843 60.0 
696.469055 40.0 
696.491699 51.0 
696.521973 27.0 
696.529541 27.0 
696.552185 80.0 
696.582458 39.0 
696.620239 56.0 
696.642944 50.0 
696.680725 67.0 
696.695862 55.0 
696.718506 58.0 
696.756348 93.0 
696.794128 78.0 
696.839478 90.0 
696.869751 44.0 
696.892456 44.0 
696.922668 60.0 
696.945374 59.0 
696.96051 38.0 
696.983154 76.0 
697.028564 49.0 
697.058777 48.0 
697.081482 48.0 
697.111755 52.0 
697.141968 41.0 
697.164673 41.0 
697.194946 71.0 
697.225159 46.0 
697.232727 46.0 
697.240295 46.0 
697.285706 51.0 
697.315918 45.0 
697.35376 75.0 
697.368896 54.0 
697.406738 110.0 
697.459656 58.0 
697.474792 75.0 
697.505066 72.0 
697.550415 55.0 
697.580688 47.0 
697.610962 74.0 
697.648804 48.0 
697.679077 74.0 
697.686646 74.0 
697.724426 62.0 
697.739563 35.0 
697.7547 36.0 
697.769836 44.0 
697.80011 60.0 
697.84552 76.0 
697.860657 66.0 
697.883362 57.0 
697.913635 58.0 
697.928772 52.0 
697.966614 55.0 
697.989319 56.0 
698.019531 56.0 
698.064941 58.0 
698.087646 58.0 
698.110352 56.0 
698.140625 68.0 
698.155762 51.0 
698.193604 56.0 
698.223877 63.0 
698.269287 64.0 
698.291992 70.0 
698.322327 57.0 
698.345032 57.0 
698.360168 55.0 
698.375305 70.0 
698.44342 70.0 
698.481262 57.0 
698.511536 61.0 
698.526672 54.0 
698.549377 56.0 
698.602417 70.0 
698.640259 52.0 
698.685669 106.0 
698.715942 51.0 
698.731079 41.0 
698.761414 68.0 
698.784119 50.0 
698.829529 57.0 
698.844666 48.0 
698.867371 59.0 
698.897705 39.0 
698.912842 47.0 
698.943115 45.0 
698.96582 61.0 
698.980957 45.0 
699.003723 53.0 
699.033997 51.0 
699.049133 58.0 
699.087036 28.0 
699.094604 28.0 
699.11731 62.0 
699.16272 63.0 
699.185486 49.0 
699.208191 49.0 
699.230896 45.0 
699.26123 65.0 
699.306641 57.0 
699.329407 56.0 
699.35968 71.0 
699.41272 53.0 
699.435425 59.0 
699.45813 48.0 
699.480896 87.0 
699.511169 54.0 
699.526367 73.0 
699.533936 73.0 
699.579346 78.0 
699.594543 78.0 
699.624817 42.0 
699.66272 47.0 
699.685425 40.0 
699.715759 43.0 
699.723328 43.0 
699.76123 83.0 
699.821838 56.0 
699.844543 50.0 
699.86731 31.0 
699.882446 41.0 
699.920349 43.0 
699.927917 43.0 
699.96582 54.0 
700.011292 63.0 
700.041565 49.0 
700.064331 57.0 
700.109802 58.0 
700.140137 65.0 
700.162842 58.0 
700.17804 57.0 
700.208313 46.0 
700.231079 53.0 
700.253784 52.0 
700.27655 59.0 
700.306885 28.0 
700.314453 28.0 
700.337158 53.0 
700.359924 38.0 
700.375061 45.0 
700.405396 56.0 
700.443298 53.0 
700.473633 33.0 
700.48877 57.0 
700.519104 85.0 
700.549438 51.0 
700.572205 39.0 
700.587341 80.0 
700.617676 43.0 
700.663147 63.0 
700.701111 40.0 
700.731384 102.0 
700.784485 104.0 
700.814819 47.0 
700.830017 33.0 
700.845154 31.0 
700.86792 59.0 
700.905823 50.0 
700.913391 50.0 
700.966492 53.0 
700.996826 38.0 
701.004395 38.0 
701.042297 59.0 
701.072632 81.0 
701.110596 40.0 
701.14093 32.0 
701.156067 28.0 
701.186401 42.0 
701.231934 36.0 
701.262268 45.0 
701.300232 58.0 
701.3078 58.0 
701.360901 95.0 
701.398804 694.0 
701.429138 459.0 
701.444336 376.0 
701.467102 528.0 
701.520203 163.0 
701.550537 83.0 
701.565735 108.0 
701.603638 83.0 
701.634033 112.0 
701.679504 43.0 
701.694702 109.0 
701.7099 112.0 
701.725037 45.0 
701.740234 62.0 
701.770569 60.0 
701.793335 93.0 
701.823669 72.0 
701.854065 47.0 
701.876831 57.0 
701.907166 41.0 
701.9375 46.0 
701.960266 42.0 
701.99823 38.0 
702.036194 75.0 
702.074158 50.0 
702.089294 69.0 
702.112061 46.0 
702.134827 63.0 
702.172791 82.0 
702.187988 48.0 
702.203186 67.0 
702.248718 68.0 
702.271484 42.0 
702.309448 62.0 
702.332214 88.0 
702.392944 248.0 
702.41571 278.0 
702.438477 236.0 
702.461243 228.0 
702.468872 228.0 
702.499207 152.0 
702.521973 112.0 
702.552368 93.0 
702.575134 53.0 
702.590332 52.0 
702.613098 39.0 
702.635864 56.0 
702.681458 61.0 
702.719421 31.0 
702.742188 64.0 
702.78772 37.0 
702.810547 70.0 
702.825684 69.0 
702.848511 67.0 
702.901672 61.0 
702.916809 45.0 
702.947205 45.0 
702.969971 59.0 
702.992798 29.0 
703.015564 31.0 
703.068726 58.0 
703.099121 48.0 
703.121887 74.0 
703.152283 39.0 
703.16748 36.0 
703.190247 83.0 
703.220642 48.0 
703.273804 56.0 
703.289001 45.0 
703.311768 38.0 
703.342163 47.0 
703.372559 40.0 
703.395325 113.0 
703.410522 133.0 
703.43335 234.0 
703.448547 128.0 
703.478943 218.0 
703.509277 138.0 
703.585266 77.0 
703.630859 60.0 
703.676453 66.0 
703.714417 50.0 
703.729614 52.0 
703.767639 59.0 
703.775208 59.0 
703.798035 66.0 
703.820801 60.0 
703.843628 59.0 
703.874023 44.0 
703.896851 41.0 
703.919617 41.0 
703.988037 62.0 
704.003235 77.0 
704.010803 77.0 
704.041199 78.0 
704.079224 80.0 
704.094421 87.0 
704.132446 46.0 
704.155212 40.0 
704.17804 76.0 
704.216064 39.0 
704.231262 48.0 
704.269226 42.0 
704.299622 59.0 
704.345276 48.0 
704.383301 65.0 
704.413696 36.0 
704.428894 33.0 
704.451721 53.0 
704.489685 34.0 
704.512512 36.0 
704.52771 49.0 
704.573364 47.0 
704.618958 56.0 
704.641785 51.0 
704.67218 53.0 
704.702576 60.0 
704.717773 58.0 
704.755798 71.0 
704.786255 114.0 
704.831848 164.0 
704.885071 48.0 
704.961121 68.0 
704.983948 41.0 
704.991577 41.0 
705.014404 58.0 
705.029602 80.0 
705.059998 36.0 
705.075256 67.0 
705.128479 61.0 
705.143677 57.0 
705.166504 60.0 
705.196899 127.0 
705.212158 59.0 
705.227356 68.0 
705.265381 81.0 
705.326233 79.0 
705.371887 90.0 
705.402344 118.0 
705.455566 131.0 
705.501221 59.0 
705.524048 74.0 
705.539246 58.0 
705.569702 51.0 
705.592529 35.0 
705.607727 34.0 
705.622925 48.0 
705.645752 55.0 
705.676208 41.0 
705.699036 61.0 
705.74469 37.0 
705.759949 39.0 
705.797974 54.0 
705.813171 43.0 
705.82843 47.0 
705.851257 62.0 
705.881653 39.0 
705.90448 62.0 
705.957764 35.0 
705.965393 35.0 
705.980591 31.0 
705.99585 41.0 
706.011047 38.0 
706.026306 40.0 
706.041504 43.0 
706.056702 47.0 
706.087158 66.0 
706.102417 52.0 
706.132812 42.0 
706.201355 55.0 
706.231812 40.0 
706.262207 44.0 
706.285095 42.0 
706.300293 38.0 
706.338379 20.0 
706.353577 35.0 
706.384033 39.0 
706.40686 50.0 
706.452576 42.0 
706.475403 32.0 
706.483032 32.0 
706.505859 43.0 
706.528687 36.0 
706.566772 66.0 
706.604797 61.0 
706.635254 69.0 
706.680969 83.0 
706.711426 54.0 
706.741882 23.0 
706.764709 68.0 
706.795166 39.0 
706.810425 34.0 
706.833252 41.0 
706.848511 40.0 
706.871338 50.0 
706.886597 44.0 
706.909424 44.0 
706.932251 35.0 
706.94751 42.0 
706.993225 33.0 
707.000793 33.0 
707.038879 39.0 
707.046509 39.0 
707.054138 39.0 
707.076965 34.0 
707.092224 36.0 
707.13031 29.0 
707.153137 19.0 
707.183594 35.0 
707.191223 35.0 
707.229309 37.0 
707.244568 31.0 
707.259766 34.0 
707.282654 34.0 
707.305481 25.0 
707.32074 32.0 
707.335938 32.0 
707.351196 52.0 
707.374084 21.0 
707.404541 132.0 
707.442627 44.0 
707.465454 56.0 
707.495972 65.0 
707.518799 51.0 
707.549316 50.0 
707.572144 46.0 
707.587402 36.0 
707.617859 42.0 
707.633118 44.0 
707.648315 54.0 
707.70929 52.0 
707.755005 47.0 
707.770264 46.0 
707.785522 55.0 
707.815979 49.0 
707.831238 56.0 
707.861694 40.0 
707.876953 38.0 
707.884583 38.0 
707.899841 22.0 
707.915039 22.0 
707.937927 53.0 
707.953186 55.0 
707.968384 37.0 
707.983643 36.0 
707.998901 40.0 
708.006531 40.0 
708.021729 60.0 
708.029358 60.0 
708.052246 47.0 
708.075134 47.0 
708.097961 41.0 
708.11322 35.0 
708.143677 25.0 
708.174194 65.0 
708.21228 59.0 
708.21991 59.0 
708.235168 57.0 
708.258057 45.0 
708.288513 44.0 
708.303772 28.0 
708.32666 35.0 
708.349548 56.0 
708.372375 45.0 
708.402893 36.0 
708.425781 37.0 
708.448608 31.0 
708.463867 33.0 
708.509644 45.0 
708.524902 45.0 
708.555359 38.0 
708.585876 47.0 
708.608765 46.0 
708.631592 62.0 
708.65448 56.0 
708.669739 43.0 
708.684998 39.0 
708.707886 39.0 
708.745972 49.0 
708.753601 49.0 
708.791748 40.0 
708.807007 36.0 
708.829895 35.0 
708.845154 30.0 
708.860413 30.0 
708.898499 46.0 
708.921387 43.0 
708.944275 52.0 
708.974792 54.0 
709.00531 32.0 
709.028198 43.0 
709.066284 58.0 
709.112061 33.0 
709.142578 87.0 
709.180725 40.0 
709.195984 63.0 
709.211243 89.0 
709.24939 56.0 
709.272278 127.0 
709.310425 393.0 
709.379089 7011.0 
709.432495 6255.0 
709.554565 404.0 
709.607971 264.0 
709.630859 214.0 
709.646118 188.0 
709.669006 234.0 
709.684265 193.0 
709.714783 145.0 
709.737671 142.0 
709.75293 187.0 
709.775818 102.0 
709.791077 113.0 
709.829224 87.0 
709.844482 89.0 
709.88269 104.0 
709.913208 110.0 
709.958984 129.0 
709.981873 84.0 
710.004761 74.0 
710.035339 75.0 
710.088745 69.0 
710.119263 111.0 
710.15741 111.0 
710.180359 85.0 
710.203247 100.0 
710.226135 113.0 
710.249023 118.0 
710.271912 118.0 
710.378784 3954.0 
710.409363 3513.0 
710.432251 3524.0 
710.508606 822.0 
710.569702 238.0 
710.615479 176.0 
710.630798 141.0 
710.653687 184.0 
710.668945 165.0 
710.699524 168.0 
710.722412 121.0 
710.7453 82.0 
710.775879 110.0 
710.806396 88.0 
710.829285 99.0 
710.844604 130.0 
710.859863 144.0 
710.91333 103.0 
710.928589 87.0 
710.951538 103.0 
710.997314 94.0 
711.020264 90.0 
711.066101 125.0 
711.104248 77.0 
711.127197 61.0 
711.150085 106.0 
711.195923 64.0 
711.218872 75.0 
711.24939 63.0 
711.302856 141.0 
711.379272 990.0 
711.402161 944.0 
711.41748 1007.0 
711.447998 1141.0 
711.493896 549.0 
711.547363 170.0 
711.577942 167.0 
711.623779 132.0 
711.646667 103.0 
711.684875 102.0 
711.700195 97.0 
711.746033 85.0 
711.7995 72.0 
711.814819 54.0 
711.837708 50.0 
711.860657 84.0 
711.883606 69.0 
711.929443 95.0 
711.975281 117.0 
712.013489 89.0 
712.036438 58.0 
712.059387 47.0 
712.105225 70.0 
712.120544 85.0 
712.151062 57.0 
712.174011 83.0 
712.189331 70.0 
712.242798 93.0 
712.296326 112.0 
712.326904 69.0 
712.349854 66.0 
712.380432 303.0 
712.42627 251.0 
712.449219 206.0 
712.464539 249.0 
712.495117 121.0 
712.525696 121.0 
712.556274 49.0 
712.586853 68.0 
712.602173 76.0 
712.632751 86.0 
712.678589 45.0 
712.701538 65.0 
712.724487 66.0 
712.762756 128.0 
712.785706 61.0 
712.800964 85.0 
712.839233 56.0 
712.862122 46.0 
712.90802 36.0 
712.92334 42.0 
712.946289 46.0 
712.969238 50.0 
713.015137 65.0 
713.038086 50.0 
713.076294 79.0 
713.106873 76.0 
713.129822 43.0 
713.152771 47.0 
713.183411 79.0 
713.236938 49.0 
713.290466 84.0 
713.321106 54.0 
713.351685 58.0 
713.382263 79.0 
713.428223 92.0 
713.466431 69.0 
713.48175 49.0 
713.52002 53.0 
713.535278 74.0 
713.550598 104.0 
713.604187 96.0 
713.657715 62.0 
713.688354 55.0 
713.695984 55.0 
713.718933 57.0 
713.741882 50.0 
713.764893 47.0 
713.795471 67.0 
713.83374 44.0 
713.872009 55.0 
713.887329 32.0 
713.902588 28.0 
713.917908 42.0 
713.933228 42.0 
713.956177 42.0 
713.986816 34.0 
714.002136 42.0 
714.009766 42.0 
714.017395 42.0 
714.032715 61.0 
714.063354 60.0 
714.078674 67.0 
714.101624 47.0 
714.116943 54.0 
714.132263 40.0 
714.139893 40.0 
714.162842 34.0 
714.193481 60.0 
714.224121 42.0 
714.23938 61.0 
714.26239 75.0 
714.292969 79.0 
714.308289 59.0 
714.346558 48.0 
714.369568 47.0 
714.415466 50.0 
714.446106 63.0 
714.461426 59.0 
714.484375 69.0 
714.515015 92.0 
714.568604 114.0 
714.583923 62.0 
714.622192 74.0 
714.652832 39.0 
714.668152 54.0 
714.675781 54.0 
714.691101 49.0 
714.706421 65.0 
714.714111 65.0 
714.760071 73.0 
714.81366 51.0 
714.844299 35.0 
714.890259 79.0 
714.920837 66.0 
714.974487 51.0 
714.989807 58.0 
715.005127 56.0 
715.012756 56.0 
715.051086 58.0 
715.089355 48.0 
715.104675 46.0 
715.135315 57.0 
715.173645 51.0 
715.188965 67.0 
715.204285 67.0 
715.242554 25.0 
715.265564 69.0 
715.288513 34.0 
715.311523 38.0 
715.326843 45.0 
715.342163 55.0 
715.380493 48.0 
715.395813 52.0 
715.418762 57.0 
715.457092 47.0 
715.472412 47.0 
715.487732 32.0 
715.503052 55.0 
715.526062 37.0 
715.541382 50.0 
715.556702 41.0 
715.579651 43.0 
715.602661 42.0 
715.617981 49.0 
715.640991 39.0 
715.656311 43.0 
715.67926 49.0 
715.709961 50.0 
715.725281 63.0 
715.74823 60.0 
715.79425 39.0 
715.82489 33.0 
715.84021 33.0 
715.86322 43.0 
715.87854 32.0 
715.89386 29.0 
715.90918 37.0 
715.93219 19.0 
715.96283 27.0 
715.98584 51.0 
716.031799 55.0 
716.0625 29.0 
716.085449 40.0 
716.100769 34.0 
716.13147 36.0 
716.15448 59.0 
716.200439 42.0 
716.22345 40.0 
716.254089 47.0 
716.26947 49.0 
716.292419 40.0 
716.3078 55.0 
716.33075 25.0 
716.35376 37.0 
716.39209 71.0 
716.4151 31.0 
716.43811 66.0 
716.46875 47.0 
716.514771 38.0 
716.53009 47.0 
716.553101 45.0 
716.591431 63.0 
716.622131 65.0 
716.645142 63.0 
716.660461 80.0 
716.698792 34.0 
716.737122 61.0 
716.767822 51.0 
716.798462 25.0 
716.821472 36.0 
716.852173 59.0 
716.898193 45.0 
716.928894 43.0 
716.982544 67.0 
717.028564 54.0 
717.051575 40.0 
717.074585 74.0 
717.105286 53.0 
717.135925 46.0 
717.151306 43.0 
717.182007 53.0 
717.228027 65.0 
717.274048 54.0 
717.304688 45.0 
717.312378 45.0 
717.343079 21.0 
717.366089 51.0 
717.40448 51.0 
717.4505 40.0 
717.46582 49.0 
717.481201 41.0 
717.504211 50.0 
717.534851 64.0 
717.573242 45.0 
717.596252 44.0 
717.619263 50.0 
717.665344 41.0 
717.688354 65.0 
717.719055 35.0 
717.734375 36.0 
717.757385 50.0 
717.788086 40.0 
717.811096 64.0 
717.857178 64.0 
717.895569 53.0 
717.941589 77.0 
717.987671 25.0 
718.018372 38.0 
718.072083 47.0 
718.095093 47.0 
718.156494 69.0 
718.179504 54.0 
718.194885 50.0 
718.233276 157.0 
718.286987 146.0 
718.310059 31.0 
718.333069 47.0 
718.340759 47.0 
718.37146 47.0 
718.39447 60.0 
718.417542 27.0 
718.432861 26.0 
718.471252 37.0 
718.501953 72.0 
718.548035 51.0 
718.571045 78.0 
718.594116 30.0 
718.609436 43.0 
718.647827 51.0 
718.686279 51.0 
718.701599 65.0 
718.747681 46.0 
718.786072 54.0 
718.816772 40.0 
718.855225 73.0 
718.893616 31.0 
718.916626 27.0 
718.947327 48.0 
718.962708 37.0 
719.001099 53.0 
719.016479 31.0 
719.04718 45.0 
719.077942 38.0 
719.093262 50.0 
719.147034 53.0 
719.170105 38.0 
719.193176 50.0 
719.200806 50.0 
719.231567 56.0 
719.239258 56.0 
719.269958 34.0 
719.30072 42.0 
719.32373 51.0 
719.369812 66.0 
719.392883 60.0 
719.400574 60.0 
719.415955 58.0 
719.454346 36.0 
719.485046 58.0 
719.508118 33.0 
719.531189 32.0 
719.538879 32.0 
719.554199 46.0 
719.56958 48.0 
719.592651 31.0 
719.608032 30.0 
719.631042 70.0 
719.661804 25.0 
719.677185 39.0 
719.684875 39.0 
719.707886 53.0 
719.746338 46.0 
719.754028 46.0 
719.777039 38.0 
719.80011 67.0 
719.869263 47.0 
719.915405 48.0 
719.953796 38.0 
719.976868 31.0 
720.01532 65.0 
720.046082 29.0 
720.061401 39.0 
720.076782 39.0 
720.092163 54.0 
720.122925 49.0 
720.138306 52.0 
720.222839 55.0 
720.23822 49.0 
720.261292 61.0 
720.276672 58.0 
720.292053 70.0 
720.353516 55.0 
720.376587 45.0 
720.415039 48.0 
720.43042 42.0 
720.445801 43.0 
720.461182 55.0 
720.476562 75.0 
720.499634 79.0 
720.530334 27.0 
720.553406 60.0 
720.591858 66.0 
720.614929 40.0 
720.63031 47.0 
720.645691 41.0 
720.676453 63.0 
720.714905 67.0 
720.761047 44.0 
720.791809 34.0 
720.80719 37.0 
720.830261 28.0 
720.853333 34.0 
720.868713 30.0 
720.891785 61.0 
720.922546 44.0 
720.968689 46.0 
720.99176 30.0 
721.014832 49.0 
721.045593 48.0 
721.076355 41.0 
721.091736 47.0 
721.107117 40.0 
721.130188 28.0 
721.145569 29.0 
721.176331 43.0 
721.199463 36.0 
721.222534 36.0 
721.268677 38.0 
721.284058 45.0 
721.307129 50.0 
721.337891 54.0 
721.368652 123.0 
721.399475 54.0 
721.445618 107.0 
721.476379 34.0 
721.507141 39.0 
721.537964 32.0 
721.561035 46.0 
721.599487 57.0 
721.630249 54.0 
721.64563 50.0 
721.676453 29.0 
721.691833 36.0 
721.722595 60.0 
721.745667 32.0 
721.768799 50.0 
721.78418 42.0 
721.814941 27.0 
721.853455 64.0 
721.876526 34.0 
721.907288 44.0 
721.922668 44.0 
721.93042 44.0 
721.961182 52.0 
721.991943 79.0 
722.022766 61.0 
722.053528 36.0 
722.068909 36.0 
722.107422 54.0 
722.138184 39.0 
722.169006 55.0 
722.192078 45.0 
722.215149 46.0 
722.253662 38.0 
722.276733 49.0 
722.292175 50.0 
722.307556 55.0 
722.330627 46.0 
722.369141 62.0 
722.384521 57.0 
722.407654 53.0 
722.430725 51.0 
722.453796 51.0 
722.476929 35.0 
722.50769 55.0 
722.538513 35.0 
722.584717 31.0 
722.607788 34.0 
722.61554 34.0 
722.638611 41.0 
722.661743 29.0 
722.677124 35.0 
722.700195 45.0 
722.715637 40.0 
722.731018 52.0 
722.761841 45.0 
722.777222 61.0 
722.808044 55.0 
722.831116 44.0 
722.861938 50.0 
722.892761 40.0 
722.908142 56.0 
722.946655 42.0 
722.962036 46.0 
722.992859 51.0 
723.00824 52.0 
723.039062 38.0 
723.062195 50.0 
723.085266 53.0 
723.108398 36.0 
723.123779 31.0 
723.162292 48.0 
723.185425 32.0 
723.200806 30.0 
723.247009 52.0 
723.262451 54.0 
723.277832 48.0 
723.308655 48.0 
723.339478 43.0 
723.36261 145.0 
723.393433 129.0 
723.439636 196.0 
723.470459 42.0 
723.493591 53.0 
723.524353 48.0 
723.547485 43.0 
723.578308 29.0 
723.60144 40.0 
723.632263 31.0 
723.663086 37.0 
723.678467 39.0 
723.70929 35.0 
723.724731 30.0 
723.740112 35.0 
723.763245 40.0 
723.778687 24.0 
723.809509 48.0 
723.82489 39.0 
723.855713 68.0 
723.901978 52.0 
723.92511 29.0 
723.940491 26.0 
723.979004 31.0 
724.017578 28.0 
724.032959 26.0 
724.056091 23.0 
724.079224 33.0 
724.110046 38.0 
724.133179 36.0 
724.148621 25.0 
724.187134 45.0 
724.202576 41.0 
724.233398 55.0 
724.256531 52.0 
724.279663 57.0 
724.310486 50.0 
724.325867 52.0 
724.35675 72.0 
724.402954 109.0 
724.441528 86.0 
724.495483 53.0 
724.510925 55.0 
724.549438 34.0 
724.580322 50.0 
724.634277 39.0 
724.649719 25.0 
724.672852 56.0 
724.711365 40.0 
724.742249 28.0 
724.788513 41.0 
724.834778 45.0 
724.85791 30.0 
724.888733 71.0 
724.927307 47.0 
724.950439 32.0 
724.973572 54.0 
725.004456 38.0 
725.027588 35.0 
725.058411 33.0 
725.073853 26.0 
725.081543 26.0 
725.104675 25.0 
725.127869 36.0 
725.158691 49.0 
725.189575 42.0 
725.212708 52.0 
725.24353 47.0 
725.258972 54.0 
725.289856 33.0 
725.305237 26.0 
725.328369 35.0 
725.343811 36.0 
725.359253 29.0 
725.374695 35.0 
725.390137 37.0 
725.405518 30.0 
725.436401 46.0 
725.490417 45.0 
725.505859 67.0 
725.544434 27.0 
725.567566 31.0 
725.590698 43.0 
725.621582 32.0 
725.637024 40.0 
725.69104 54.0 
725.714172 34.0 
725.729614 31.0 
725.745056 37.0 
725.760437 41.0 
725.799072 35.0 
725.845337 36.0 
725.860779 40.0 
725.876221 52.0 
725.914795 55.0 
725.930237 63.0 
725.961121 51.0 
725.984253 44.0 
726.007385 30.0 
726.022827 22.0 
726.038269 30.0 
726.046021 30.0 
726.100037 51.0 
726.13092 41.0 
726.154053 33.0 
726.177246 48.0 
726.200378 51.0 
726.246704 30.0 
726.269836 29.0 
726.323853 58.0 
726.362488 86.0 
726.37793 83.0 
726.431946 143.0 
726.46283 41.0 
726.478271 55.0 
726.486023 55.0 
726.509155 60.0 
726.540039 40.0 
726.563232 36.0 
726.586365 59.0 
726.63269 52.0 
726.679016 39.0 
726.702209 38.0 
726.733093 47.0 
726.748535 48.0 
726.779419 35.0 
726.802551 33.0 
726.825745 25.0 
726.86438 50.0 
726.902954 80.0 
726.918396 78.0 
726.94928 68.0 
726.980225 43.0 
726.995667 45.0 
727.034241 71.0 
727.080627 43.0 
727.134644 48.0 
727.165588 29.0 
727.18103 30.0 
727.196472 24.0 
727.211914 43.0 
727.242798 41.0 
727.265991 66.0 
727.281433 65.0 
727.320068 277.0 
727.327759 277.0 
727.389587 4424.0 
727.451355 3674.0 
727.551819 414.0 
727.598145 181.0 
727.613647 148.0 
727.629089 152.0 
727.683167 168.0 
727.721802 119.0 
727.760437 74.0 
727.775879 59.0 
727.799072 72.0 
727.822266 53.0 
727.845459 86.0 
727.876343 68.0 
727.884094 68.0 
727.899536 70.0 
727.914978 77.0 
727.976807 64.0 
728.0 57.0 
728.015442 73.0 
728.030884 79.0 
728.061829 77.0 
728.085022 88.0 
728.115906 78.0 
728.139099 65.0 
728.162292 81.0 
728.185486 64.0 
728.208679 75.0 
728.262817 89.0 
728.293701 81.0 
728.316895 102.0 
728.401917 2519.0 
728.440613 1852.0 
728.456055 1820.0 
728.479248 1665.0 
728.533386 353.0 
728.55658 193.0 
728.587463 149.0 
728.63385 124.0 
728.687988 102.0 
728.726624 53.0 
728.757568 72.0 
728.780762 92.0 
728.811707 65.0 
728.858093 82.0 
728.889038 86.0 
728.927734 72.0 
728.943176 65.0 
728.958618 72.0 
729.020508 76.0 
729.051453 93.0 
729.097839 52.0 
729.121033 76.0 
729.151978 56.0 
729.182922 66.0 
729.206116 74.0 
729.237061 91.0 
729.252563 70.0 
729.275757 87.0 
729.314453 131.0 
729.384033 544.0 
729.414978 523.0 
729.453674 584.0 
729.484619 378.0 
729.523315 170.0 
729.577454 106.0 
729.600647 76.0 
729.623901 55.0 
729.67804 75.0 
729.716736 68.0 
729.755432 95.0 
729.801819 82.0 
729.840515 59.0 
729.86377 42.0 
729.886963 58.0 
729.917908 65.0 
729.933411 41.0 
729.948853 48.0 
729.964355 38.0 
729.987549 85.0 
730.010803 43.0 
730.033997 65.0 
730.064941 93.0 
730.080444 73.0 
730.103638 48.0 
730.134644 53.0 
730.157837 55.0 
730.17334 65.0 
730.188782 71.0 
730.219788 53.0 
730.250732 52.0 
730.266174 59.0 
730.281677 58.0 
730.312622 68.0 
730.335876 67.0 
730.374573 54.0 
730.413269 187.0 
730.451965 143.0 
730.490662 133.0 
730.552612 111.0 
730.583618 55.0 
730.59906 63.0 
730.622314 75.0 
730.653259 62.0 
730.684265 48.0 
730.71521 111.0 
730.761658 64.0 
730.777161 50.0 
730.800415 67.0 
730.823608 56.0 
730.839111 46.0 
730.854614 61.0 
730.901062 75.0 
730.939758 117.0 
730.978516 51.0 
731.017212 66.0 
731.055969 50.0 
731.079163 74.0 
731.086914 74.0 
731.125671 50.0 
731.148865 41.0 
731.172119 46.0 
731.218567 32.0 
731.23407 49.0 
731.28833 46.0 
731.303772 45.0 
731.319275 38.0 
731.342529 55.0 
731.373535 60.0 
731.396729 38.0 
731.443237 68.0 
731.45874 93.0 
731.474243 84.0 
731.512939 88.0 
731.543945 49.0 
731.5672 83.0 
731.598145 63.0 
731.613647 59.0 
731.644653 50.0 
731.683411 89.0 
731.729858 70.0 
731.760864 64.0 
731.799622 73.0 
731.853882 74.0 
731.877136 74.0 
731.923584 56.0 
731.95459 55.0 
732.001099 51.0 
732.024353 45.0 
732.039856 45.0 
732.094116 63.0 
732.132874 47.0 
732.148376 44.0 
732.163879 47.0 
732.187134 51.0 
732.22583 60.0 
732.272339 41.0 
732.303345 77.0 
732.326599 36.0 
732.357605 43.0 
732.411865 64.0 
732.442871 109.0 
732.489441 102.0 
732.528198 37.0 
732.559204 33.0 
732.605713 55.0 
732.621216 47.0 
732.652222 52.0 
732.675476 49.0 
732.706482 52.0 
732.729736 43.0 
732.752991 27.0 
732.776245 35.0 
732.791809 30.0 
732.830566 51.0 
732.846069 53.0 
732.869324 39.0 
732.908081 46.0 
732.923584 48.0 
732.939087 48.0 
732.970154 47.0 
732.977905 47.0 
733.00116 35.0 
733.047668 53.0 
733.070923 32.0 
733.078674 32.0 
733.117493 37.0 
733.140747 45.0 
733.164001 31.0 
733.195007 50.0 
733.226074 52.0 
733.249329 42.0 
733.264832 34.0 
733.280334 31.0 
733.30365 55.0 
733.350159 39.0 
733.396729 50.0 
733.412231 75.0 
733.443237 44.0 
733.466553 81.0 
733.489807 48.0 
733.520813 63.0 
733.544128 42.0 
733.575134 35.0 
733.590637 39.0 
733.629456 42.0 
733.644958 50.0 
733.69928 29.0 
733.722534 38.0 
733.753601 45.0 
733.769104 33.0 
733.776855 33.0 
733.792358 41.0 
733.823425 36.0 
733.838928 35.0 
733.869934 41.0 
733.885498 31.0 
733.924255 45.0 
733.978577 39.0 
733.994141 38.0 
734.025146 65.0 
734.079468 61.0 
734.110535 40.0 
734.118286 40.0 
734.133789 39.0 
734.149353 39.0 
734.164856 46.0 
734.188171 48.0 
734.211426 83.0 
734.242493 49.0 
734.265747 58.0 
734.289062 36.0 
734.335632 74.0 
734.358887 48.0 
734.389954 77.0 
734.436523 77.0 
734.459839 52.0 
734.51416 53.0 
734.537415 30.0 
734.576233 42.0 
734.591797 38.0 
734.615051 38.0 
734.630615 51.0 
734.65387 29.0 
734.684937 57.0 
734.716003 46.0 
734.74707 42.0 
734.762573 66.0 
734.809143 66.0 
734.832458 38.0 
734.879028 66.0 
734.894592 55.0 
734.910095 50.0 
734.948914 54.0 
734.987793 41.0 
735.01886 59.0 
735.042114 42.0 
735.073181 51.0 
735.096497 41.0 
735.119812 73.0 
735.174133 76.0 
735.189697 76.0 
735.213013 39.0 
735.236267 48.0 
735.267334 37.0 
735.290649 25.0 
735.321716 54.0 
735.345032 38.0 
735.360535 49.0 
735.391602 53.0 
735.407166 53.0 
735.430481 64.0 
735.453796 47.0 
735.469299 38.0 
735.508118 44.0 
735.523682 50.0 
735.546997 42.0 
735.578064 46.0 
735.601379 51.0 
735.632446 49.0 
735.655762 49.0 
735.686829 46.0 
735.710144 48.0 
735.733459 33.0 
735.756775 38.0 
735.780029 63.0 
735.82666 65.0 
735.849976 37.0 
735.904358 47.0 
735.927673 82.0 
735.958801 53.0 
735.974304 74.0 
735.99762 79.0 
736.028687 52.0 
736.036499 52.0 
736.067566 75.0 
736.106445 38.0 
736.121948 47.0 
736.160828 53.0 
736.199707 36.0 
736.223022 35.0 
736.246338 42.0 
736.277405 34.0 
736.292969 35.0 
736.324036 29.0 
736.370667 37.0 
736.393982 51.0 
736.440613 21.0 
736.463928 31.0 
736.479492 38.0 
736.487244 38.0 
736.526123 45.0 
736.541687 38.0 
736.557251 43.0 
736.572754 30.0 
736.59613 56.0 
736.634949 35.0 
736.666077 45.0 
736.681641 47.0 
736.697144 44.0 
736.720459 30.0 
736.751587 43.0 
736.774902 50.0 
736.790466 42.0 
736.821533 57.0 
736.860413 77.0 
736.907104 50.0 
736.938171 35.0 
736.969299 41.0 
736.984863 47.0 
737.008179 55.0 
737.01593 55.0 
737.05481 59.0 
737.109253 30.0 
737.132629 32.0 
737.163696 50.0 
737.202576 68.0 
737.210388 68.0 
737.241455 53.0 
737.264832 60.0 
737.295898 61.0 
737.34259 59.0 
737.373718 39.0 
737.389282 47.0 
737.420349 48.0 
737.435913 60.0 
737.467041 45.0 
737.490356 44.0 
737.50592 52.0 
737.529297 43.0 
737.552612 52.0 
737.599304 29.0 
737.614868 30.0 
737.630371 41.0 
737.653748 49.0 
737.684875 55.0 
737.708191 29.0 
737.739319 79.0 
737.762634 54.0 
737.793762 75.0 
737.809326 66.0 
737.832703 26.0 
737.848267 37.0 
737.887146 55.0 
737.910461 29.0 
737.926025 37.0 
737.964966 47.0 
738.011658 65.0 
738.050537 59.0 
738.066101 57.0 
738.081665 55.0 
738.097229 54.0 
738.120605 34.0 
738.151733 41.0 
738.190613 40.0 
738.221741 41.0 
738.245117 38.0 
738.268433 36.0 
738.307373 49.0 
738.361877 41.0 
738.369629 41.0 
738.400757 37.0 
738.416321 29.0 
738.431885 33.0 
738.455261 30.0 
738.470825 33.0 
738.486389 58.0 
738.540894 64.0 
738.564209 54.0 
738.579773 32.0 
738.610962 70.0 
738.649841 48.0 
738.688782 35.0 
738.71991 50.0 
738.774414 64.0 
738.828918 48.0 
738.87561 59.0 
738.906799 25.0 
738.953491 47.0 
738.969055 39.0 
739.000244 62.0 
739.02356 33.0 
739.046936 48.0 
739.093628 50.0 
739.140381 47.0 
739.171509 27.0 
739.194885 40.0 
739.218262 36.0 
739.233826 37.0 
739.24939 33.0 
739.272766 46.0 
739.335083 49.0 
739.374023 50.0 
739.444092 37.0 
739.498657 43.0 
739.553162 36.0 
739.584351 23.0 
739.615479 61.0 
739.670044 62.0 
739.716736 56.0 
739.740112 48.0 
739.763489 25.0 
739.794678 59.0 
739.825806 35.0 
739.849182 35.0 
739.864807 46.0 
739.895935 27.0 
739.934937 45.0 
739.981628 27.0 
740.012817 44.0 
740.051758 31.0 
740.075134 27.0 
740.090759 39.0 
740.106323 39.0 
740.121887 38.0 
740.145325 59.0 
740.168701 41.0 
740.184265 45.0 
740.192078 45.0 
740.215454 48.0 
740.269958 52.0 
740.285583 61.0 
740.332336 47.0 
740.379089 42.0 
740.441467 37.0 
740.464844 33.0 
740.472595 33.0 
740.480408 33.0 
740.511597 47.0 
740.55835 48.0 
740.581726 45.0 
740.605164 58.0 
740.62854 33.0 
740.651917 29.0 
740.683105 42.0 
740.722046 38.0 
740.737671 40.0 
740.753235 55.0 
740.800049 51.0 
740.831238 34.0 
740.854614 66.0 
740.885803 40.0 
740.90918 58.0 
740.948181 50.0 
740.987122 40.0 
741.010559 43.0 
741.033936 50.0 
741.057312 48.0 
741.088501 31.0 
741.11969 56.0 
741.143066 60.0 
741.174255 51.0 
741.205505 48.0 
741.228882 38.0 
741.244446 58.0 
741.275635 44.0 
741.330261 63.0 
741.36145 40.0 
741.384827 59.0 
741.416016 51.0 
741.439453 37.0 
741.455017 35.0 
741.470642 26.0 
741.494019 33.0 
741.525269 46.0 
741.572021 54.0 
741.618835 47.0 
741.650024 58.0 
741.689026 42.0 
741.728027 63.0 
741.743652 53.0 
741.767029 56.0 
741.821655 63.0 
741.845093 33.0 
741.860657 22.0 
741.891907 33.0 
741.907471 49.0 
741.946472 38.0 
741.96991 31.0 
741.993286 50.0 
742.016724 33.0 
742.0401 51.0 
742.047913 51.0 
742.07135 25.0 
742.094727 45.0 
742.110352 30.0 
742.141541 40.0 
742.164978 35.0 
742.188354 40.0 
742.219604 26.0 
742.235229 31.0 
742.266418 32.0 
742.289856 23.0 
742.321045 56.0 
742.33667 41.0 
742.360046 49.0 
742.391296 49.0 
742.406921 54.0 
742.422485 42.0 
742.43811 51.0 
742.484924 56.0 
742.508362 32.0 
742.531799 47.0 
742.539551 47.0 
742.555176 37.0 
742.578613 63.0 
742.602051 41.0 
742.63324 46.0 
742.66449 41.0 
742.687866 34.0 
742.711304 44.0 
742.76593 52.0 
742.781555 45.0 
742.79718 32.0 
742.820618 36.0 
742.843994 28.0 
742.875244 62.0 
742.922058 67.0 
742.968933 58.0 
742.992371 29.0 
743.015747 45.0 
743.078247 41.0 
743.11731 30.0 
743.132874 38.0 
743.156311 33.0 
743.195374 28.0 
743.210999 45.0 
743.234436 32.0 
743.25 49.0 
743.296875 55.0 
743.328125 54.0 
743.351562 43.0 
743.375 55.0 
743.390625 44.0 
743.398376 44.0 
743.414001 30.0 
743.429626 36.0 
743.445251 36.0 
743.460876 35.0 
743.476501 44.0 
743.499939 33.0 
743.554626 34.0 
743.593689 34.0 
743.609314 35.0 
743.63269 33.0 
743.66394 69.0 
743.703003 45.0 
743.72644 34.0 
743.749878 44.0 
743.773315 39.0 
743.828003 49.0 
743.85144 60.0 
743.867065 32.0 
743.88269 38.0 
743.921753 56.0 
743.960815 41.0 
743.97644 51.0 
743.992065 55.0 
744.03894 44.0 
744.062378 40.0 
744.085815 49.0 
744.109253 27.0 
744.13269 36.0 
744.156128 53.0 
744.218689 48.0 
744.234314 50.0 
744.249939 31.0 
744.304626 35.0 
744.335876 37.0 
744.382751 34.0 
744.421814 48.0 
744.453125 59.0 
744.484375 54.0 
744.5 75.0 
744.546875 52.0 
744.570312 62.0 
744.601624 37.0 
744.617249 51.0 
744.640686 34.0 
744.664124 74.0 
744.695374 42.0 
744.710999 41.0 
744.757935 58.0 
744.77356 37.0 
744.789185 28.0 
744.80481 56.0 
744.820496 36.0 
744.859558 52.0 
744.882996 31.0 
744.906433 24.0 
744.937744 45.0 
744.953369 38.0 
744.968994 52.0 
745.008118 43.0 
745.023743 36.0 
745.062805 55.0 
745.109741 42.0 
745.140991 46.0 
745.156616 40.0 
745.180115 18.0 
745.187927 18.0 
745.211365 29.0 
745.22699 41.0 
745.273926 48.0 
745.320862 28.0 
745.352112 56.0 
745.37561 192.0 
745.414673 381.0 
745.430359 322.0 
745.453796 301.0 
745.485107 229.0 
745.508545 207.0 
745.555481 101.0 
745.578918 95.0 
745.618042 55.0 
745.633667 52.0 
745.664978 75.0 
745.688416 49.0 
745.704102 51.0 
745.735352 39.0 
745.766663 40.0 
745.782288 50.0 
745.821411 32.0 
745.852722 45.0 
745.907471 49.0 
745.923096 54.0 
745.938782 44.0 
745.970032 34.0 
746.001343 59.0 
746.056091 60.0 
746.07959 52.0 
746.142151 44.0 
746.165649 30.0 
746.189087 39.0 
746.220398 40.0 
746.267334 80.0 
746.322144 61.0 
746.337769 83.0 
746.400391 389.0 
746.455139 348.0 
746.478638 268.0 
746.494324 239.0 
746.54126 143.0 
746.572571 59.0 
746.611694 79.0 
746.635193 54.0 
746.650818 44.0 
746.666504 51.0 
746.689941 56.0 
746.744751 41.0 
746.76825 45.0 
746.791687 45.0 
746.822998 40.0 
746.846497 37.0 
746.869995 36.0 
746.893494 38.0 
746.924805 54.0 
746.956116 40.0 
746.979614 45.0 
747.003052 63.0 
747.042236 39.0 
747.073547 56.0 
747.128357 23.0 
747.151855 41.0 
747.190979 46.0 
747.214478 30.0 
747.245789 40.0 
747.261414 28.0 
747.2771 28.0 
747.300598 42.0 
747.324097 39.0 
747.36322 90.0 
747.371094 90.0 
747.394531 41.0 
747.433716 126.0 
747.465027 90.0 
747.504211 125.0 
747.535522 46.0 
747.551208 35.0 
747.566833 73.0 
747.598145 51.0 
747.637329 43.0 
747.653015 43.0 
747.676514 42.0 
747.731323 45.0 
747.77832 40.0 
747.825317 35.0 
747.848816 35.0 
747.864502 31.0 
747.895813 30.0 
747.927124 25.0 
747.950623 32.0 
747.966309 30.0 
747.981995 45.0 
748.005493 33.0 
748.036804 31.0 
748.05249 51.0 
748.083801 30.0 
748.099487 66.0 
748.154358 52.0 
748.177856 45.0 
748.185669 45.0 
748.193481 45.0 
748.217041 56.0 
748.271851 41.0 
748.295349 41.0 
748.326721 45.0 
748.342407 43.0 
748.389404 61.0 
748.412903 58.0 
748.436401 48.0 
748.467773 42.0 
748.499084 64.0 
748.546143 36.0 
748.577454 66.0 
748.632324 45.0 
748.64801 31.0 
748.679382 57.0 
748.710693 54.0 
748.749878 47.0 
748.757751 47.0 
748.789062 55.0 
748.812622 47.0 
748.859619 53.0 
748.898804 52.0 
748.945862 31.0 
748.96936 35.0 
748.992859 43.0 
749.008545 43.0 
749.024231 36.0 
749.055603 39.0 
749.079102 42.0 
749.102661 33.0 
749.118286 44.0 
749.173218 56.0 
749.196716 34.0 
749.212402 35.0 
749.228088 50.0 
749.251587 37.0 
749.267273 26.0 
749.282959 28.0 
749.322144 72.0 
749.345703 55.0 
749.377075 89.0 
749.400574 58.0 
749.431946 67.0 
749.479004 96.0 
749.518188 64.0 
749.533875 74.0 
749.565247 45.0 
749.588806 49.0 
749.627991 28.0 
749.635803 28.0 
749.659363 43.0 
749.690735 34.0 
749.698547 34.0 
749.729919 41.0 
749.769165 47.0 
749.800537 22.0 
749.831909 38.0 
749.863281 27.0 
749.878967 36.0 
749.910339 34.0 
749.933899 43.0 
749.98877 39.0 
750.004456 34.0 
750.020142 49.0 
750.059387 65.0 
750.114319 42.0 
750.130005 36.0 
750.153503 38.0 
750.200623 57.0 
750.224121 55.0 
750.239807 52.0 
750.255493 45.0 
750.279053 44.0 
750.34967 38.0 
750.381042 45.0 
750.412415 41.0 
750.428101 47.0 
750.45166 57.0 
750.490906 59.0 
750.537964 30.0 
750.561523 56.0 
750.577209 44.0 
750.608643 53.0 
750.632141 27.0 
750.655701 59.0 
750.694946 80.0 
750.734192 43.0 
750.765564 71.0 
750.820496 89.0 
750.851929 43.0 
750.867615 40.0 
750.891174 49.0 
750.90686 50.0 
750.93042 46.0 
750.953918 36.0 
750.969666 33.0 
751.008911 46.0 
751.048157 42.0 
751.071716 62.0 
751.087402 40.0 
751.126648 39.0 
751.173767 60.0 
751.197266 51.0 
751.228699 22.0 
751.252258 35.0 
751.30719 45.0 
751.338623 102.0 
751.385742 96.0 
751.424988 64.0 
751.45636 61.0 
751.472107 55.0 
751.503479 31.0 
751.527039 59.0 
751.542786 40.0 
751.582031 26.0 
751.605591 43.0 
751.62915 25.0 
751.65271 55.0 
751.67627 42.0 
751.699829 54.0 
751.707703 54.0 
751.723389 37.0 
751.746948 41.0 
751.778381 44.0 
751.801941 30.0 
751.809753 30.0 
751.841187 35.0 
751.856873 25.0 
751.896179 46.0 
751.911865 30.0 
751.935425 45.0 
751.958984 29.0 
751.982544 34.0 
752.006104 50.0 
752.021851 28.0 
752.053284 26.0 
752.076843 35.0 
752.092529 28.0 
752.108215 46.0 
752.131836 27.0 
752.147522 44.0 
752.163208 45.0 
752.178955 39.0 
752.210388 36.0 
752.233948 36.0 
752.265381 39.0 
752.28894 38.0 
752.320374 35.0 
752.33606 36.0 
752.375366 85.0 
752.414612 44.0 
752.446045 68.0 
752.469666 34.0 
752.485352 46.0 
752.516785 51.0 
752.532471 29.0 
752.563904 40.0 
752.595337 34.0 
752.634644 47.0 
752.658203 33.0 
752.681824 39.0 
752.713257 21.0 
752.736816 45.0 
752.76825 42.0 
752.783936 49.0 
752.838989 37.0 
752.870422 46.0 
752.893982 34.0 
752.925415 50.0 
752.949036 46.0 
753.004028 53.0 
753.059021 54.0 
753.074768 53.0 
753.106201 32.0 
753.129822 38.0 
753.184814 46.0 
753.216248 41.0 
753.231995 32.0 
753.247681 43.0 
753.263428 44.0 
753.294861 48.0 
753.326355 60.0 
753.365662 47.0 
753.381348 42.0 
753.420654 66.0 
753.452148 44.0 
753.459961 44.0 
753.467834 44.0 
753.499268 39.0 
753.522888 29.0 
753.554321 17.0 
753.577942 26.0 
753.593628 31.0 
753.648682 43.0 
753.687988 39.0 
753.711609 26.0 
753.719482 26.0 
753.735168 31.0 
753.743042 31.0 
753.758789 37.0 
753.790222 25.0 
753.805969 29.0 
753.837402 35.0 
753.861023 30.0 
753.892456 35.0 
753.908203 35.0 
753.931824 30.0 
753.963257 18.0 
753.986877 36.0 
754.018311 52.0 
754.065491 55.0 
754.104858 48.0 
754.136292 47.0 
754.159912 47.0 
754.175659 39.0 
754.191345 45.0 
754.24646 53.0 
754.262146 47.0 
754.309387 67.0 
754.348694 64.0 
754.403748 39.0 
754.419495 60.0 
754.458862 49.0 
754.474548 51.0 
754.498169 36.0 
754.537537 49.0 
754.553284 36.0 
754.608337 64.0 
754.655518 43.0 
754.679138 37.0 
754.702759 45.0 
754.75 61.0 
754.79718 47.0 
754.820801 37.0 
754.844421 33.0 
754.875916 52.0 
754.907349 22.0 
754.930969 38.0 
754.97821 38.0 
755.001831 55.0 
755.056885 58.0 
755.112 51.0 
755.159241 68.0 
755.206482 44.0 
755.230042 52.0 
755.277283 30.0 
755.300903 40.0 
755.356018 22.0 
755.371765 24.0 
755.387512 39.0 
755.403259 32.0 
755.419006 35.0 
755.4505 40.0 
755.497742 64.0 
755.521362 53.0 
755.552856 37.0 
755.576477 34.0 
755.607971 51.0 
755.663086 56.0 
755.678833 36.0 
755.702454 36.0 
755.733948 53.0 
755.773315 36.0 
755.789062 32.0 
755.812683 48.0 
755.852051 51.0 
755.883545 31.0 
755.922913 27.0 
755.946594 40.0 
755.962341 39.0 
755.993835 51.0 
756.056824 48.0 
756.072571 52.0 
756.104065 39.0 
756.127686 38.0 
756.167114 69.0 
756.214355 62.0 
756.261597 35.0 
756.293152 25.0 
756.33252 32.0 
756.348267 34.0 
756.387634 32.0 
756.434937 71.0 
756.497925 51.0 
756.545227 62.0 
756.584595 42.0 
756.600342 45.0 
756.631897 34.0 
756.655518 16.0 
756.663391 16.0 
756.679138 29.0 
756.70282 25.0 
756.734314 39.0 
756.750061 38.0 
756.78949 62.0 
756.828857 44.0 
756.836731 44.0 
756.860413 64.0 
756.89978 54.0 
756.939209 40.0 
756.954956 40.0 
756.978577 58.0 
757.010132 33.0 
757.057434 55.0 
757.112549 59.0 
757.144104 37.0 
757.159851 40.0 
757.191406 38.0 
757.230774 62.0 
757.270203 54.0 
757.28595 58.0 
757.309631 41.0 
757.34906 33.0 
757.364807 48.0 
757.396362 41.0 
757.427856 33.0 
757.443604 27.0 
757.467285 20.0 
757.483032 24.0 
757.49884 25.0 
757.546143 43.0 
757.577637 34.0 
757.601318 41.0 
757.624939 56.0 
757.656494 38.0 
757.703796 47.0 
757.727478 41.0 
757.743225 39.0 
757.758972 37.0 
757.782654 39.0 
757.806274 35.0 
757.861511 41.0 
757.885132 47.0 
757.916687 46.0 
757.948242 44.0 
757.987671 39.0 
758.042847 48.0 
758.058655 26.0 
758.082336 50.0 
758.137512 53.0 
758.153259 47.0 
758.192749 34.0 
758.208496 29.0 
758.240051 45.0 
758.263733 55.0 
758.27948 44.0 
758.303162 24.0 
758.318909 27.0 
758.34259 42.0 
758.358337 31.0 
758.382019 31.0 
758.397827 18.0 
758.437256 43.0 
758.484558 44.0 
758.500366 35.0 
758.547668 57.0 
758.579224 34.0 
758.595032 34.0 
758.626587 52.0 
758.650269 36.0 
758.666016 37.0 
758.681824 20.0 
758.705444 36.0 
758.721252 30.0 
758.729126 30.0 
758.752808 38.0 
758.768616 36.0 
758.800171 50.0 
758.823853 31.0 
758.847473 35.0 
758.863281 39.0 
758.886963 34.0 
758.910645 46.0 
758.9422 69.0 
758.989502 70.0 
759.021118 33.0 
759.036865 35.0 
759.060547 27.0 
759.06842 27.0 
759.084229 27.0 
759.115784 42.0 
759.155273 39.0 
759.202637 53.0 
759.249939 47.0 
759.281555 44.0 
759.289429 44.0 
759.31311 37.0 
759.336792 34.0 
759.368347 37.0 
759.407837 60.0 
759.423584 53.0 
759.486755 62.0 
759.502563 51.0 
759.541992 67.0 
759.573608 31.0 
759.59729 31.0 
759.613037 26.0 
759.620972 26.0 
759.63678 38.0 
759.676208 32.0 
759.715698 42.0 
759.747253 38.0 
759.763062 25.0 
759.786743 61.0 
759.826233 96.0 
759.865723 34.0 
759.913086 40.0 
759.952576 67.0 
759.999939 61.0 
760.023621 50.0 
760.071045 36.0 
760.1026 33.0 
760.134216 37.0 
760.173706 41.0 
760.189453 38.0 
760.213196 28.0 
760.244751 30.0 
760.284241 40.0 
760.300049 86.0 
760.339539 44.0 
760.386902 74.0 
760.434326 45.0 
760.450134 37.0 
760.481689 75.0 
760.529114 81.0 
760.544922 42.0 
760.568604 45.0 
760.584412 34.0 
760.60022 28.0 
760.631775 19.0 
760.655518 39.0 
760.687073 38.0 
760.710815 43.0 
760.750305 32.0 
760.766113 37.0 
760.789795 42.0 
760.821411 31.0 
760.845093 53.0 
760.892517 42.0 
760.932007 55.0 
760.95575 28.0 
760.979431 18.0 
760.995239 16.0 
761.026855 41.0 
761.042664 41.0 
761.066345 38.0 
761.121643 35.0 
761.137451 25.0 
761.161194 40.0 
761.177002 39.0 
761.224426 35.0 
761.240173 34.0 
761.263916 38.0 
761.279724 30.0 
761.319214 45.0 
761.35083 38.0 
761.390381 43.0 
761.429871 31.0 
761.461487 35.0 
761.477295 36.0 
761.516846 43.0 
761.556335 36.0 
761.580078 37.0 
761.595886 39.0 
761.651184 49.0 
761.698669 53.0 
761.746094 50.0 
761.77771 45.0 
761.801392 37.0 
761.8172 41.0 
761.872559 47.0 
761.919983 29.0 
761.935791 23.0 
761.967468 47.0 
761.999084 22.0 
762.014893 34.0 
762.038635 34.0 
762.078125 42.0 
762.101868 36.0 
762.117676 36.0 
762.141418 51.0 
762.173035 48.0 
762.196777 45.0 
762.212585 45.0 
762.236328 38.0 
762.275818 56.0 
762.315369 48.0 
762.331177 38.0 
762.347046 54.0 
762.402405 53.0 
762.426086 36.0 
762.441895 49.0 
762.457764 29.0 
762.481445 47.0 
762.520996 48.0 
762.568481 42.0 
762.600098 37.0 
762.615906 34.0 
762.647583 33.0 
762.671326 30.0 
762.695068 30.0 
762.726685 35.0 
762.742493 27.0 
762.758301 21.0 
762.797852 39.0 
762.837463 65.0 
762.877014 40.0 
762.892822 39.0 
762.924438 59.0 
762.948181 24.0 
762.971924 69.0 
763.003601 51.0 
763.011475 51.0 
763.027344 38.0 
763.051025 50.0 
763.090637 62.0 
763.11438 52.0 
763.169739 35.0 
763.20929 19.0 
763.256775 45.0 
763.288452 34.0 
763.312195 27.0 
763.335938 38.0 
763.367554 35.0 
763.391296 51.0 
763.446716 33.0 
763.470459 42.0 
763.494202 22.0 
763.51001 28.0 
763.533752 39.0 
763.56543 30.0 
763.612915 49.0 
763.628784 21.0 
763.644592 38.0 
763.684143 32.0 
763.700012 33.0 
763.723755 30.0 
763.763306 36.0 
763.818726 45.0 
763.834595 34.0 
763.874146 62.0 
763.905823 30.0 
763.913757 30.0 
763.929565 40.0 
763.953308 47.0 
763.984985 35.0 
764.032471 51.0 
764.072083 38.0 
764.095825 35.0 
764.111694 26.0 
764.135437 22.0 
764.15918 30.0 
764.182922 36.0 
764.198792 32.0 
764.238342 35.0 
764.285889 46.0 
764.317566 32.0 
764.333374 45.0 
764.365051 42.0 
764.388794 37.0 
764.420471 55.0 
764.43634 43.0 
764.475952 25.0 
764.507629 34.0 
764.531372 20.0 
764.547241 24.0 
764.578918 30.0 
764.602661 25.0 
764.618469 24.0 
764.650208 27.0 
764.689758 30.0 
764.705627 27.0 
764.713562 27.0 
764.721497 27.0 
764.745239 24.0 
764.768982 33.0 
764.800659 44.0 
764.816528 35.0 
764.848206 36.0 
764.871948 35.0 
764.887817 35.0 
764.895752 35.0 
764.943298 30.0 
764.967041 35.0 
765.014587 43.0 
765.03833 27.0 
765.054199 27.0 
765.101746 34.0 
765.117554 36.0 
765.149292 23.0 
765.173035 30.0 
765.196777 32.0 
765.228516 41.0 
765.236389 41.0 
765.252258 44.0 
765.283936 72.0 
765.323608 88.0 
765.339417 115.0 
765.379028 56.0 
765.394897 71.0 
765.426575 82.0 
765.466248 42.0 
765.497925 48.0 
765.513794 33.0 
765.521667 33.0 
765.545471 51.0 
765.56134 50.0 
765.593018 108.0 
765.640564 59.0 
765.664368 40.0 
765.680237 63.0 
765.703979 37.0 
765.727783 25.0 
765.75946 51.0 
765.799072 44.0 
765.822876 25.0 
765.838745 21.0 
765.870422 27.0 
765.902161 33.0 
765.925903 35.0 
765.949707 35.0 
766.013123 46.0 
766.021057 46.0 
766.044861 37.0 
766.06073 37.0 
766.092407 51.0 
766.116211 34.0 
766.147888 39.0 
766.171692 32.0 
766.187561 29.0 
766.211365 33.0 
766.227173 35.0 
766.27478 52.0 
766.306458 49.0 
766.34613 62.0 
766.377869 52.0 
766.393738 58.0 
766.425415 99.0 
766.449219 61.0 
766.465088 76.0 
766.5047 55.0 
766.512634 55.0 
766.528503 24.0 
766.544373 24.0 
766.576111 44.0 
766.607849 44.0 
766.655396 46.0 
766.66333 46.0 
766.687134 26.0 
766.710938 43.0 
766.742676 48.0 
766.758545 45.0 
766.806091 65.0 
766.83783 39.0 
766.853699 58.0 
766.885437 59.0 
766.909241 37.0 
766.933044 35.0 
766.964722 25.0 
766.980591 28.0 
766.988525 28.0 
767.004395 26.0 
767.028198 30.0 
767.052002 56.0 
767.099609 62.0 
767.139282 48.0 
767.155151 28.0 
767.171021 33.0 
767.194824 30.0 
767.234497 46.0 
767.258301 29.0 
767.297974 68.0 
767.337646 37.0 
767.369385 82.0 
767.393188 118.0 
767.424927 101.0 
767.44873 122.0 
767.504272 78.0 
767.520142 75.0 
767.559814 43.0 
767.575684 37.0 
767.591553 37.0 
767.615356 45.0 
767.631226 57.0 
767.655029 42.0 
767.686768 33.0 
767.718506 51.0 
767.742371 41.0 
767.766174 45.0 
767.789978 17.0 
767.813782 42.0 
767.837585 35.0 
767.861389 59.0 
767.877258 51.0 
767.932861 83.0 
767.972534 56.0 
767.988403 44.0 
767.996338 44.0 
768.020142 41.0 
768.043945 39.0 
768.06781 51.0 
768.091614 36.0 
768.123352 39.0 
768.147156 34.0 
768.202759 40.0 
768.242432 46.0 
768.27417 38.0 
768.290039 30.0 
768.321838 33.0 
768.329773 33.0 
768.345642 21.0 
768.361511 84.0 
768.393311 52.0 
768.40918 109.0 
768.448853 41.0 
768.464722 57.0 
768.504456 46.0 
768.520325 43.0 
768.552063 26.0 
768.583862 45.0 
768.607666 28.0 
768.639465 41.0 
768.687073 33.0 
768.726807 17.0 
768.758545 32.0 
768.78241 53.0 
768.798279 56.0 
768.830017 43.0 
768.861816 50.0 
768.917419 45.0 
768.949158 34.0 
768.980957 38.0 
769.03656 57.0 
769.044495 57.0 
769.076294 46.0 
769.100098 43.0 
769.115967 84.0 
769.147766 29.0 
769.1875 47.0 
769.219238 39.0 
769.266907 33.0 
769.274902 33.0 
769.290771 28.0 
769.306641 31.0 
769.330505 62.0 
769.354309 33.0 
769.386108 51.0 
769.425842 51.0 
769.449646 38.0 
769.481445 76.0 
769.497314 41.0 
769.529114 39.0 
769.584717 40.0 
769.608582 38.0 
769.624451 35.0 
769.640381 23.0 
769.688049 36.0 
769.727783 52.0 
769.759583 33.0 
769.775452 35.0 
769.815186 30.0 
769.83905 47.0 
769.854919 34.0 
769.894653 45.0 
769.910583 46.0 
769.966187 21.0 
769.982117 20.0 
770.013916 35.0 
770.061584 49.0 
770.093384 43.0 
770.117249 40.0 
770.141052 42.0 
770.188782 77.0 
770.220581 31.0 
770.260315 95.0 
770.300049 21.0 
770.339783 65.0 
770.371582 29.0 
770.395447 77.0 
770.427246 68.0 
770.467041 49.0 
770.48291 44.0 
770.514709 41.0 
770.538574 32.0 
770.554504 28.0 
770.570374 37.0 
770.586304 32.0 
770.610107 53.0 
770.633972 45.0 
770.657837 37.0 
770.689636 28.0 
770.713501 50.0 
770.7453 31.0 
770.769165 54.0 
770.816895 52.0 
770.864624 48.0 
770.912292 35.0 
770.928223 42.0 
770.975952 43.0 
771.007751 38.0 
771.063416 27.0 
771.119141 39.0 
771.142944 51.0 
771.166809 32.0 
771.174805 32.0 
771.206604 50.0 
771.230469 41.0 
771.294128 57.0 
771.333862 53.0 
771.381592 60.0 
771.405457 44.0 
771.437317 48.0 
771.477112 50.0 
771.524841 59.0 
771.556641 50.0 
771.588501 48.0 
771.596436 48.0 
771.612366 61.0 
771.660095 62.0 
771.691895 46.0 
771.731689 62.0 
771.76355 44.0 
771.779419 44.0 
771.819214 46.0 
771.874939 53.0 
771.898804 25.0 
771.938599 38.0 
771.970459 23.0 
771.986328 28.0 
772.002258 20.0 
772.026123 39.0 
772.042053 32.0 
772.049988 32.0 
772.065918 37.0 
772.081848 43.0 
772.105713 68.0 
772.153503 26.0 
772.185303 32.0 
772.209229 19.0 
772.217163 19.0 
772.249023 43.0 
772.272888 32.0 
772.320618 40.0 
772.360474 54.0 
772.416199 32.0 
772.432068 23.0 
772.455994 48.0 
772.471924 35.0 
772.511719 29.0 
772.551514 29.0 
772.599304 48.0 
772.631104 39.0 
772.647034 40.0 
772.655029 40.0 
772.670959 38.0 
772.694824 45.0 
772.718689 26.0 
772.758545 62.0 
772.790344 33.0 
772.854065 33.0 
772.877991 30.0 
772.90979 49.0 
772.957581 33.0 
772.989441 49.0 
772.997437 49.0 
773.061096 50.0 
773.085022 60.0 
773.108887 55.0 
773.132812 52.0 
773.164673 41.0 
773.212463 37.0 
773.228394 39.0 
773.252258 31.0 
773.268188 37.0 
773.308044 30.0 
773.323975 33.0 
773.347839 37.0 
773.36377 37.0 
773.403625 51.0 
773.41156 51.0 
773.44342 32.0 
773.491272 51.0 
773.523132 32.0 
773.539062 40.0 
773.570923 30.0 
773.602783 44.0 
773.642639 43.0 
773.658569 39.0 
773.6745 25.0 
773.714294 52.0 
773.75415 38.0 
773.809937 42.0 
773.833801 33.0 
773.865723 32.0 
773.929443 49.0 
773.953369 9.0 
773.985229 29.0 
774.03302 38.0 
774.080872 42.0 
774.120728 52.0 
774.168518 38.0 
774.200378 64.0 
774.272156 44.0 
774.28009 44.0 
774.312012 43.0 
774.367798 48.0 
774.383728 44.0 
774.407654 40.0 
774.423584 25.0 
774.439514 22.0 
774.455444 29.0 
774.471436 30.0 
774.4953 32.0 
774.511292 53.0 
774.551147 48.0 
774.567078 41.0 
774.598938 58.0 
774.67865 45.0 
774.750427 31.0 
774.766357 26.0 
774.774353 26.0 
774.814209 46.0 
774.822205 46.0 
774.84613 41.0 
774.869995 30.0 
774.901917 34.0 
774.933838 27.0 
774.957703 57.0 
775.005554 39.0 
775.037476 38.0 
775.069397 29.0 
775.101257 39.0 
775.125183 35.0 
775.141113 24.0 
775.18103 62.0 
775.19696 35.0 
775.228882 35.0 
775.244812 32.0 
775.268738 22.0 
775.292664 49.0 
775.324585 33.0 
775.340515 20.0 
775.372437 42.0 
775.388367 44.0 
775.412292 58.0 
775.46814 87.0 
775.500061 41.0 
775.531982 49.0 
775.555908 61.0 
775.587769 38.0 
775.611694 32.0 
775.643616 32.0 
775.659607 55.0 
775.707458 58.0 
775.73938 37.0 
775.779236 68.0 
775.827148 39.0 
775.859009 53.0 
775.875 41.0 
775.906921 36.0 
775.930847 17.0 
775.970764 47.0 
776.002686 30.0 
776.018616 17.0 
776.058533 49.0 
776.090454 44.0 
776.13031 47.0 
776.138306 47.0 
776.170227 48.0 
776.194153 49.0 
776.250061 60.0 
776.313904 38.0 
776.361755 40.0 
776.409668 35.0 
776.449585 44.0 
776.465515 38.0 
776.489441 25.0 
776.521362 55.0 
776.545349 39.0 
776.569275 39.0 
776.601196 29.0 
776.617188 50.0 
776.641113 33.0 
776.657104 31.0 
776.697021 78.0 
776.720947 29.0 
776.752869 47.0 
776.76886 65.0 
776.824707 70.0 
776.856689 51.0 
776.880615 44.0 
776.896606 40.0 
776.928528 52.0 
776.984436 42.0 
777.000366 42.0 
777.024353 29.0 
777.056274 21.0 
777.088196 33.0 
777.104187 29.0 
777.120117 39.0 
777.16803 33.0 
777.176025 33.0 
777.192017 46.0 
777.208008 50.0 
777.247925 40.0 
777.263855 47.0 
777.287842 34.0 
777.295837 34.0 
777.319763 26.0 
777.351746 56.0 
777.407654 43.0 
777.423584 44.0 
777.447571 59.0 
777.487488 53.0 
777.51947 51.0 
777.5354 59.0 
777.559387 42.0 
777.591309 27.0 
777.615295 43.0 
777.639282 28.0 
777.671204 37.0 
777.719116 35.0 
777.751099 43.0 
777.791016 42.0 
777.822998 34.0 
777.854919 30.0 
777.894897 59.0 
777.926819 30.0 
777.950806 37.0 
777.982788 32.0 
777.998718 31.0 
778.030701 31.0 
778.086609 43.0 
778.1026 37.0 
778.118591 46.0 
778.158508 26.0 
778.182495 34.0 
778.206482 33.0 
778.254395 43.0 
778.278381 36.0 
778.310364 18.0 
778.334351 31.0 
778.342346 31.0 
778.374268 53.0 
778.414246 32.0 
778.430237 27.0 
778.446228 21.0 
778.462219 27.0 
778.478149 31.0 
778.502136 16.0 
778.526123 37.0 
778.534119 37.0 
778.55011 33.0 
778.574097 35.0 
778.598083 31.0 
778.62207 34.0 
778.653992 32.0 
778.69397 35.0 
778.749939 37.0 
778.757935 37.0 
778.773926 38.0 
778.813904 39.0 
778.829834 48.0 
778.853821 32.0 
778.901794 48.0 
778.933777 32.0 
778.965759 51.0 
779.005737 55.0 
779.029724 69.0 
779.069702 77.0 
779.117676 38.0 
779.149658 52.0 
779.173645 27.0 
779.189636 27.0 
779.213623 64.0 
779.229614 54.0 
779.261597 32.0 
779.285583 37.0 
779.301575 26.0 
779.325562 31.0 
779.341553 28.0 
779.381531 43.0 
779.389526 43.0 
779.405518 42.0 
779.429504 53.0 
779.453491 44.0 
779.477478 49.0 
779.533447 60.0 
779.557434 38.0 
779.589478 61.0 
779.613464 65.0 
779.653442 38.0 
779.669434 39.0 
779.709412 28.0 
779.725403 53.0 
779.757385 41.0 
779.781433 34.0 
779.821411 50.0 
779.837402 41.0 
779.861389 36.0 
779.869385 36.0 
779.885376 48.0 
779.917419 50.0 
779.965393 31.0 
779.98938 25.0 
780.013367 24.0 
780.037354 38.0 
780.053406 34.0 
780.077393 32.0 
780.101379 22.0 
780.133362 52.0 
780.15741 34.0 
780.181396 23.0 
780.197388 23.0 
780.245422 65.0 
780.277405 18.0 
780.301392 26.0 
780.333435 84.0 
780.389404 51.0 
780.405396 50.0 
780.445435 61.0 
780.461426 42.0 
780.485474 94.0 
780.533447 39.0 
780.557495 34.0 
780.589478 40.0 
780.605469 48.0 
780.629517 45.0 
780.661499 82.0 
780.701538 51.0 
780.725525 32.0 
780.749512 53.0 
780.765564 57.0 
780.813599 53.0 
780.837585 48.0 
780.869568 34.0 
780.901611 39.0 
780.925598 42.0 
780.957642 27.0 
780.997681 19.0 
781.03772 21.0 
781.053711 25.0 
781.077698 34.0 
781.109741 34.0 
781.125732 35.0 
781.133728 35.0 
781.189819 43.0 
781.205811 45.0 
781.229797 39.0 
781.269836 35.0 
781.277893 35.0 
781.317871 53.0 
781.341919 64.0 
781.389954 52.0 
781.405945 51.0 
781.429993 56.0 
781.478027 65.0 
781.510071 30.0 
781.526062 32.0 
781.55011 62.0 
781.598145 57.0 
781.670227 28.0 
781.686218 39.0 
781.726257 22.0 
781.74231 42.0 
781.766296 39.0 
781.782349 34.0 
781.790344 34.0 
781.838379 56.0 
781.89447 43.0 
781.910461 40.0 
781.926514 48.0 
781.958557 41.0 
781.966553 41.0 
781.982605 44.0 
782.006592 53.0 
782.038635 33.0 
782.062683 32.0 
782.118774 50.0 
782.150818 17.0 
782.166809 24.0 
782.182861 31.0 
782.214905 51.0 
782.254944 41.0 
782.278992 28.0 
782.302979 52.0 
782.35907 46.0 
782.383118 33.0 
782.39917 45.0 
782.415161 42.0 
782.431213 29.0 
782.4552 43.0 
782.479248 40.0 
782.503296 28.0 
782.527344 46.0 
782.551392 47.0 
782.559387 47.0 
782.607483 55.0 
782.639526 32.0 
782.663574 30.0 
782.679565 38.0 
782.695618 27.0 
782.743713 48.0 
782.791809 33.0 
782.823853 25.0 
782.839844 36.0 
782.855896 42.0 
782.879944 44.0 
782.911987 43.0 
782.92804 30.0 
782.960083 41.0 
782.984131 37.0 
783.040222 52.0 
783.06427 56.0 
783.120422 37.0 
783.128418 37.0 
783.14447 34.0 
783.184509 28.0 
783.200562 36.0 
783.224609 50.0 
783.248657 51.0 
783.272705 54.0 
783.312805 94.0 
783.360901 75.0 
783.384949 36.0 
783.425049 49.0 
783.44104 37.0 
783.465088 35.0 
783.497192 31.0 
783.52124 55.0 
783.545288 27.0 
783.577332 49.0 
783.593384 37.0 
783.649536 44.0 
783.697632 32.0 
783.753784 35.0 
783.777832 42.0 
783.80188 31.0 
783.833923 18.0 
783.858032 39.0 
783.906128 46.0 
783.946228 31.0 
783.954224 31.0 
783.970276 31.0 
783.994324 17.0 
784.026428 33.0 
784.04248 25.0 
784.074524 50.0 
784.114685 41.0 
784.138733 50.0 
784.162781 47.0 
784.178833 55.0 
784.226929 51.0 
784.242981 36.0 
784.259033 42.0 
784.291138 44.0 
784.339233 122.0 
784.355286 49.0 
784.379395 166.0 
784.395386 53.0 
784.419495 136.0 
784.475647 66.0 
784.499695 42.0 
784.523743 62.0 
784.587952 50.0 
784.620056 19.0 
784.652161 39.0 
784.668213 40.0 
784.724365 23.0 
784.772522 38.0 
784.788574 40.0 
784.812622 23.0 
784.820618 23.0 
784.852722 31.0 
784.876831 51.0 
784.892883 40.0 
784.932983 59.0 
784.949036 59.0 
785.005188 47.0 
785.053345 31.0 
785.069397 35.0 
785.101501 32.0 
785.12561 35.0 
785.157715 30.0 
785.173767 28.0 
785.213867 47.0 
785.245972 34.0 
785.302185 38.0 
785.342346 49.0 
785.382446 65.0 
785.406555 25.0 
785.43866 52.0 
785.470764 68.0 
785.502869 31.0 
785.526978 48.0 
785.54303 52.0 
785.607239 48.0 
785.631348 29.0 
785.6474 32.0 
785.671448 49.0 
785.6875 52.0 
785.695557 52.0 
785.75177 25.0 
785.775818 34.0 
785.79187 28.0 
785.824036 34.0 
785.864136 42.0 
785.880249 38.0 
785.920349 39.0 
785.936462 29.0 
785.968567 40.0 
785.992676 32.0 
786.02478 53.0 
786.056885 34.0 
786.097046 34.0 
786.113098 35.0 
786.145203 32.0 
786.185364 38.0 
786.217529 36.0 
786.273743 52.0 
786.289795 37.0 
786.329956 35.0 
786.346008 32.0 
786.378174 36.0 
786.402222 71.0 
786.450439 88.0 
786.482605 26.0 
786.506653 43.0 
786.522766 28.0 
786.554871 28.0 
786.595032 35.0 
786.611084 33.0 
786.64325 22.0 
786.667358 31.0 
786.683411 39.0 
786.70752 45.0 
786.763733 74.0 
786.779846 52.0 
786.828003 36.0 
786.852112 39.0 
786.90033 52.0 
786.916443 36.0 
786.932495 49.0 
786.972656 59.0 
787.05304 43.0 
787.069092 30.0 
787.093201 31.0 
787.109253 41.0 
787.141418 33.0 
787.18158 58.0 
787.229797 35.0 
787.245911 31.0 
787.302124 49.0 
787.350342 51.0 
787.382507 28.0 
787.406616 26.0 
787.422729 30.0 
787.454834 32.0 
787.470947 34.0 
787.511108 47.0 
787.519165 47.0 
787.567383 55.0 
787.591492 47.0 
787.639709 41.0 
787.655823 73.0 
787.687988 48.0 
787.736206 47.0 
787.768372 46.0 
787.800537 27.0 
787.808594 27.0 
787.832703 21.0 
787.856812 44.0 
787.872864 43.0 
787.913086 53.0 
787.945251 56.0 
787.977417 41.0 
788.001526 54.0 
788.017639 37.0 
788.065857 39.0 
788.089966 38.0 
788.130188 31.0 
788.14624 32.0 
788.17041 28.0 
788.194519 23.0 
788.218628 37.0 
788.250793 16.0 
788.307129 39.0 
788.323181 37.0 
788.37146 33.0 
788.387512 38.0 
788.403625 50.0 
788.427734 46.0 
788.4599 45.0 
788.500122 30.0 
788.548401 48.0 
788.620789 32.0 
788.644897 27.0 
788.677063 33.0 
788.693176 18.0 
788.733398 54.0 
788.773621 24.0 
788.789734 31.0 
788.813843 46.0 
788.837952 36.0 
788.878174 35.0 
788.926453 52.0 
788.958679 35.0 
788.974731 40.0 
788.990845 36.0 
789.006958 38.0 
789.031067 40.0 
789.04718 37.0 
789.063232 50.0 
789.095459 61.0 
789.143738 65.0 
789.175903 39.0 
789.216125 36.0 
789.240295 32.0 
789.264404 30.0 
789.296631 35.0 
789.34491 30.0 
789.360962 29.0 
789.409241 39.0 
789.465576 47.0 
789.489746 19.0 
789.505859 21.0 
789.538025 30.0 
789.562195 25.0 
789.59436 38.0 
789.634644 55.0 
789.674866 48.0 
789.715088 48.0 
789.731201 41.0 
789.755371 35.0 
789.779541 35.0 
789.80365 57.0 
789.843933 32.0 
789.884155 32.0 
789.900269 28.0 
789.916382 32.0 
789.940491 23.0 
789.964661 38.0 
790.004944 39.0 
790.029053 27.0 
790.045166 34.0 
790.061279 28.0 
790.101562 43.0 
790.133728 26.0 
790.174011 32.0 
790.206177 35.0 
790.230347 26.0 
790.262573 18.0 
790.286743 46.0 
790.310913 48.0 
790.343079 35.0 
790.359192 46.0 
790.399475 44.0 
790.455811 42.0 
790.471924 54.0 
790.50415 26.0 
790.52832 71.0 
790.560547 31.0 
790.592773 53.0 
790.641052 65.0 
790.689392 26.0 
790.713562 53.0 
790.729675 55.0 
790.786072 58.0 
790.834351 52.0 
790.858521 41.0 
790.88269 32.0 
790.914917 31.0 
790.939087 28.0 
790.9552 26.0 
790.97937 25.0 
791.02771 35.0 
791.05188 38.0 
791.10022 47.0 
791.12439 35.0 
791.14856 63.0 
791.221069 45.0 
791.261353 57.0 
791.301636 39.0 
791.325806 41.0 
791.341919 52.0 
791.374146 32.0 
791.414429 44.0 
791.422485 44.0 
791.454773 37.0 
791.503113 40.0 
791.551453 63.0 
791.591736 40.0 
791.632019 36.0 
791.648132 26.0 
791.656189 26.0 
791.672302 24.0 
791.688477 40.0 
791.72876 20.0 
791.75293 30.0 
791.760986 30.0 
791.7771 31.0 
791.793213 28.0 
791.809326 38.0 
791.825439 46.0 
791.865784 52.0 
791.87384 52.0 
791.889954 36.0 
791.92218 30.0 
791.94635 34.0 
791.970581 30.0 
792.002808 20.0 
792.026978 40.0 
792.075378 54.0 
792.099548 43.0 
792.131775 42.0 
792.155945 40.0 
792.172119 45.0 
792.188232 40.0 
792.220459 44.0 
792.228516 44.0 
792.260803 48.0 
792.301086 43.0 
792.349487 32.0 
792.365601 44.0 
792.381714 32.0 
792.397827 110.0 
792.454285 636.0 
792.470398 384.0 
792.494629 331.0 
792.526855 328.0 
792.551025 238.0 
792.575256 104.0 
792.599426 71.0 
792.623596 65.0 
792.655884 44.0 
792.671997 32.0 
792.68811 29.0 
792.704285 48.0 
792.736511 48.0 
792.760742 43.0 
792.792969 51.0 
792.809082 48.0 
792.825256 40.0 
792.86554 45.0 
792.889771 28.0 
792.91394 39.0 
792.946228 52.0 
792.978455 35.0 
792.994629 38.0 
793.026855 51.0 
793.051086 38.0 
793.075256 34.0 
793.107544 38.0 
793.139832 29.0 
793.164001 38.0 
793.212402 31.0 
793.228577 24.0 
793.24469 32.0 
793.301147 47.0 
793.333435 29.0 
793.357605 43.0 
793.381836 41.0 
793.414124 70.0 
793.446411 102.0 
793.462524 159.0 
793.494812 97.0 
793.543213 129.0 
793.567383 45.0 
793.607788 72.0 
793.640015 65.0 
793.656189 65.0 
793.664246 65.0 
793.696533 37.0 
793.712646 39.0 
793.752991 38.0 
793.777222 42.0 
793.825623 46.0 
793.849854 37.0 
793.882141 36.0 
793.906372 44.0 
793.930542 43.0 
793.954773 44.0 
793.979004 39.0 
794.011292 20.0 
794.035461 42.0 
794.075867 48.0 
794.132324 31.0 
794.156555 48.0 
794.196899 62.0 
794.253418 22.0 
794.30188 55.0 
794.317993 45.0 
794.334167 58.0 
794.350281 63.0 
794.374512 43.0 
794.406799 26.0 
794.439087 96.0 
794.447205 96.0 
794.503662 60.0 
794.527893 98.0 
794.544067 88.0 
794.568298 49.0 
794.592529 49.0 
794.616699 34.0 
794.649048 43.0 
794.705566 66.0 
794.762085 52.0 
794.794373 47.0 
794.834778 50.0 
794.883179 54.0 
794.899353 48.0 
794.939758 29.0 
794.963989 32.0 
794.98822 39.0 
795.036621 44.0 
795.060852 55.0 
795.077026 47.0 
795.109314 37.0 
795.125488 35.0 
795.157776 47.0 
795.198181 24.0 
795.238586 48.0 
795.319336 69.0 
795.351685 47.0 
795.375916 40.0 
795.400146 64.0 
795.41626 45.0 
795.464783 91.0 
795.480896 56.0 
795.49707 62.0 
795.521301 85.0 
795.537476 133.0 
795.585938 48.0 
795.666748 63.0 
795.723328 52.0 
795.755615 28.0 
795.787964 39.0 
795.804077 52.0 
795.860657 37.0 
795.884888 38.0 
795.901062 43.0 
795.949524 41.0 
795.973816 55.0 
795.998047 30.0 
796.014221 46.0 
796.046509 31.0 
796.062683 35.0 
796.095032 45.0 
796.143494 33.0 
796.175842 41.0 
796.192017 42.0 
796.216248 32.0 
796.248596 59.0 
796.289001 36.0 
796.32135 24.0 
796.337463 22.0 
796.37793 75.0 
796.410217 39.0 
796.45874 54.0 
796.491089 35.0 
796.499146 35.0 
796.523438 44.0 
796.555725 34.0 
796.580017 35.0 
796.596191 28.0 
796.612366 30.0 
796.636597 28.0 
796.668945 38.0 
796.693176 44.0 
796.733643 44.0 
796.76593 43.0 
796.790222 26.0 
796.806396 43.0 
796.822571 45.0 
796.854919 44.0 
796.903381 64.0 
796.919556 49.0 
796.951904 47.0 
796.976196 28.0 
797.000427 32.0 
797.032776 39.0 
797.057068 33.0 
797.081299 26.0 
797.113647 34.0 
797.137939 33.0 
797.186462 30.0 
797.218811 30.0 
797.25116 38.0 
797.291565 38.0 
797.315857 32.0 
797.340088 28.0 
797.36438 28.0 
797.388611 74.0 
797.437195 59.0 
797.4776 38.0 
797.501892 39.0 
797.518066 44.0 
797.534241 50.0 
797.558533 37.0 
797.590881 32.0 
797.607056 32.0 
797.62323 44.0 
797.639404 48.0 
797.671753 69.0 
797.728394 54.0 
797.752686 55.0 
797.776917 34.0 
797.801208 48.0 
797.833557 31.0 
797.849731 30.0 
797.890198 26.0 
797.906372 20.0 
797.938721 69.0 
797.954956 29.0 
797.979187 42.0 
797.995361 37.0 
798.027771 33.0 
798.043945 29.0 
798.092468 28.0 
798.11676 66.0 
798.149109 61.0 
798.173401 42.0 
798.189575 89.0 
798.221985 54.0 
798.270508 53.0 
798.319092 34.0 
798.359558 43.0 
798.367615 43.0 
798.408081 53.0 
798.448547 29.0 
798.480957 37.0 
798.521423 29.0 
798.537598 39.0 
798.570007 24.0 
798.610474 35.0 
798.634766 27.0 
798.667114 43.0 
798.707581 33.0 
798.73999 28.0 
798.756165 30.0 
798.812805 41.0 
798.853333 47.0 
798.893799 41.0 
798.934265 62.0 
798.966675 40.0 
798.982849 40.0 
798.999023 21.0 
799.023315 48.0 
799.071899 30.0 
799.104309 54.0 
799.144775 29.0 
799.177185 37.0 
799.185303 37.0 
799.233887 33.0 
799.258179 27.0 
799.274353 30.0 
799.298645 30.0 
799.314819 30.0 
799.339111 40.0 
799.363403 54.0 
799.379639 47.0 
799.43634 53.0 
799.460632 32.0 
799.484924 21.0 
799.509216 33.0 
799.549683 21.0 
799.565918 23.0 
799.59021 21.0 
799.598328 21.0 
799.614502 32.0 
799.638794 19.0 
799.663086 30.0 
799.695496 32.0 
799.71167 32.0 
799.74408 44.0 
799.760315 33.0 
799.776489 24.0 
799.800781 54.0 
799.857483 42.0 
799.914246 63.0 
799.946594 29.0 
799.970947 53.0 
800.019531 25.0 
800.035767 28.0 
800.060059 47.0 
800.084351 38.0 
800.11676 75.0 
800.132935 44.0 
800.173462 46.0 
800.189697 55.0 
800.205872 43.0 
800.222107 45.0 
800.246399 45.0 
800.262634 68.0 
800.303101 32.0 
800.33551 26.0 
800.359863 29.0 
800.400391 53.0 
800.448975 42.0 
800.481384 32.0 
800.49762 39.0 
800.530029 52.0 
800.570557 28.0 
800.586731 27.0 
800.619202 25.0 
800.659729 47.0 
800.692139 36.0 
800.716431 31.0 
800.724548 31.0 
800.740723 37.0 
800.773193 38.0 
800.821838 46.0 
800.854248 25.0 
800.87854 28.0 
800.902893 30.0 
800.935303 36.0 
800.967712 32.0 
800.983948 27.0 
801.000122 26.0 
801.024475 26.0 
801.048767 40.0 
801.097412 43.0 
801.113647 36.0 
801.137939 22.0 
801.17041 56.0 
801.219055 52.0 
801.251465 50.0 
801.30011 47.0 
801.324463 25.0 
801.348755 37.0 
801.389343 30.0 
801.405518 32.0 
801.46228 70.0 
801.486633 30.0 
801.510925 33.0 
801.535278 40.0 
801.567688 33.0 
801.583923 31.0 
801.608276 31.0 
801.648804 54.0 
801.681274 18.0 
801.705566 33.0 
801.738037 27.0 
801.754272 27.0 
801.770447 32.0 
801.827271 40.0 
801.85968 36.0 
801.892151 19.0 
801.908325 20.0 
801.940796 35.0 
801.965149 40.0 
801.981384 35.0 
802.013794 33.0 
802.030029 40.0 
802.086792 41.0 
802.103027 39.0 
802.143616 36.0 
802.176025 28.0 
802.200378 40.0 
802.216614 19.0 
802.232849 20.0 
802.249084 25.0 
802.273376 34.0 
802.305847 50.0 
802.3302 28.0 
802.354553 55.0 
802.378906 50.0 
802.403198 51.0 
802.411316 51.0 
802.435669 45.0 
802.460022 39.0 
802.492493 65.0 
802.541138 34.0 
802.573608 55.0 
802.589844 43.0 
802.597961 43.0 
802.646667 57.0 
802.695312 36.0 
802.727783 78.0 
802.768372 26.0 
802.784607 32.0 
802.80896 62.0 
802.849548 22.0 
802.865784 45.0 
802.890137 44.0 
802.938843 41.0 
802.955078 24.0 
802.979431 41.0 
803.011841 35.0 
803.052429 26.0 
803.068665 19.0 
803.109253 44.0 
803.125488 40.0 
803.166077 31.0 
803.19043 56.0 
803.214783 37.0 
803.279724 48.0 
803.295959 74.0 
803.320312 31.0 
803.352783 79.0 
803.36908 45.0 
803.409668 41.0 
803.434021 29.0 
803.458374 33.0 
803.498962 49.0 
803.531433 30.0 
803.547668 32.0 
803.580139 30.0 
803.61261 42.0 
803.628845 25.0 
803.653259 29.0 
803.68573 30.0 
803.710083 32.0 
803.726318 36.0 
803.742554 39.0 
803.783142 46.0 
803.815613 27.0 
803.840027 15.0 
803.86438 40.0 
803.913086 48.0 
803.961853 35.0 
804.018677 57.0 
804.051147 40.0 
804.0755 21.0 
804.108032 21.0 
804.132385 34.0 
804.172974 30.0 
804.229858 65.0 
804.262329 51.0 
804.286743 36.0 
804.359863 48.0 
804.376099 39.0 
804.408569 21.0 
804.441101 34.0 
804.457336 31.0 
804.489807 58.0 
804.514221 46.0 
804.530457 33.0 
804.562927 46.0 
804.587341 47.0 
804.619812 46.0 
804.676697 28.0 
804.684814 28.0 
804.717346 46.0 
804.733582 43.0 
804.766052 53.0 
804.790466 52.0 
804.831055 37.0 
804.879822 30.0 
804.904236 43.0 
804.920471 36.0 
804.944824 32.0 
804.985474 45.0 
805.001709 44.0 
805.042358 23.0 
805.066772 38.0 
805.083008 46.0 
805.123657 60.0 
805.172424 29.0 
805.213074 49.0 
805.253662 31.0 
805.261841 31.0 
805.286194 36.0 
805.326843 40.0 
805.343079 43.0 
805.367493 32.0 
805.383728 39.0 
805.424377 41.0 
805.456909 28.0 
805.465027 28.0 
805.481323 40.0 
805.497559 55.0 
805.53009 27.0 
805.546326 30.0 
805.57074 25.0 
805.611389 40.0 
805.627625 24.0 
805.660156 19.0 
805.692688 51.0 
805.72522 27.0 
805.741455 21.0 
805.773987 25.0 
805.790222 36.0 
805.79834 36.0 
805.847168 29.0 
805.871521 40.0 
805.904053 50.0 
805.928467 28.0 
805.952881 46.0 
805.977234 34.0 
806.017944 47.0 
806.058594 27.0 
806.074829 28.0 
806.107361 44.0 
806.131775 48.0 
806.164307 39.0 
806.180542 32.0 
806.204956 41.0 
806.221252 46.0 
806.245605 43.0 
806.278137 45.0 
806.318848 37.0 
806.359497 40.0 
806.375793 33.0 
806.408325 40.0 
806.465271 38.0 
806.489624 43.0 
806.530334 45.0 
806.54657 40.0 
806.579102 44.0 
806.603516 57.0 
806.62793 36.0 
806.644226 52.0 
806.684875 72.0 
806.725586 53.0 
806.766235 39.0 
806.782532 43.0 
806.815063 41.0 
806.839478 38.0 
806.855713 31.0 
806.872009 26.0 
806.888306 37.0 
806.91272 44.0 
806.937073 33.0 
806.969666 33.0 
806.99408 57.0 
807.026611 38.0 
807.051025 20.0 
807.059143 20.0 
807.091736 38.0 
807.107971 44.0 
807.124268 46.0 
807.140503 40.0 
807.164917 44.0 
807.181213 43.0 
807.19751 53.0 
807.213745 60.0 
807.254456 56.0 
807.287048 44.0 
807.31958 42.0 
807.335876 51.0 
807.360291 30.0 
807.392822 27.0 
807.417236 20.0 
807.44165 41.0 
807.466064 28.0 
807.474243 28.0 
807.482361 28.0 
807.490479 28.0 
807.531189 30.0 
807.547485 35.0 
807.571899 32.0 
807.588196 28.0 
807.596313 28.0 
807.61261 28.0 
807.637024 30.0 
807.685852 41.0 
807.69397 41.0 
807.710266 46.0 
807.759094 61.0 
807.783569 37.0 
807.799805 48.0 
807.840515 61.0 
807.856812 50.0 
807.881226 39.0 
807.897522 37.0 
807.930054 47.0 
807.94635 35.0 
807.995239 32.0 
808.027771 62.0 
808.060364 36.0 
808.07666 20.0 
808.092896 26.0 
808.117371 53.0 
808.149902 48.0 
808.174377 45.0 
808.206909 64.0 
808.223206 40.0 
808.263916 25.0 
808.280212 28.0 
808.320923 39.0 
808.353516 53.0 
808.37793 55.0 
808.402344 42.0 
808.434937 37.0 
808.451233 35.0 
808.475647 41.0 
808.524536 60.0 
808.557129 32.0 
808.573425 31.0 
808.605957 35.0 
808.630432 42.0 
808.654846 49.0 
808.671143 37.0 
808.703735 50.0 
808.736328 42.0 
808.760742 37.0 
808.793335 36.0 
808.809631 44.0 
808.850342 43.0 
808.866638 35.0 
808.899231 43.0 
808.915527 43.0 
808.94812 30.0 
808.964417 34.0 
809.005127 22.0 
809.021423 46.0 
809.03772 30.0 
809.078491 17.0 
809.102905 50.0 
809.119202 35.0 
809.168091 31.0 
809.192566 32.0 
809.225159 58.0 
809.282166 47.0 
809.314758 54.0 
809.339233 35.0 
809.35553 46.0 
809.363647 46.0 
809.39624 35.0 
809.428833 40.0 
809.461426 43.0 
809.485901 39.0 
809.518494 34.0 
809.575562 37.0 
809.616272 55.0 
809.632568 20.0 
809.648865 25.0 
809.681519 56.0 
809.705933 40.0 
809.730408 56.0 
809.738525 56.0 
809.779297 33.0 
809.795593 22.0 
809.820068 47.0 
809.852661 26.0 
809.877136 30.0 
809.90155 51.0 
809.934204 29.0 
809.958618 33.0 
809.966797 33.0 
809.983093 46.0 
810.031982 45.0 
810.056458 57.0 
810.080933 38.0 
810.105408 50.0 
810.138 52.0 
810.178772 32.0 
810.211365 51.0 
810.268433 31.0 
810.292908 37.0 
810.309204 49.0 
810.349976 64.0 
810.398926 59.0 
810.42334 191.0 
810.439697 211.0 
810.455994 195.0 
810.47229 283.0 
810.504883 192.0 
810.529358 130.0 
810.562012 160.0 
810.586426 111.0 
810.635376 71.0 
810.66803 39.0 
810.692444 41.0 
810.708801 34.0 
810.725098 26.0 
810.765869 38.0 
810.782166 24.0 
810.806641 33.0 
810.831116 34.0 
810.839294 34.0 
810.86377 40.0 
810.888245 51.0 
810.920837 26.0 
810.953491 32.0 
810.969788 35.0 
810.994263 16.0 
811.018738 37.0 
811.035034 36.0 
811.051331 50.0 
811.108459 53.0 
811.132935 47.0 
811.165588 62.0 
811.222656 46.0 
811.263489 36.0 
811.296082 47.0 
811.30426 47.0 
811.345032 43.0 
811.369507 38.0 
811.402161 57.0 
811.434814 97.0 
811.442932 97.0 
811.467468 138.0 
811.516418 109.0 
811.549011 133.0 
811.598022 40.0 
811.630615 58.0 
811.679626 94.0 
811.736755 89.0 
811.777527 65.0 
811.810181 66.0 
811.834656 40.0 
811.859131 35.0 
811.891785 18.0 
811.91626 37.0 
811.957092 24.0 
811.973389 31.0 
811.989746 31.0 
812.0224 28.0 
812.063171 19.0 
812.07135 19.0 
812.104004 17.0 
812.128479 28.0 
812.152954 48.0 
812.193787 45.0 
812.22644 30.0 
812.234619 30.0 
812.250916 37.0 
812.283569 47.0 
812.299927 45.0 
812.332581 39.0 
812.357056 75.0 
812.381592 67.0 
812.422363 86.0 
812.446899 69.0 
812.463196 96.0 
812.504028 65.0 
812.520386 56.0 
812.536682 59.0 
812.593811 80.0 
812.618347 31.0 
812.634644 40.0 
812.642822 40.0 
812.65918 43.0 
812.675476 64.0 
812.732666 51.0 
812.757141 36.0 
812.789795 28.0 
812.814331 34.0 
812.838806 32.0 
812.87146 37.0 
812.895996 46.0 
812.945007 57.0 
813.010315 42.0 
813.03479 35.0 
813.051147 31.0 
813.083801 45.0 
813.124634 32.0 
813.140991 28.0 
813.157349 33.0 
813.173645 40.0 
813.20636 48.0 
813.230835 36.0 
813.26355 38.0 
813.288025 41.0 
813.312561 35.0 
813.328857 47.0 
813.353394 40.0 
813.377869 62.0 
813.402405 47.0 
813.443237 59.0 
813.48407 142.0 
813.500427 51.0 
813.533081 122.0 
813.557617 36.0 
813.590271 59.0 
813.65564 55.0 
813.704712 44.0 
813.721008 40.0 
813.77002 42.0 
813.778198 42.0 
813.802734 51.0 
813.835449 30.0 
813.851746 37.0 
813.900818 46.0 
813.949829 52.0 
813.982483 68.0 
814.023376 32.0 
814.039734 37.0 
814.047913 37.0 
814.080566 50.0 
814.113281 52.0 
814.145935 59.0 
814.162292 68.0 
814.195007 48.0 
814.219543 42.0 
814.244019 30.0 
814.268555 20.0 
814.284912 19.0 
814.309448 12.0 
814.342102 31.0 
814.374817 41.0 
814.391174 40.0 
814.423889 37.0 
814.448364 31.0 
814.4729 49.0 
814.513794 39.0 
814.554688 38.0 
814.579163 32.0 
814.603699 17.0 
814.636414 50.0 
814.652771 33.0 
814.669128 45.0 
814.685486 41.0 
814.710022 47.0 
814.742676 23.0 
814.759033 37.0 
814.799927 30.0 
814.816284 37.0 
814.84082 40.0 
814.857178 51.0 
814.914429 50.0 
814.938904 60.0 
814.979797 52.0 
814.996155 46.0 
815.012512 35.0 
815.045227 47.0 
815.069763 46.0 
815.102478 21.0 
815.127014 35.0 
815.176086 108.0 
815.208801 115.0 
815.266052 156.0 
815.315125 38.0 
815.372375 43.0 
815.388733 38.0 
815.40509 87.0 
815.462341 79.0 
815.511414 54.0 
815.527771 34.0 
815.576843 38.0 
815.609558 39.0 
815.625916 34.0 
815.650452 38.0 
815.675049 37.0 
815.699585 37.0 
815.7323 37.0 
815.765015 36.0 
815.789551 32.0 
815.822266 36.0 
815.846802 24.0 
815.863159 42.0 
815.895935 62.0 
815.920471 36.0 
815.936829 39.0 
815.977722 39.0 
816.026794 63.0 
816.051392 50.0 
816.084106 37.0 
816.108643 49.0 
816.133179 45.0 
816.174133 53.0 
816.223206 31.0 
816.239563 37.0 
816.25592 43.0 
816.296875 24.0 
816.32959 46.0 
816.354126 33.0 
816.395081 58.0 
816.435974 36.0 
816.501465 42.0 
816.526001 36.0 
816.550598 48.0 
816.583313 36.0 
816.607849 35.0 
816.632446 37.0 
816.665161 51.0 
816.697937 21.0 
816.730652 49.0 
816.747009 47.0 
816.796143 41.0 
816.820679 29.0 
816.837097 37.0 
816.88623 36.0 
816.918945 24.0 
816.951721 48.0 
817.000793 67.0 
817.041748 50.0 
817.09906 48.0 
817.148193 40.0 
817.197327 40.0 
817.230103 38.0 
817.279236 37.0 
817.311951 32.0 
817.336548 46.0 
817.377502 25.0 
817.426636 49.0 
817.475769 61.0 
817.524902 44.0 
817.533081 44.0 
817.557617 34.0 
817.606812 53.0 
817.631348 30.0 
817.647766 43.0 
817.688721 68.0 
817.729675 28.0 
817.754211 27.0 
817.77063 34.0 
817.811584 36.0 
817.844299 42.0 
817.868896 31.0 
817.893494 40.0 
817.92627 33.0 
817.983582 27.0 
818.024536 41.0 
818.081909 45.0 
818.131042 32.0 
818.163818 46.0 
818.171997 46.0 
818.204773 37.0 
818.22937 26.0 
818.270325 45.0 
818.311279 17.0 
818.327698 15.0 
818.344055 20.0 
818.417847 66.0 
818.434204 54.0 
818.450623 58.0 
818.491577 63.0 
818.516174 25.0 
818.532532 27.0 
818.565308 32.0 
818.589905 29.0 
818.614502 26.0 
818.639099 23.0 
818.663696 41.0 
818.671875 41.0 
818.696472 29.0 
818.721069 23.0 
818.745667 25.0 
818.7948 44.0 
818.819397 45.0 
818.868591 45.0 
818.884949 33.0 
818.909546 23.0 
818.934143 39.0 
818.95874 23.0 
818.999756 37.0 
819.04071 35.0 
819.081726 24.0 
819.106323 43.0 
819.155518 50.0 
819.180054 36.0 
819.188293 36.0 
819.212891 35.0 
819.229248 34.0 
819.245667 29.0 
819.253845 29.0 
819.270264 39.0 
819.311279 36.0 
819.335876 52.0 
819.360474 36.0 
819.385071 38.0 
819.434265 44.0 
819.458862 21.0 
819.516235 33.0 
819.540833 32.0 
819.581848 16.0 
819.639221 41.0 
819.663818 39.0 
819.704834 28.0 
819.729431 26.0 
819.74585 27.0 
819.786865 34.0 
819.795044 34.0 
819.827881 53.0 
819.877075 52.0 
819.92627 49.0 
819.967285 37.0 
820.000122 28.0 
820.024719 28.0 
820.049316 29.0 
820.082153 26.0 
820.10675 46.0 
820.131348 39.0 
820.155945 45.0 
820.180542 54.0 
820.213379 39.0 
820.221558 39.0 
820.262573 42.0 
820.278992 28.0 
820.29541 28.0 
820.303589 28.0 
820.328247 26.0 
820.344666 25.0 
820.361023 21.0 
820.385681 30.0 
820.410278 36.0 
820.434875 34.0 
820.467712 33.0 
820.484131 32.0 
820.500549 51.0 
820.541565 43.0 
820.582581 36.0 
820.598999 33.0 
820.623596 29.0 
820.640015 27.0 
820.68927 32.0 
820.713867 42.0 
820.738464 42.0 
820.77948 41.0 
820.795898 44.0 
820.812317 34.0 
820.845154 54.0 
820.869751 46.0 
820.927246 38.0 
820.943665 54.0 
820.992859 52.0 
821.017517 41.0 
821.042114 32.0 
821.066772 30.0 
821.083191 33.0 
821.099609 33.0 
821.115967 21.0 
821.148804 26.0 
821.181641 28.0 
821.206299 26.0 
821.247314 46.0 
821.263733 52.0 
821.312988 50.0 
821.337646 42.0 
821.354065 31.0 
821.395081 47.0 
821.452576 29.0 
821.485413 39.0 
821.501831 36.0 
821.51825 51.0 
821.567505 49.0 
821.600342 18.0 
821.61676 35.0 
821.641357 41.0 
821.657776 40.0 
821.690674 36.0 
821.715271 28.0 
821.748108 30.0 
821.756348 30.0 
821.780945 32.0 
821.805603 30.0 
821.822021 35.0 
821.84668 32.0 
821.871277 43.0 
821.912354 34.0 
821.94519 55.0 
822.002686 29.0 
822.019104 27.0 
822.043762 24.0 
822.060181 24.0 
822.076599 28.0 
822.134094 42.0 
822.150513 25.0 
822.18335 46.0 
822.199768 33.0 
822.240845 37.0 
822.281921 50.0 
822.331177 45.0 
822.388733 45.0 
822.41333 37.0 
822.437988 45.0 
822.462646 39.0 
822.495483 30.0 
822.53656 42.0 
822.552979 38.0 
822.577637 38.0 
822.626953 34.0 
822.643372 37.0 
822.676208 27.0 
822.692688 25.0 
822.709106 32.0 
822.733765 46.0 
822.758362 35.0 
822.766602 35.0 
822.815918 73.0 
822.865173 45.0 
822.898071 61.0 
822.947388 41.0 
822.972046 32.0 
822.996643 37.0 
823.021301 38.0 
823.054199 55.0 
823.078857 27.0 
823.103516 25.0 
823.136353 36.0 
823.16925 50.0 
823.177429 50.0 
823.193909 46.0 
823.251404 55.0 
823.276062 40.0 
823.30072 29.0 
823.341858 38.0 
823.399353 33.0 
823.424011 48.0 
823.465149 33.0 
823.473328 33.0 
823.506226 54.0 
823.563782 61.0 
823.621277 26.0 
823.645935 51.0 
823.703491 55.0 
823.736389 32.0 
823.761047 31.0 
823.785706 25.0 
823.818604 54.0 
823.87616 37.0 
823.892578 28.0 
823.925476 42.0 
823.958374 38.0 
824.00769 51.0 
824.040588 32.0 
824.057007 29.0 
824.098145 32.0 
824.114624 30.0 
824.139282 41.0 
824.180359 20.0 
824.205078 46.0 
824.246155 35.0 
824.262634 43.0 
824.32019 44.0 
824.369507 50.0 
824.402405 28.0 
824.418884 36.0 
824.443542 55.0 
824.451782 55.0 
824.48468 37.0 
824.509338 41.0 
824.525818 37.0 
824.542236 37.0 
824.583374 38.0 
824.624512 38.0 
824.65741 28.0 
824.682068 29.0 
824.714966 31.0 
824.731445 26.0 
824.764343 49.0 
824.789001 24.0 
824.821899 49.0 
824.838379 41.0 
824.863037 26.0 
824.879517 31.0 
824.904175 52.0 
824.937073 27.0 
824.953552 22.0 
824.97821 36.0 
824.99469 36.0 
825.027588 46.0 
825.076965 57.0 
825.109863 37.0 
825.126343 22.0 
825.151001 31.0 
825.175659 35.0 
825.183899 35.0 
825.233276 46.0 
825.249756 41.0 
825.282654 15.0 
825.307312 32.0 
825.340271 34.0 
825.356689 26.0 
825.373169 38.0 
825.414307 60.0 
825.430786 34.0 
825.447205 36.0 
825.463684 23.0 
825.488403 45.0 
825.537781 34.0 
825.562439 31.0 
825.587158 29.0 
825.603577 29.0 
825.636536 39.0 
825.669434 40.0 
825.702393 30.0 
825.718811 29.0 
825.76001 29.0 
825.792908 18.0 
825.817627 20.0 
825.825806 20.0 
825.842285 18.0 
825.858765 29.0 
825.875244 24.0 
825.899902 29.0 
825.941101 49.0 
825.965759 51.0 
825.990479 47.0 
826.015137 51.0 
826.039856 37.0 
826.072815 42.0 
826.122192 54.0 
826.17157 74.0 
826.196289 38.0 
826.221008 43.0 
826.245667 33.0 
826.278625 46.0 
826.328003 41.0 
826.352722 34.0 
826.360962 34.0 
826.4021 86.0 
826.435059 43.0 
826.459778 32.0 
826.484497 88.0 
826.517395 35.0 
826.542114 33.0 
826.558594 38.0 
826.607971 52.0 
826.64093 38.0 
826.690369 29.0 
826.723267 45.0 
826.764465 36.0 
826.789185 24.0 
826.822144 28.0 
826.846863 38.0 
826.89624 40.0 
826.90448 40.0 
826.937439 38.0 
826.962158 45.0 
826.986877 38.0 
827.019836 41.0 
827.044495 40.0 
827.069214 39.0 
827.085693 52.0 
827.118652 38.0 
827.176331 51.0 
827.19281 26.0 
827.20929 33.0 
827.234009 38.0 
827.250488 22.0 
827.291687 25.0 
827.324646 22.0 
827.357605 33.0 
827.382263 40.0 
827.390503 40.0 
827.415222 52.0 
827.464661 49.0 
827.514099 57.0 
827.538818 29.0 
827.571777 34.0 
827.596497 31.0 
827.604736 31.0 
827.612976 31.0 
827.654236 41.0 
827.711914 43.0 
827.736633 28.0 
827.753113 28.0 
827.769592 27.0 
827.794312 41.0 
827.827271 15.0 
827.860229 29.0 
827.876709 32.0 
827.901428 31.0 
827.926147 38.0 
827.950867 46.0 
827.975586 56.0 
828.000366 57.0 
828.025085 39.0 
828.049805 29.0 
828.099243 39.0 
828.123962 40.0 
828.156921 35.0 
828.173462 51.0 
828.2229 39.0 
828.23938 27.0 
828.264099 29.0 
828.280579 32.0 
828.297058 44.0 
828.313599 40.0 
828.338318 42.0 
828.379517 48.0 
828.412476 114.0 
828.470215 241.0 
828.519653 316.0 
828.560913 225.0 
828.610352 141.0 
828.668091 71.0 
828.70105 37.0 
828.71759 48.0 
828.74231 45.0 
828.750549 45.0 
828.767029 41.0 
828.800049 50.0 
828.824768 45.0 
828.841248 39.0 
828.890747 64.0 
828.931946 35.0 
828.973206 36.0 
828.989685 44.0 
829.030945 40.0 
829.047424 27.0 
829.080444 30.0 
829.105164 33.0 
829.121643 30.0 
829.162903 35.0 
829.195862 31.0 
829.220642 42.0 
829.245361 34.0 
829.261902 35.0 
829.294861 33.0 
829.303101 33.0 
829.319641 40.0 
829.336121 36.0 
829.34436 36.0 
829.39386 47.0 
829.459839 227.0 
829.492859 354.0 
829.534119 280.0 
829.591858 106.0 
829.616577 95.0 
829.674377 36.0 
829.699097 37.0 
829.748596 48.0 
829.789856 34.0 
829.814636 44.0 
829.847595 40.0 
829.888855 34.0 
829.913635 35.0 
829.946655 31.0 
829.996155 56.0 
830.020935 31.0 
830.070435 42.0 
830.095154 36.0 
830.119934 43.0 
830.144714 31.0 
830.169434 24.0 
830.194214 45.0 
830.227234 28.0 
830.260254 49.0 
830.301514 58.0 
830.317993 44.0 
830.342773 80.0 
830.384033 30.0 
830.408813 31.0 
830.417053 31.0 
830.433594 32.0 
830.474854 100.0 
830.499634 113.0 
830.524353 64.0 
830.557373 107.0 
830.573914 100.0 
830.606934 57.0 
830.623413 63.0 
830.664734 49.0 
830.697754 34.0 
830.714233 30.0 
830.747253 40.0 
830.796814 53.0 
830.821594 50.0 
830.829834 50.0 
830.854614 32.0 
830.871094 35.0 
830.887634 36.0 
830.912415 36.0 
830.945435 13.0 
830.970215 26.0 
830.994934 38.0 
831.036255 41.0 
831.069275 75.0 
831.102295 61.0 
831.151855 75.0 
831.176636 47.0 
831.209656 45.0 
831.250977 18.0 
831.283997 37.0 
831.308777 43.0 
831.341797 20.0 
831.366577 47.0 
831.383118 46.0 
831.449158 20.0 
831.473938 32.0 
831.482178 32.0 
831.498718 63.0 
831.540039 63.0 
831.581299 59.0 
831.630859 46.0 
831.65564 38.0 
831.68042 48.0 
831.7052 40.0 
831.72998 39.0 
831.754761 33.0 
831.804382 37.0 
831.820862 44.0 
831.829163 44.0 
831.853943 23.0 
831.878723 29.0 
831.936523 56.0 
831.953064 50.0 
831.969604 32.0 
831.994385 48.0 
832.043945 47.0 
832.085266 76.0 
832.126587 44.0 
832.143066 49.0 
832.184387 27.0 
832.200928 40.0 
832.27533 74.0 
832.316589 45.0 
832.33313 35.0 
832.35791 44.0 
832.382751 40.0 
832.407532 36.0 
832.440552 34.0 
832.473633 48.0 
832.523193 27.0 
832.548035 54.0 
832.597595 67.0 
832.630676 68.0 
832.671997 43.0 
832.721558 56.0 
832.754639 35.0 
832.779419 34.0 
832.80426 47.0 
832.829041 48.0 
832.870361 43.0 
832.911682 28.0 
832.928223 38.0 
832.944763 27.0 
832.969604 39.0 
832.986084 36.0 
833.019165 40.0 
833.027466 40.0 
833.044006 34.0 
833.068787 55.0 
833.134949 54.0 
833.159729 34.0 
833.184509 52.0 
833.209351 23.0 
833.225891 24.0 
833.267212 39.0 
833.300293 46.0 
833.316833 41.0 
833.341614 55.0 
833.374695 57.0 
833.391235 39.0 
833.440857 38.0 
833.465637 56.0 
833.498718 30.0 
833.515259 48.0 
833.54834 50.0 
833.56488 31.0 
833.597961 41.0 
833.622803 39.0 
833.647583 24.0 
833.680664 51.0 
833.697205 41.0 
833.730286 44.0 
833.763367 46.0 
833.796448 40.0 
833.85437 45.0 
833.879211 52.0 
833.920532 40.0 
833.937073 28.0 
833.961914 48.0 
834.003235 44.0 
834.036316 29.0 
834.069458 36.0 
834.094238 31.0 
834.127319 34.0 
834.168701 48.0 
834.185242 46.0 
834.243164 44.0 
834.284546 23.0 
834.309326 29.0 
834.359009 60.0 
834.39209 16.0 
834.40863 28.0 
834.441711 39.0 
834.458252 53.0 
834.491394 30.0 
834.516174 52.0 
834.549316 28.0 
834.574097 33.0 
834.607239 45.0 
834.64032 42.0 
834.65686 40.0 
834.673401 24.0 
834.690002 29.0 
834.714783 27.0 
834.731384 40.0 
834.764465 28.0 
834.789307 19.0 
834.814087 44.0 
834.847229 20.0 
834.86377 21.0 
834.888611 26.0 
834.913452 33.0 
834.938232 22.0 
834.971375 26.0 
834.996216 24.0 
835.037598 82.0 
835.070679 74.0 
835.120361 78.0 
835.186584 68.0 
835.244507 53.0 
835.261108 42.0 
835.294189 35.0 
835.327332 62.0 
835.360413 31.0 
835.385254 42.0 
835.401794 25.0 
835.426636 17.0 
835.443237 27.0 
835.492859 46.0 
835.50946 34.0 
835.534302 55.0 
835.559143 32.0 
835.575684 46.0 
835.608826 47.0 
835.658508 37.0 
835.675049 31.0 
835.691589 31.0 
835.724731 58.0 
835.733032 58.0 
835.782715 50.0 
835.807556 42.0 
835.857239 36.0 
835.906921 52.0 
835.964905 22.0 
836.006287 64.0 
836.06427 35.0 
836.072571 35.0 
836.089111 34.0 
836.122253 35.0 
836.147095 37.0 
836.163635 21.0 
836.180237 23.0 
836.205078 27.0 
836.229919 34.0 
836.271301 22.0 
836.296204 30.0 
836.329285 32.0 
836.345886 19.0 
836.362427 11.0 
836.379028 20.0 
836.41217 40.0 
836.453552 45.0 
836.470154 42.0 
836.511536 33.0 
836.528137 31.0 
836.552979 39.0 
836.57782 47.0 
836.627563 33.0 
836.644104 19.0 
836.668945 45.0 
836.702087 25.0 
836.72699 34.0 
836.776672 41.0 
836.801514 51.0 
836.834717 25.0 
836.851257 25.0 
836.876099 39.0 
836.8927 34.0 
836.917542 43.0 
836.958984 36.0 
836.992126 48.0 
837.033569 43.0 
837.075012 47.0 
837.091553 54.0 
837.124695 24.0 
837.141296 31.0 
837.182739 30.0 
837.224182 52.0 
837.282166 48.0 
837.307068 45.0 
837.34021 54.0 
837.356812 47.0 
837.406494 50.0 
837.423096 49.0 
837.456238 40.0 
837.48114 68.0 
837.489441 68.0 
837.514282 53.0 
837.572327 72.0 
837.597168 55.0 
837.605469 55.0 
837.62207 36.0 
837.655212 72.0 
837.680054 32.0 
837.704956 32.0 
837.738098 47.0 
837.771301 32.0 
837.787842 33.0 
837.804443 31.0 
837.821045 36.0 
837.837585 38.0 
837.89563 61.0 
837.928772 48.0 
837.986816 47.0 
838.003418 32.0 
838.061462 35.0 
838.086365 16.0 
838.102905 18.0 
838.119507 24.0 
838.136108 27.0 
838.144409 27.0 
838.194153 37.0 
838.243896 29.0 
838.268799 25.0 
838.2854 27.0 
838.310242 21.0 
838.335144 44.0 
838.359985 36.0 
838.376587 40.0 
838.393188 44.0 
838.426392 18.0 
838.451233 34.0 
838.459534 34.0 
838.484436 42.0 
838.492737 42.0 
838.517578 32.0 
838.53418 35.0 
838.567383 41.0 
838.583984 46.0 
838.633728 39.0 
838.65863 53.0 
838.675171 80.0 
838.733276 66.0 
838.766418 57.0 
838.799622 28.0 
838.857727 24.0 
838.890869 18.0 
838.915771 40.0 
838.965576 53.0 
838.982178 46.0 
838.998718 38.0 
839.031921 75.0 
839.081726 44.0 
839.123169 50.0 
839.156372 20.0 
839.197876 27.0 
839.214478 36.0 
839.23938 39.0 
839.255981 24.0 
839.280884 29.0 
839.314026 42.0 
839.330627 38.0 
839.338928 38.0 
839.363831 36.0 
839.380432 45.0 
839.405334 30.0 
839.438538 33.0 
839.455139 43.0 
839.513245 42.0 
839.562988 35.0 
839.596191 36.0 
839.621094 53.0 
839.679199 56.0 
839.712402 36.0 
839.737305 39.0 
839.770508 37.0 
839.79541 38.0 
839.828613 42.0 
839.845215 39.0 
839.878418 33.0 
839.90332 32.0 
839.928223 54.0 
839.944824 42.0 
839.986328 24.0 
840.00293 18.0 
840.036133 44.0 
840.1026 35.0 
840.119202 32.0 
840.144104 37.0 
840.160706 37.0 
840.202209 50.0 
840.227112 45.0 
840.260315 53.0 
840.285217 52.0 
840.335022 58.0 
840.376587 38.0 
840.393188 35.0 
840.418091 48.0 
840.451294 38.0 
840.484497 21.0 
840.526062 27.0 
840.542664 25.0 
840.575867 43.0 
840.625671 41.0 
840.642273 30.0 
840.675537 40.0 
840.70874 35.0 
840.733643 38.0 
840.80011 64.0 
840.825012 53.0 
840.841614 34.0 
840.849915 34.0 
840.883179 26.0 
840.89978 47.0 
840.908081 47.0 
840.924683 48.0 
840.957947 32.0 
840.974548 41.0 
841.007751 31.0 
841.057617 45.0 
841.065918 45.0 
841.09082 18.0 
841.132385 44.0 
841.148987 27.0 
841.190491 31.0 
841.207153 32.0 
841.223755 36.0 
841.240356 36.0 
841.273621 33.0 
841.298523 36.0 
841.331726 33.0 
841.36499 47.0 
841.389893 37.0 
841.414856 36.0 
841.473022 38.0 
841.497925 34.0 
841.564392 54.0 
841.597656 68.0 
841.647522 49.0 
841.680725 30.0 
841.72229 50.0 
841.755554 26.0 
841.780457 48.0 
841.797058 43.0 
841.838623 37.0 
841.871887 43.0 
841.913452 33.0 
841.946655 22.0 
841.98822 42.0 
842.004883 32.0 
842.046387 43.0 
842.096313 38.0 
842.137817 21.0 
842.15448 15.0 
842.179382 48.0 
842.229309 53.0 
842.262512 26.0 
842.279175 36.0 
842.312439 47.0 
842.354004 29.0 
842.387207 48.0 
842.41217 32.0 
842.437134 35.0 
842.470398 30.0 
842.4953 25.0 
842.511963 32.0 
842.536865 39.0 
842.553528 49.0 
842.595093 36.0 
842.611694 48.0 
842.644958 33.0 
842.678223 43.0 
842.694885 52.0 
842.73645 31.0 
842.769714 33.0 
842.794617 49.0 
842.811279 68.0 
842.844543 39.0 
842.869507 38.0 
842.911072 31.0 
842.960938 54.0 
842.994202 66.0 
843.010864 52.0 
843.035828 33.0 
843.052429 38.0 
843.085693 25.0 
843.127319 26.0 
843.177185 53.0 
843.227112 50.0 
843.260376 47.0 
843.29364 19.0 
843.318604 22.0 
843.335205 49.0 
843.36853 61.0 
843.393494 28.0 
843.418396 35.0 
843.443359 36.0 
843.484985 33.0 
843.501587 24.0 
843.52655 40.0 
843.559814 41.0 
843.60144 47.0 
843.618103 38.0 
843.626404 38.0 
843.651367 33.0 
843.701294 40.0 
843.742859 32.0 
843.767822 31.0 
843.792786 33.0 
843.82605 33.0 
843.842712 29.0 
843.875977 58.0 
843.934265 43.0 
843.984192 32.0 
844.009155 26.0 
844.05072 41.0 
844.067383 40.0 
844.100708 25.0 
844.125671 44.0 
844.158936 28.0 
844.208862 43.0 
844.242188 29.0 
844.258789 29.0 
844.300415 36.0 
844.317078 33.0 
844.350342 42.0 
844.40863 63.0 
844.450256 30.0 
844.516846 50.0 
844.566772 51.0 
844.591736 34.0 
844.616699 50.0 
844.666687 42.0 
844.699951 27.0 
844.716614 41.0 
844.741577 33.0 
844.774902 42.0 
844.791565 45.0 
844.816528 28.0 
844.833191 34.0 
844.841492 34.0 
844.858154 38.0 
844.891479 29.0 
844.916443 53.0 
844.958069 69.0 
844.983032 52.0 
845.03302 48.0 
845.066284 74.0 
845.091309 24.0 
845.116272 49.0 
845.149597 28.0 
845.166199 33.0 
845.191223 43.0 
845.249512 52.0 
845.282837 42.0 
845.299438 49.0 
845.332764 53.0 
845.37439 36.0 
845.399414 49.0 
845.466003 42.0 
845.50769 34.0 
845.524353 35.0 
845.541016 35.0 
845.557678 26.0 
845.599304 55.0 
845.615967 37.0 
845.632629 35.0 
845.690918 24.0 
845.715881 26.0 
845.740906 40.0 
845.774231 37.0 
845.815857 34.0 
845.849182 62.0 
845.89917 33.0 
845.932495 47.0 
845.96582 42.0 
845.982483 37.0 
846.007507 30.0 
846.049133 35.0 
846.074158 23.0 
846.099121 38.0 
846.132446 34.0 
846.165771 40.0 
846.190796 42.0 
846.224121 30.0 
846.249084 44.0 
846.307434 35.0 
846.340759 40.0 
846.349121 40.0 
846.399109 48.0 
846.465759 162.0 
846.490784 101.0 
846.507446 102.0 
846.549133 126.0 
846.590759 36.0 
846.632446 41.0 
846.649109 38.0 
846.665771 31.0 
846.690796 24.0 
846.707458 34.0 
846.740784 36.0 
846.774109 27.0 
846.815796 61.0 
846.857483 47.0 
846.890808 37.0 
846.915833 56.0 
846.940857 46.0 
846.95752 39.0 
846.965881 39.0 
846.990845 41.0 
847.032532 25.0 
847.049194 18.0 
847.065918 26.0 
847.090881 36.0 
847.107544 41.0 
847.124268 46.0 
847.14093 50.0 
847.174255 73.0 
847.224304 43.0 
847.249329 22.0 
847.265991 34.0 
847.282654 47.0 
847.324341 43.0 
847.341003 67.0 
847.38269 37.0 
847.407715 29.0 
847.432739 35.0 
847.466064 95.0 
847.499451 104.0 
847.524475 52.0 
847.5495 115.0 
847.607849 53.0 
847.632874 46.0 
847.682922 56.0 
847.716248 42.0 
847.741272 30.0 
847.774658 27.0 
847.807983 30.0 
847.84137 45.0 
847.883057 93.0 
847.916443 83.0 
847.95813 104.0 
847.999817 35.0 
848.024841 51.0 
848.049866 50.0 
848.066589 46.0 
848.099915 40.0 
848.124939 30.0 
848.141663 35.0 
848.166687 37.0 
848.191711 34.0 
848.225037 53.0 
848.250122 40.0 
848.275146 39.0 
848.308472 47.0 
848.325195 60.0 
848.35022 21.0 
848.383606 52.0 
848.425293 33.0 
848.46698 48.0 
848.492065 35.0 
848.533752 51.0 
848.583801 59.0 
848.617188 35.0 
848.642212 24.0 
848.675598 41.0 
848.725647 42.0 
848.775757 37.0 
848.792419 29.0 
848.834167 28.0 
848.884216 37.0 
848.90094 36.0 
848.942627 29.0 
848.959351 41.0 
848.976013 37.0 
849.017761 51.0 
849.051147 40.0 
849.092896 43.0 
849.11792 38.0 
849.134644 38.0 
849.16803 27.0 
849.193054 41.0 
849.218079 50.0 
849.251465 29.0 
849.276489 37.0 
849.318237 40.0 
849.334961 24.0 
849.359985 23.0 
849.376709 28.0 
849.393372 55.0 
849.410095 46.0 
849.443481 27.0 
849.468506 39.0 
849.485229 40.0 
849.552002 43.0 
849.568726 36.0 
849.585388 39.0 
849.618774 36.0 
849.668884 41.0 
849.702271 37.0 
849.735657 21.0 
849.769104 53.0 
849.810852 33.0 
849.844238 47.0 
849.8526 47.0 
849.90271 29.0 
849.936096 31.0 
849.986206 36.0 
850.002869 37.0 
850.036316 30.0 
850.069702 36.0 
850.086426 24.0 
850.103088 25.0 
850.16156 24.0 
850.186646 35.0 
850.228394 22.0 
850.26178 42.0 
850.303528 34.0 
850.345337 43.0 
850.395447 49.0 
850.437195 98.0 
850.46228 147.0 
850.478943 141.0 
850.51239 76.0 
850.554138 82.0 
850.61261 39.0 
850.637695 34.0 
850.654419 42.0 
850.687805 27.0 
850.729614 50.0 
850.746277 45.0 
850.804749 41.0 
850.829834 38.0 
850.846558 37.0 
850.888306 24.0 
850.905029 20.0 
850.9552 54.0 
850.988586 32.0 
851.022034 33.0 
851.047119 42.0 
851.097229 30.0 
851.130676 49.0 
851.155701 29.0 
851.19751 42.0 
851.222595 36.0 
851.24762 22.0 
851.264343 20.0 
851.272705 20.0 
851.297791 50.0 
851.322876 44.0 
851.347961 24.0 
851.364624 34.0 
851.372986 34.0 
851.423157 35.0 
851.473328 66.0 
851.48999 56.0 
851.515076 45.0 
851.531799 34.0 
851.548523 45.0 
851.573608 28.0 
851.590332 30.0 
851.615417 37.0 
851.632141 42.0 
851.648865 50.0 
851.698975 46.0 
851.757507 35.0 
851.782593 32.0 
851.799316 38.0 
851.832764 52.0 
851.857849 33.0 
851.882935 26.0 
851.899597 30.0 
851.933044 41.0 
851.983215 38.0 
852.008301 37.0 
852.041748 38.0 
852.083557 45.0 
852.133728 38.0 
852.158813 20.0 
852.192261 51.0 
852.225708 32.0 
852.242432 32.0 
852.259155 33.0 
852.300964 49.0 
852.342773 53.0 
852.384583 43.0 
852.41803 27.0 
852.434753 34.0 
852.451477 33.0 
852.468201 31.0 
852.484924 38.0 
852.543518 31.0 
852.568604 48.0 
852.618774 46.0 
852.660583 29.0 
852.677307 29.0 
852.710754 43.0 
852.727478 37.0 
852.73584 37.0 
852.786072 29.0 
852.802795 30.0 
852.819519 23.0 
852.844604 30.0 
852.886414 33.0 
852.928223 45.0 
852.970093 50.0 
853.020264 32.0 
853.062073 35.0 
853.095581 39.0 
853.120667 46.0 
853.154114 37.0 
853.17926 48.0 
853.204346 32.0 
853.229431 54.0 
853.254517 34.0 
853.279663 36.0 
853.304749 19.0 
853.321472 25.0 
853.371643 64.0 
853.413513 37.0 
853.421875 37.0 
853.455322 62.0 
853.480469 32.0 
853.513916 43.0 
853.589233 47.0 
853.614319 35.0 
853.647827 54.0 
853.689697 25.0 
853.706421 45.0 
853.731506 52.0 
853.765015 34.0 
853.781738 44.0 
853.840332 24.0 
853.873779 43.0 
853.932373 48.0 
853.965881 44.0 
854.024475 43.0 
854.049561 37.0 
854.074707 39.0 
854.099792 44.0 
854.124939 43.0 
854.150024 53.0 
854.183533 31.0 
854.242126 41.0 
854.267212 33.0 
854.275574 33.0 
854.325867 32.0 
854.367676 93.0 
854.401184 111.0 
854.426331 76.0 
854.459778 179.0 
854.518433 136.0 
854.535156 61.0 
854.55188 42.0 
854.568665 52.0 
854.59375 40.0 
854.627258 34.0 
854.669128 58.0 
854.710999 40.0 
854.736145 27.0 
854.76123 19.0 
854.778015 20.0 
854.794739 26.0 
854.836609 40.0 
854.844971 40.0 
854.886841 26.0 
854.911987 34.0 
854.928711 43.0 
854.945496 28.0 
854.970642 29.0 
854.987366 32.0 
855.020874 29.0 
855.062744 56.0 
855.079529 50.0 
855.104614 49.0 
855.138123 24.0 
855.163269 34.0 
855.171631 34.0 
855.205139 15.0 
855.221924 26.0 
855.238647 32.0 
855.280518 38.0 
855.339172 49.0 
855.397827 50.0 
855.439697 38.0 
855.48999 72.0 
855.515076 25.0 
855.540222 41.0 
855.57373 42.0 
855.582153 42.0 
855.598877 35.0 
855.632385 33.0 
855.657532 31.0 
855.699402 27.0 
855.724548 33.0 
855.749695 37.0 
855.783203 39.0 
855.825134 47.0 
855.867004 40.0 
855.892151 33.0 
855.917297 54.0 
855.984314 36.0 
856.001099 35.0 
856.026245 17.0 
856.051392 28.0 
856.068115 33.0 
856.135193 35.0 
856.160339 48.0 
856.218994 27.0 
856.244141 21.0 
856.269287 45.0 
856.294434 39.0 
856.31958 35.0 
856.336365 39.0 
856.361511 29.0 
856.39502 65.0 
856.420166 64.0 
856.436951 41.0 
856.453674 120.0 
856.503967 58.0 
856.537537 80.0 
856.571045 36.0 
856.579468 36.0 
856.612976 67.0 
856.663269 49.0 
856.721985 47.0 
856.738708 54.0 
856.763855 33.0 
856.78064 28.0 
856.805786 46.0 
856.822571 40.0 
856.839355 32.0 
856.856079 42.0 
856.872864 37.0 
856.923157 43.0 
856.981873 49.0 
856.998657 27.0 
857.015442 43.0 
857.04895 39.0 
857.057373 39.0 
857.074097 38.0 
857.090881 33.0 
857.132812 37.0 
857.166382 50.0 
857.216675 32.0 
857.250244 50.0 
857.275391 54.0 
857.334106 43.0 
857.367615 30.0 
857.384399 36.0 
857.409607 33.0 
857.426331 31.0 
857.4599 41.0 
857.485046 25.0 
857.493469 25.0 
857.518616 30.0 
857.543762 47.0 
857.56897 43.0 
857.594116 49.0 
857.619263 48.0 
857.636047 35.0 
857.677979 44.0 
857.728333 41.0 
857.770264 29.0 
857.787048 35.0 
857.803833 33.0 
857.820618 46.0 
857.854187 28.0 
857.879333 39.0 
857.90448 35.0 
857.929688 41.0 
857.954834 33.0 
857.971619 45.0 
858.021973 48.0 
858.063904 45.0 
858.114258 51.0 
858.147827 52.0 
858.164612 45.0 
858.189758 42.0 
858.223328 30.0 
858.240112 27.0 
858.315674 24.0 
858.349243 43.0 
858.399536 43.0 
858.424744 23.0 
858.433105 23.0 
858.44989 21.0 
858.475098 26.0 
858.483459 26.0 
858.500244 29.0 
858.525452 31.0 
858.575806 35.0 
858.617798 41.0 
858.62616 41.0 
858.693298 52.0 
858.743652 50.0 
858.760437 52.0 
858.777283 37.0 
858.819214 48.0 
858.861206 43.0 
858.903137 38.0 
858.945129 39.0 
858.970337 41.0 
859.012329 55.0 
859.05426 62.0 
859.096252 50.0 
859.12146 41.0 
859.163391 97.0 
859.180237 49.0 
859.197021 72.0 
859.239014 103.0 
859.272583 29.0 
859.306152 72.0 
859.356506 57.0 
859.398499 33.0 
859.448914 34.0 
859.482483 29.0 
859.499268 41.0 
859.54126 29.0 
859.558044 45.0 
859.625244 36.0 
859.667236 35.0 
859.709229 37.0 
859.776428 41.0 
859.809998 39.0 
859.81842 39.0 
859.877197 30.0 
859.894043 21.0 
859.936035 40.0 
859.969604 44.0 
859.986389 34.0 
860.02002 56.0 
860.070435 37.0 
860.104004 70.0 
860.137634 60.0 
860.188049 75.0 
860.221619 28.0 
860.255249 36.0 
860.297241 39.0 
860.339233 59.0 
860.372864 35.0 
860.389648 39.0 
860.423279 47.0 
860.448486 18.0 
860.473694 36.0 
860.498901 31.0 
860.532471 45.0 
860.566101 42.0 
860.574524 42.0 
860.616516 41.0 
860.641724 42.0 
860.666931 35.0 
860.675354 35.0 
860.700562 41.0 
860.767761 34.0 
860.801392 42.0 
860.818176 32.0 
860.851807 38.0 
860.877014 16.0 
860.919067 35.0 
860.935852 31.0 
860.977905 35.0 
860.99469 42.0 
861.036743 29.0 
861.053528 27.0 
861.070312 22.0 
861.087158 31.0 
861.120789 46.0 
861.171204 46.0 
861.204834 46.0 
861.221619 35.0 
861.255249 41.0 
861.288879 24.0 
861.314087 37.0 
861.347717 66.0 
861.398193 52.0 
861.414978 42.0 
861.440186 50.0 
861.473816 34.0 
861.507446 42.0 
861.524292 41.0 
861.557922 50.0 
861.61676 45.0 
861.633606 32.0 
861.658813 55.0 
861.692444 19.0 
861.717651 45.0 
861.751282 27.0 
861.768127 40.0 
861.784912 40.0 
861.801758 62.0 
861.826965 38.0 
861.860596 22.0 
861.902649 34.0 
861.953125 18.0 
861.96991 17.0 
861.995178 24.0 
862.028809 31.0 
862.070862 25.0 
862.104492 28.0 
862.1297 40.0 
862.154968 53.0 
862.213806 60.0 
862.255859 42.0 
862.28949 35.0 
862.314758 31.0 
862.331604 28.0 
862.356812 48.0 
862.390442 29.0 
862.407288 26.0 
862.440918 45.0 
862.499817 31.0 
862.533447 27.0 
862.54187 27.0 
862.583923 27.0 
862.617554 24.0 
862.634399 28.0 
862.659668 30.0 
862.684875 45.0 
862.718567 33.0 
862.735352 36.0 
862.769043 32.0 
862.802673 41.0 
862.827942 23.0 
862.853149 45.0 
862.878418 26.0 
862.912048 17.0 
862.962524 54.0 
863.004639 40.0 
863.029846 16.0 
863.046692 22.0 
863.063538 13.0 
863.097168 35.0 
863.147644 29.0 
863.172913 48.0 
863.198181 31.0 
863.223389 32.0 
863.248657 40.0 
863.273926 30.0 
863.315979 33.0 
863.34967 41.0 
863.374878 45.0 
863.391724 39.0 
863.416992 39.0 
863.459045 34.0 
863.475891 36.0 
863.492737 37.0 
863.53479 20.0 
863.551636 17.0 
863.576904 43.0 
863.585327 43.0 
863.618958 43.0 
863.644226 33.0 
863.669495 35.0 
863.694763 26.0 
863.720032 69.0 
863.762085 22.0 
863.795776 39.0 
863.821045 51.0 
863.846252 57.0 
863.871521 36.0 
863.905212 46.0 
863.922058 36.0 
863.938904 35.0 
863.972534 31.0 
863.98938 38.0 
864.006226 38.0 
864.031494 29.0 
864.04834 25.0 
864.065186 32.0 
864.098877 45.0 
864.115723 45.0 
864.157776 26.0 
864.183044 19.0 
864.208313 36.0 
864.242004 43.0 
864.25885 50.0 
864.292542 21.0 
864.326233 46.0 
864.359924 35.0 
864.393555 37.0 
864.4104 42.0 
864.444092 36.0 
864.494629 74.0 
864.536743 31.0 
864.58728 53.0 
864.612549 25.0 
864.637817 32.0 
864.654663 27.0 
864.671509 35.0 
864.688354 39.0 
864.730469 49.0 
864.76416 55.0 
864.806274 35.0 
864.831543 33.0 
864.856812 36.0 
864.88208 39.0 
864.924194 29.0 
864.949463 22.0 
864.974731 41.0 
865.008423 52.0 
865.050598 29.0 
865.067444 29.0 
865.08429 26.0 
865.109558 40.0 
865.14325 34.0 
865.160095 43.0 
865.185364 24.0 
865.227478 31.0 
865.269653 41.0 
865.303345 38.0 
865.311768 38.0 
865.328613 62.0 
865.353882 37.0 
865.387573 69.0 
865.446594 33.0 
865.471863 25.0 
865.505554 38.0 
865.530823 37.0 
865.547668 28.0 
865.581421 40.0 
865.623535 40.0 
865.682556 42.0 
865.716248 43.0 
865.72467 43.0 
865.783691 41.0 
865.834229 50.0 
865.859497 47.0 
865.876404 47.0 
865.926941 63.0 
865.952209 40.0 
865.977539 44.0 
865.985962 44.0 
866.01123 37.0 
866.053406 68.0 
866.103943 45.0 
866.137695 51.0 
866.154541 48.0 
866.188293 40.0 
866.205139 31.0 
866.238831 57.0 
866.26416 26.0 
866.306274 52.0 
866.323181 55.0 
866.34845 27.0 
866.365295 46.0 
866.382141 44.0 
866.390625 44.0 
866.407471 35.0 
866.424316 49.0 
866.441162 53.0 
866.500183 49.0 
866.51709 33.0 
866.533936 36.0 
866.559204 29.0 
866.592957 47.0 
866.626709 30.0 
866.651978 44.0 
866.668823 41.0 
866.694153 27.0 
866.710999 35.0 
866.736328 48.0 
866.803772 33.0 
866.837524 55.0 
866.862793 49.0 
866.896545 61.0 
866.921814 33.0 
866.963989 45.0 
866.980896 41.0 
867.014587 23.0 
867.031494 19.0 
867.065247 34.0 
867.082092 28.0 
867.090515 28.0 
867.115845 29.0 
867.141113 36.0 
867.174866 29.0 
867.191711 26.0 
867.217041 40.0 
867.242371 35.0 
867.267639 40.0 
867.301392 32.0 
867.326721 48.0 
867.35199 25.0 
867.368896 22.0 
867.402649 36.0 
867.453247 45.0 
867.487 28.0 
867.512268 42.0 
867.537598 62.0 
867.588257 52.0 
867.605103 53.0 
867.655701 35.0 
867.68103 29.0 
867.70636 34.0 
867.723206 41.0 
867.799194 49.0 
867.81604 42.0 
867.832947 29.0 
867.849792 36.0 
867.891968 36.0 
867.95105 39.0 
867.976379 45.0 
868.010132 41.0 
868.069214 28.0 
868.102966 30.0 
868.128296 53.0 
868.153564 30.0 
868.170471 31.0 
868.212646 39.0 
868.229553 31.0 
868.280212 52.0 
868.288635 52.0 
868.313965 47.0 
868.38147 21.0 
868.406799 50.0 
868.440552 119.0 
868.465881 175.0 
868.499634 185.0 
868.550293 145.0 
868.592529 51.0 
868.651611 34.0 
868.668518 40.0 
868.693848 31.0 
868.710693 31.0 
868.7276 32.0 
868.761353 46.0 
868.820435 36.0 
868.871094 41.0 
868.896423 27.0 
868.930237 42.0 
868.963989 40.0 
868.989319 28.0 
869.014648 51.0 
869.048401 33.0 
869.073792 32.0 
869.099121 28.0 
869.132874 30.0 
869.158203 24.0 
869.17511 30.0 
869.208862 39.0 
869.234192 35.0 
869.251099 36.0 
869.284851 49.0 
869.335571 43.0 
869.369324 32.0 
869.38623 36.0 
869.403137 36.0 
869.419983 42.0 
869.445374 30.0 
869.479126 59.0 
869.529785 40.0 
869.555176 44.0 
869.563599 44.0 
869.588928 28.0 
869.614258 28.0 
869.648071 12.0 
869.673401 20.0 
869.715637 31.0 
869.757874 31.0 
869.77478 29.0 
869.808533 60.0 
869.825439 38.0 
869.859253 61.0 
869.884583 41.0 
869.918396 34.0 
869.935303 42.0 
869.943726 42.0 
869.960632 40.0 
870.002869 44.0 
870.019775 35.0 
870.053589 30.0 
870.087341 41.0 
870.112732 32.0 
870.129578 21.0 
870.146484 28.0 
870.154968 28.0 
870.171875 18.0 
870.205627 18.0 
870.239441 38.0 
870.290161 50.0 
870.349304 48.0 
870.391541 59.0 
870.433777 58.0 
870.450684 56.0 
870.484497 22.0 
870.518311 54.0 
870.560547 49.0 
870.59436 42.0 
870.628174 38.0 
870.653564 29.0 
870.678894 36.0 
870.72113 32.0 
870.754944 58.0 
870.771851 53.0 
870.780334 53.0 
870.831055 31.0 
870.847961 34.0 
870.873291 53.0 
870.907104 41.0 
870.924011 27.0 
870.940918 28.0 
870.957825 36.0 
870.991638 35.0 
871.017029 42.0 
871.042358 36.0 
871.067749 35.0 
871.093079 39.0 
871.126892 25.0 
871.152283 26.0 
871.169189 24.0 
871.203003 35.0 
871.245239 52.0 
871.262146 40.0 
871.279053 51.0 
871.296021 44.0 
871.312927 45.0 
871.363647 26.0 
871.397461 30.0 
871.422791 42.0 
871.439758 39.0 
871.481995 41.0 
871.498901 38.0 
871.541199 31.0 
871.558105 28.0 
871.591919 24.0 
871.61731 21.0 
871.651123 29.0 
871.659607 29.0 
871.718811 42.0 
871.744141 49.0 
871.769531 25.0 
871.803345 43.0 
871.828735 29.0 
871.854126 44.0 
871.879456 36.0 
871.904846 26.0 
871.930237 16.0 
871.955627 30.0 
871.980957 49.0 
872.014832 48.0 
872.031738 58.0 
872.057129 47.0 
872.074036 41.0 
872.116333 41.0 
872.150146 41.0 
872.167053 24.0 
872.18396 35.0 
872.200928 44.0 
872.226257 54.0 
872.260132 36.0 
872.285522 87.0 
872.344727 79.0 
872.37854 63.0 
872.395508 44.0 
872.420837 116.0 
872.471619 541.0 
872.513916 451.0 
872.539307 306.0 
872.632385 78.0 
872.691589 62.0 
872.725464 60.0 
872.750854 44.0 
872.776245 31.0 
872.793152 33.0 
872.827026 38.0 
872.852417 30.0 
872.869324 25.0 
872.894714 39.0 
872.962402 53.0 
872.987793 28.0 
872.996277 28.0 
873.021667 52.0 
873.063965 47.0 
873.097839 41.0 
873.114746 33.0 
873.148621 52.0 
873.182434 53.0 
873.216309 32.0 
873.241699 37.0 
873.26709 34.0 
873.284058 32.0 
873.326355 81.0 
873.343262 95.0 
873.377136 94.0 
873.402527 101.0 
873.436401 217.0 
873.47876 412.0 
873.529541 408.0 
873.580322 216.0 
873.631104 62.0 
873.648071 50.0 
873.664978 50.0 
873.681885 55.0 
873.707336 53.0 
873.74115 50.0 
873.766602 39.0 
873.800476 47.0 
873.817383 46.0 
873.851257 43.0 
873.876648 23.0 
873.902039 65.0 
873.935913 40.0 
873.961304 40.0 
873.986755 50.0 
874.012146 25.0 
874.029053 24.0 
874.054504 47.0 
874.096802 35.0 
874.11377 31.0 
874.13916 56.0 
874.173035 46.0 
874.223877 40.0 
874.257751 39.0 
874.291626 45.0 
874.317017 48.0 
874.342407 49.0 
874.39325 48.0 
874.410156 28.0 
874.435608 51.0 
874.469482 231.0 
874.520325 187.0 
874.554199 65.0 
874.57959 121.0 
874.613464 41.0 
874.638916 73.0 
874.664307 59.0 
874.689697 42.0 
874.715149 71.0 
874.749023 65.0 
874.816772 76.0 
874.876099 41.0 
874.893066 40.0 
874.909973 38.0 
874.952332 44.0 
875.003174 41.0 
875.037048 41.0 
875.079468 32.0 
875.121826 45.0 
875.164185 42.0 
875.198059 44.0 
875.257385 65.0 
875.29126 39.0 
875.342163 38.0 
875.367554 43.0 
875.393005 52.0 
875.418396 67.0 
875.460754 103.0 
875.49469 46.0 
875.520081 21.0 
875.537048 73.0 
875.570984 25.0 
875.587891 23.0 
875.613342 46.0 
875.638794 43.0 
875.655701 45.0 
875.69812 57.0 
875.740479 29.0 
875.782837 37.0 
875.799805 66.0 
875.842224 26.0 
875.876099 47.0 
875.918518 42.0 
875.96936 49.0 
876.003296 27.0 
876.03717 46.0 
876.096558 56.0 
876.130432 58.0 
876.181335 68.0 
876.21521 49.0 
876.240662 73.0 
876.266113 35.0 
876.291565 31.0 
876.325439 72.0 
876.350891 39.0 
876.376343 59.0 
876.401794 26.0 
876.435669 39.0 
876.461121 29.0 
876.495056 65.0 
876.528992 46.0 
876.554443 36.0 
876.57135 46.0 
876.605286 39.0 
876.630737 39.0 
876.656189 60.0 
876.690125 35.0 
876.72406 36.0 
876.749451 45.0 
876.774902 28.0 
876.808838 19.0 
876.83429 22.0 
876.851257 22.0 
876.868225 29.0 
876.885193 30.0 
876.910645 32.0 
876.927612 46.0 
876.995422 35.0 
877.046326 40.0 
877.071777 28.0 
877.097229 42.0 
877.131165 51.0 
877.148132 33.0 
877.1651 38.0 
877.182068 21.0 
877.216003 48.0 
877.224487 48.0 
877.249939 35.0 
877.266907 35.0 
877.309326 42.0 
877.31781 42.0 
877.334778 23.0 
877.351746 50.0 
877.368713 39.0 
877.402649 56.0 
877.428101 37.0 
877.462036 42.0 
877.479004 62.0 
877.529907 26.0 
877.555359 59.0 
877.580872 29.0 
877.597839 48.0 
877.631775 38.0 
877.657227 48.0 
877.682678 51.0 
877.725098 35.0 
877.742065 20.0 
877.776001 59.0 
877.801453 34.0 
877.81842 40.0 
877.860901 46.0 
877.886353 25.0 
877.90332 32.0 
877.920288 25.0 
877.94574 40.0 
877.962708 48.0 
877.988159 26.0 
878.013672 39.0 
878.064575 46.0 
878.090027 27.0 
878.123962 35.0 
878.140991 36.0 
878.174927 18.0 
878.200378 45.0 
878.22583 27.0 
878.259827 35.0 
878.285278 28.0 
878.31073 46.0 
878.344666 47.0 
878.361694 43.0 
878.404114 40.0 
878.421082 36.0 
878.472046 47.0 
878.514465 42.0 
878.548462 40.0 
878.582397 45.0 
878.599365 43.0 
878.633362 26.0 
878.667297 43.0 
878.709778 32.0 
878.726746 23.0 
878.769226 27.0 
878.803162 28.0 
878.845642 59.0 
878.86261 49.0 
878.888062 21.0 
878.922058 34.0 
878.94751 19.0 
878.973022 23.0 
879.006958 61.0 
879.057922 47.0 
879.100403 45.0 
879.117371 33.0 
879.142822 39.0 
879.159851 45.0 
879.185303 36.0 
879.219299 44.0 
879.278748 45.0 
879.312683 46.0 
879.363647 46.0 
879.38916 14.0 
879.397644 14.0 
879.440125 32.0 
879.465637 28.0 
879.508057 46.0 
879.525085 46.0 
879.559021 50.0 
879.601501 47.0 
879.643982 39.0 
879.677979 33.0 
879.703491 42.0 
879.745972 44.0 
879.779907 62.0 
879.796936 36.0 
879.830933 40.0 
879.864868 56.0 
879.873413 56.0 
879.898865 28.0 
879.932861 69.0 
879.958374 24.0 
879.975342 29.0 
879.992371 33.0 
880.017822 43.0 
880.077332 62.0 
880.094299 58.0 
880.128296 30.0 
880.153809 45.0 
880.17926 36.0 
880.213257 46.0 
880.255798 47.0 
880.28125 22.0 
880.306763 49.0 
880.357727 45.0 
880.374756 45.0 
880.400269 36.0 
880.442749 50.0 
880.485229 37.0 
880.544739 28.0 
880.561707 24.0 
880.587219 34.0 
880.629761 30.0 
880.646729 31.0 
880.655212 31.0 
880.672241 35.0 
880.680725 35.0 
880.723267 48.0 
880.774231 35.0 
880.79126 41.0 
880.816772 61.0 
880.867737 40.0 
880.901733 39.0 
880.918762 33.0 
880.952759 28.0 
880.986755 53.0 
881.046265 31.0 
881.088806 42.0 
881.122803 28.0 
881.139832 41.0 
881.165344 27.0 
881.182312 24.0 
881.199341 32.0 
881.233337 41.0 
881.241821 41.0 
881.267334 27.0 
881.292847 38.0 
881.343872 31.0 
881.386414 34.0 
881.437439 21.0 
881.471436 37.0 
881.488464 22.0 
881.505493 59.0 
881.556519 73.0 
881.582031 22.0 
881.624512 32.0 
881.684082 48.0 
881.726562 33.0 
881.752075 23.0 
881.786133 40.0 
881.803162 34.0 
881.837158 30.0 
881.845642 30.0 
881.871216 28.0 
881.905212 40.0 
881.930725 42.0 
881.947754 35.0 
881.998779 42.0 
882.041321 25.0 
882.066833 41.0 
882.117859 42.0 
882.143433 44.0 
882.194458 38.0 
882.219971 40.0 
882.262512 37.0 
882.29657 31.0 
882.347595 76.0 
882.407166 47.0 
882.449707 33.0 
882.483704 43.0 
882.543274 36.0 
882.577332 22.0 
882.602844 25.0 
882.636902 59.0 
882.653931 43.0 
882.696472 37.0 
882.73053 34.0 
882.756042 27.0 
882.7901 25.0 
882.807129 35.0 
882.824097 30.0 
882.858154 34.0 
882.883728 32.0 
882.909241 47.0 
882.92627 37.0 
882.943298 37.0 
882.960327 37.0 
882.968811 37.0 
882.994324 45.0 
883.028381 29.0 
883.04541 37.0 
883.079468 27.0 
883.10498 33.0 
883.122009 36.0 
883.139038 44.0 
883.173096 40.0 
883.198608 66.0 
883.224182 35.0 
883.249695 34.0 
883.283752 43.0 
883.351868 42.0 
883.368896 26.0 
883.385925 23.0 
883.402954 21.0 
883.428467 40.0 
883.462524 52.0 
883.488098 38.0 
883.505127 34.0 
883.522156 36.0 
883.581726 31.0 
883.632812 53.0 
883.649841 30.0 
883.683899 54.0 
883.709473 46.0 
883.726501 47.0 
883.777588 55.0 
883.811646 39.0 
883.837158 53.0 
883.854248 42.0 
883.888306 32.0 
883.913818 21.0 
883.956421 50.0 
884.007507 36.0 
884.033081 35.0 
884.058594 44.0 
884.092651 40.0 
884.118225 39.0 
884.135254 38.0 
884.177856 57.0 
884.228943 31.0 
884.245972 20.0 
884.263 37.0 
884.322632 51.0 
884.339661 48.0 
884.365234 49.0 
884.407837 52.0 
884.467468 57.0 
884.501526 25.0 
884.552612 40.0 
884.595215 33.0 
884.629333 33.0 
884.637817 33.0 
884.654846 36.0 
884.671936 42.0 
884.688965 29.0 
884.714478 53.0 
884.731567 38.0 
884.765625 37.0 
884.791199 43.0 
884.816772 22.0 
884.85083 49.0 
884.884888 22.0 
884.910461 32.0 
884.936035 47.0 
885.012695 54.0 
885.072388 60.0 
885.11499 39.0 
885.157593 44.0 
885.217224 35.0 
885.242798 33.0 
885.251343 33.0 
885.276917 31.0 
885.30249 31.0 
885.328064 41.0 
885.362122 26.0 
885.37915 32.0 
885.404724 32.0 
885.413269 32.0 
885.464417 36.0 
885.48999 25.0 
885.515564 42.0 
885.549622 34.0 
885.600769 60.0 
885.651917 35.0 
885.69458 38.0 
885.720154 34.0 
885.745728 39.0 
885.78833 56.0 
885.839478 29.0 
885.873596 39.0 
885.89917 46.0 
885.941772 38.0 
886.001465 63.0 
886.035583 50.0 
886.061157 65.0 
886.078186 48.0 
886.10376 54.0 
886.171997 40.0 
886.2146 27.0 
886.231689 48.0 
886.248718 36.0 
886.308411 38.0 
886.351074 27.0 
886.376648 42.0 
886.410767 19.0 
886.419312 19.0 
886.43634 22.0 
886.487488 64.0 
886.530151 70.0 
886.56427 35.0 
886.589844 57.0 
886.615417 20.0 
886.641052 22.0 
886.666626 39.0 
886.717773 53.0 
886.743408 28.0 
886.777527 42.0 
886.837219 49.0 
886.862793 36.0 
886.896912 41.0 
886.905457 41.0 
886.93103 46.0 
886.965149 50.0 
886.982239 54.0 
887.007812 40.0 
887.024902 48.0 
887.041931 42.0 
887.084595 43.0 
887.101685 58.0 
887.169922 37.0 
887.186951 33.0 
887.212585 41.0 
887.255249 62.0 
887.272278 61.0 
887.289368 60.0 
887.306396 45.0 
887.332031 56.0 
887.36615 36.0 
887.38324 37.0 
887.400269 38.0 
887.417358 36.0 
887.451477 62.0 
887.485596 47.0 
887.528259 58.0 
887.562378 15.0 
887.613586 38.0 
887.639221 54.0 
887.67334 47.0 
887.707458 62.0 
887.750122 88.0 
887.767212 74.0 
887.801331 24.0 
887.83551 40.0 
887.861084 30.0 
887.903748 34.0 
887.920837 34.0 
887.937927 42.0 
887.997681 39.0 
888.014709 33.0 
888.065979 27.0 
888.083008 26.0 
888.108643 27.0 
888.125732 29.0 
888.142761 32.0 
888.168396 59.0 
888.202515 35.0 
888.228149 33.0 
888.253723 33.0 
888.287903 17.0 
888.313538 42.0 
888.347656 31.0 
888.373291 44.0 
888.398865 19.0 
888.4245 49.0 
888.450134 24.0 
888.467163 45.0 
888.484253 32.0 
888.501343 41.0 
888.526978 49.0 
888.569641 38.0 
888.629395 30.0 
888.655029 44.0 
888.680664 25.0 
888.706238 22.0 
888.740417 37.0 
888.791626 34.0 
888.842896 43.0 
888.894104 42.0 
888.928284 24.0 
888.945374 28.0 
888.962463 24.0 
889.013672 39.0 
889.047852 43.0 
889.073486 40.0 
889.107666 24.0 
889.13324 32.0 
889.158875 46.0 
889.193054 34.0 
889.218689 45.0 
889.252869 54.0 
889.269897 46.0 
889.312622 53.0 
889.355347 24.0 
889.372437 33.0 
889.423706 33.0 
889.46637 52.0 
889.517639 41.0 
889.543274 45.0 
889.577454 34.0 
889.620178 56.0 
889.671448 31.0 
889.705627 44.0 
889.748352 30.0 
889.782471 41.0 
889.808105 31.0 
889.825195 58.0 
889.83374 58.0 
889.859375 49.0 
889.86792 49.0 
889.9021 30.0 
889.927734 40.0 
889.979004 60.0 
890.021729 39.0 
890.038818 32.0 
890.064453 28.0 
890.072998 28.0 
890.098633 31.0 
890.124268 32.0 
890.149963 46.0 
890.184143 41.0 
890.201233 48.0 
890.235413 51.0 
890.295227 61.0 
890.329407 38.0 
890.363586 44.0 
890.380676 40.0 
890.397766 64.0 
890.431946 200.0 
890.474731 603.0 
890.483276 603.0 
890.517456 585.0 
890.568726 529.0 
890.61145 116.0 
890.637146 110.0 
890.671326 98.0 
890.705505 34.0 
890.73114 61.0 
890.74823 30.0 
890.782471 64.0 
890.81665 44.0 
890.842285 52.0 
890.893555 50.0 
890.93634 36.0 
890.95343 36.0 
890.98761 37.0 
891.004761 25.0 
891.030396 28.0 
891.047485 34.0 
891.107361 70.0 
891.150085 61.0 
891.201416 48.0 
891.227051 43.0 
891.244141 47.0 
891.252686 47.0 
891.26123 47.0 
891.329651 50.0 
891.355347 36.0 
891.372437 35.0 
891.415161 54.0 
891.483582 559.0 
891.534912 413.0 
891.569153 356.0 
891.628967 133.0 
891.663208 73.0 
891.697388 37.0 
891.714539 56.0 
891.748718 45.0 
891.774414 38.0 
891.800049 52.0 
891.817139 67.0 
891.877075 67.0 
891.928345 38.0 
891.962585 49.0 
891.996826 28.0 
892.039612 32.0 
892.056702 33.0 
892.099487 27.0 
892.116577 45.0 
892.142273 31.0 
892.167908 33.0 
892.202148 53.0 
892.244934 41.0 
892.279114 62.0 
892.313354 44.0 
892.33905 30.0 
892.364685 45.0 
892.390381 52.0 
892.458801 120.0 
892.501587 159.0 
892.518738 103.0 
892.552979 193.0 
892.578613 116.0 
892.647095 46.0 
892.681335 35.0 
892.70697 37.0 
892.724121 38.0 
892.732666 38.0 
892.766907 57.0 
892.809692 59.0 
892.869629 37.0 
892.886719 54.0 
892.929504 50.0 
892.946655 36.0 
892.980896 64.0 
893.032227 21.0 
893.075012 34.0 
893.092163 25.0 
893.134949 43.0 
893.18634 45.0 
893.211975 34.0 
893.229126 33.0 
893.271912 52.0 
893.306152 46.0 
893.340393 22.0 
893.366089 28.0 
893.38324 35.0 
893.41748 27.0 
893.460266 66.0 
893.477417 76.0 
893.494507 59.0 
893.511658 65.0 
893.537354 34.0 
893.571594 72.0 
893.631531 51.0 
893.691467 60.0 
893.734253 53.0 
893.7771 33.0 
893.802795 33.0 
893.837036 45.0 
893.854187 36.0 
893.896973 33.0 
893.922668 38.0 
893.939819 38.0 
893.948364 38.0 
893.982605 28.0 
893.999756 48.0 
894.025452 34.0 
894.059692 51.0 
894.102539 27.0 
894.119629 33.0 
894.13678 39.0 
894.179626 39.0 
894.222412 54.0 
894.256714 70.0 
894.28241 38.0 
894.308105 66.0 
894.359497 57.0 
894.410889 78.0 
894.445129 72.0 
894.496582 86.0 
894.530823 44.0 
894.565063 57.0 
894.59082 48.0 
894.625061 53.0 
894.650757 34.0 
894.676453 46.0 
894.702148 41.0 
894.727844 33.0 
894.779297 35.0 
894.813538 51.0 
894.86499 42.0 
894.916382 49.0 
894.942078 41.0 
894.967773 34.0 
894.993469 50.0 
895.019226 28.0 
895.053467 42.0 
895.096313 34.0 
895.130615 46.0 
895.156311 36.0 
895.207764 37.0 
895.2677 67.0 
895.319153 35.0 
895.344849 28.0 
895.362 42.0 
895.37915 33.0 
895.413452 53.0 
895.456299 44.0 
895.516296 43.0 
895.533447 39.0 
895.559143 37.0 
895.584839 50.0 
895.593445 50.0 
895.619141 30.0 
895.670593 64.0 
895.730591 37.0 
895.747742 40.0 
895.782043 18.0 
895.799194 18.0 
895.850586 36.0 
895.893494 44.0 
895.919189 27.0 
895.953491 22.0 
895.979248 56.0 
896.004944 28.0 
896.039246 72.0 
896.099243 45.0 
896.125 59.0 
896.150696 40.0 
896.202148 32.0 
896.23645 21.0 
896.253601 16.0 
896.322205 34.0 
896.365112 44.0 
896.399414 41.0 
896.433716 57.0 
896.468018 47.0 
896.476562 47.0 
896.51947 47.0 
896.536621 49.0 
896.570923 41.0 
896.596619 26.0 
896.622375 33.0 
896.656677 56.0 
896.690979 35.0 
896.70813 31.0 
896.742432 42.0 
896.768188 39.0 
896.80249 26.0 
896.828247 43.0 
896.845398 20.0 
896.871094 24.0 
896.888306 18.0 
896.914001 25.0 
896.931152 20.0 
896.956909 47.0 
896.999817 28.0 
897.034119 52.0 
897.05127 59.0 
897.111328 37.0 
897.14563 80.0 
897.188538 34.0 
897.222839 50.0 
897.248596 25.0 
897.257202 25.0 
897.334412 32.0 
897.377319 24.0 
897.420227 48.0 
897.445923 33.0 
897.463135 27.0 
897.488831 35.0 
897.514587 46.0 
897.54895 34.0 
897.566101 41.0 
897.600403 41.0 
897.634766 29.0 
897.660461 39.0 
897.677673 35.0 
897.711975 41.0 
897.737732 34.0 
897.789185 48.0 
897.823547 40.0 
897.840698 42.0 
897.857849 27.0 
897.900818 51.0 
897.917969 41.0 
897.943726 33.0 
897.960876 36.0 
897.995178 38.0 
898.020935 32.0 
898.063904 32.0 
898.115356 32.0 
898.149719 44.0 
898.16687 23.0 
898.22699 36.0 
898.244141 29.0 
898.269897 49.0 
898.330017 31.0 
898.364319 40.0 
898.415833 57.0 
898.458801 31.0 
898.510315 72.0 
898.553223 31.0 
898.570374 50.0 
898.59613 38.0 
898.613342 37.0 
898.65625 50.0 
898.699219 25.0 
898.724976 30.0 
898.742126 31.0 
898.759277 27.0 
898.776489 33.0 
898.79364 24.0 
898.810852 29.0 
898.845154 21.0 
898.85376 21.0 
898.888123 34.0 
898.939636 34.0 
898.965393 47.0 
898.99115 36.0 
899.016907 43.0 
899.068481 36.0 
899.094238 24.0 
899.111389 18.0 
899.154358 31.0 
899.180115 41.0 
899.214478 20.0 
899.231628 40.0 
899.265991 38.0 
899.291809 46.0 
899.326111 36.0 
899.377686 18.0 
899.412048 40.0 
899.480774 42.0 
899.532288 47.0 
899.5495 37.0 
899.56665 36.0 
899.601013 28.0 
899.635376 32.0 
899.661194 19.0 
899.686951 39.0 
899.712708 55.0 
899.74707 58.0 
899.790039 51.0 
899.824402 38.0 
899.858765 44.0 
899.901733 23.0 
899.918945 19.0 
899.944702 39.0 
899.979065 41.0 
900.004883 36.0 
900.022034 43.0 
900.056396 24.0 
900.073608 39.0 
900.133789 42.0 
900.159546 23.0 
900.185303 22.0 
900.202515 23.0 
900.254089 45.0 
900.305664 41.0 
900.348633 50.0 
900.391602 17.0 
900.425964 54.0 
900.468933 25.0 
900.494751 25.0 
900.520508 49.0 
900.529114 49.0 
900.546326 36.0 
900.580688 56.0 
900.606506 54.0 
900.632263 55.0 
900.666626 31.0 
900.692444 45.0 
900.718262 27.0 
900.735413 22.0 
900.76123 34.0 
900.769836 34.0 
900.795593 50.0 
900.855774 27.0 
900.907349 31.0 
900.933167 25.0 
900.967529 48.0 
901.001953 31.0 
901.019165 23.0 
901.044922 42.0 
901.062134 50.0 
901.096497 68.0 
901.148132 46.0 
901.165283 44.0 
901.191101 28.0 
901.208313 31.0 
901.225525 33.0 
901.259888 51.0 
901.320068 79.0 
901.371704 28.0 
901.38031 28.0 
901.397461 23.0 
901.414673 29.0 
901.440491 16.0 
901.457703 19.0 
901.483459 37.0 
901.517883 26.0 
901.535095 23.0 
901.560913 33.0 
901.578064 34.0 
901.603882 37.0 
901.646912 51.0 
901.681274 43.0 
901.741516 39.0 
901.758728 35.0 
901.793091 42.0 
901.827515 52.0 
901.870544 41.0 
901.887756 40.0 
901.922119 34.0 
901.947937 27.0 
901.982361 41.0 
901.999573 35.0 
902.016785 22.0 
902.033997 16.0 
902.051208 38.0 
902.06842 36.0 
902.111389 23.0 
902.137207 36.0 
902.154419 36.0 
902.240479 49.0 
902.266296 27.0 
902.317871 43.0 
902.335083 31.0 
902.352295 30.0 
902.369507 33.0 
902.412537 30.0 
902.438354 35.0 
902.48999 41.0 
902.541626 44.0 
902.567444 41.0 
902.584656 44.0 
902.627686 47.0 
902.653503 37.0 
902.670715 26.0 
902.687927 35.0 
902.722351 26.0 
902.748169 35.0 
902.773987 25.0 
902.782593 25.0 
902.817017 30.0 
902.834229 25.0 
902.860046 38.0 
902.89447 33.0 
902.928894 50.0 
902.946106 48.0 
902.989136 31.0 
903.014954 38.0 
903.040771 37.0 
903.066589 28.0 
903.101013 48.0 
903.109619 48.0 
903.169922 47.0 
903.204346 20.0 
903.230164 29.0 
903.264587 37.0 
903.299011 30.0 
903.333435 37.0 
903.342102 37.0 
903.359314 37.0 
903.393738 30.0 
903.419556 19.0 
903.436768 16.0 
903.445374 16.0 
903.488403 43.0 
903.522888 38.0 
903.574524 47.0 
903.591736 35.0 
903.626221 56.0 
903.660645 25.0 
903.677856 23.0 
903.703674 26.0 
903.720886 30.0 
903.738159 31.0 
903.763977 38.0 
903.798401 45.0 
903.815613 38.0 
903.875916 44.0 
903.901733 20.0 
903.944824 47.0 
903.962036 35.0 
903.987854 40.0 
904.005066 29.0 
904.030945 36.0 
904.056763 28.0 
904.091187 20.0 
904.117065 51.0 
904.142883 26.0 
904.185974 33.0 
904.220398 29.0 
904.254883 37.0 
904.280701 40.0 
904.297913 42.0 
904.332397 50.0 
904.358215 41.0 
904.384094 39.0 
904.401306 37.0 
904.43573 23.0 
904.444336 23.0 
904.461609 44.0 
904.496033 42.0 
904.521912 42.0 
904.556335 31.0 
904.573608 42.0 
904.625244 36.0 
904.668335 45.0 
904.694214 31.0 
904.737244 12.0 
904.754517 30.0 
904.78894 20.0 
904.832031 32.0 
904.849304 43.0 
904.866516 44.0 
904.926819 37.0 
904.952698 39.0 
904.978516 45.0 
905.004395 41.0 
905.056091 49.0 
905.081909 49.0 
905.107788 36.0 
905.150879 22.0 
905.168091 31.0 
905.211182 47.0 
905.271545 39.0 
905.314636 34.0 
905.366333 66.0 
905.400818 48.0 
905.41803 43.0 
905.461121 33.0 
905.512817 30.0 
905.538696 32.0 
905.564575 24.0 
905.581787 25.0 
905.607666 57.0 
905.642151 29.0 
905.659363 22.0 
905.693848 52.0 
905.728333 23.0 
905.754211 16.0 
905.788696 50.0 
905.805908 29.0 
905.840393 34.0 
905.866272 27.0 
905.892151 20.0 
905.900757 20.0 
905.935242 29.0 
905.969727 38.0 
905.995605 29.0 
906.064575 43.0 
906.090454 41.0 
906.124939 37.0 
906.142151 46.0 
906.16803 36.0 
906.202515 47.0 
906.245667 45.0 
906.297363 41.0 
906.331848 46.0 
906.375 52.0 
906.409485 26.0 
906.418091 26.0 
906.435364 28.0 
906.452576 21.0 
906.469849 27.0 
906.487122 27.0 
906.504333 31.0 
906.547485 39.0 
906.564697 32.0 
906.599182 52.0 
906.65094 52.0 
906.676819 22.0 
906.728577 37.0 
906.763062 66.0 
906.797607 32.0 
906.832092 51.0 
906.88385 61.0 
906.909729 32.0 
906.918335 32.0 
906.944214 35.0 
906.970093 31.0 
906.978699 31.0 
906.995972 39.0 
907.004639 39.0 
907.039124 25.0 
907.065002 37.0 
907.090881 22.0 
907.11676 40.0 
907.142639 35.0 
907.177124 33.0 
907.21167 36.0 
907.237549 34.0 
907.263428 26.0 
907.280701 28.0 
907.30658 24.0 
907.358337 38.0 
907.384216 40.0 
907.410095 52.0 
907.479126 32.0 
907.505005 42.0 
907.513611 42.0 
907.548157 40.0 
907.599915 37.0 
907.625793 31.0 
907.660339 42.0 
907.703491 50.0 
907.72937 32.0 
907.746643 39.0 
907.781128 51.0 
907.82428 34.0 
907.876099 47.0 
907.936523 52.0 
907.953735 29.0 
907.971008 25.0 
907.988281 38.0 
908.022827 23.0 
908.031433 23.0 
908.065979 25.0 
908.100525 40.0 
908.117737 40.0 
908.152283 24.0 
908.169556 37.0 
908.195435 35.0 
908.212708 34.0 
908.238586 34.0 
908.255859 35.0 
908.273132 33.0 
908.307678 44.0 
908.333557 36.0 
908.359436 35.0 
908.411255 102.0 
908.445801 199.0 
908.488953 727.0 
908.532104 418.0 
908.575317 387.0 
908.644348 75.0 
908.661621 60.0 
908.687561 57.0 
908.71344 30.0 
908.73938 68.0 
908.773865 40.0 
908.782532 40.0 
908.791138 40.0 
908.817078 31.0 
908.842957 40.0 
908.860229 45.0 
908.877502 39.0 
908.903442 40.0 
908.937988 37.0 
908.989746 35.0 
909.007019 27.0 
909.024292 30.0 
909.058838 45.0 
909.093384 38.0 
909.12793 26.0 
909.15387 29.0 
909.179749 33.0 
909.222961 56.0 
909.283447 48.0 
909.335266 16.0 
909.369812 39.0 
909.430237 64.0 
909.464783 183.0 
909.490723 297.0 
909.507996 294.0 
909.542542 196.0 
909.577087 230.0 
909.628967 96.0 
909.64624 77.0 
909.698059 57.0 
909.732605 72.0 
909.793091 39.0 
909.810364 81.0 
909.84491 40.0 
909.87085 42.0 
909.89679 34.0 
909.905396 34.0 
909.939941 30.0 
909.957275 26.0 
909.974548 28.0 
910.009094 40.0 
910.035034 34.0 
910.06958 32.0 
910.112793 35.0 
910.147339 25.0 
910.173279 43.0 
910.199219 60.0 
910.251038 41.0 
910.29425 46.0 
910.311523 48.0 
910.328857 60.0 
910.415283 82.0 
910.432556 46.0 
910.449829 80.0 
910.484375 166.0 
910.501709 184.0 
910.527588 145.0 
910.562195 166.0 
910.588135 58.0 
910.614075 79.0 
910.631348 71.0 
910.674561 32.0 
910.683167 32.0 
910.7005 26.0 
910.72644 38.0 
910.778259 52.0 
910.804199 45.0 
910.812866 45.0 
910.856079 32.0 
910.907959 41.0 
910.925232 31.0 
910.968445 39.0 
910.977112 39.0 
910.994385 43.0 
911.028992 36.0 
911.054932 40.0 
911.080872 43.0 
911.115417 36.0 
911.132751 32.0 
911.167297 40.0 
911.227844 51.0 
911.253784 22.0 
911.296997 46.0 
911.340271 35.0 
911.383484 30.0 
911.400757 26.0 
911.461304 27.0 
911.469971 27.0 
911.504578 43.0 
911.530518 89.0 
911.565063 90.0 
911.591003 38.0 
911.608337 79.0 
911.65155 23.0 
911.67749 45.0 
911.729431 63.0 
911.772644 41.0 
911.807251 62.0 
911.833191 40.0 
911.867798 36.0 
911.911072 33.0 
911.945618 28.0 
911.962952 28.0 
911.971619 28.0 
911.988892 23.0 
912.014832 25.0 
912.049438 38.0 
912.066772 31.0 
912.084045 40.0 
912.109985 20.0 
912.127319 29.0 
912.135925 29.0 
912.144592 29.0 
912.170532 33.0 
912.196533 64.0 
912.23114 40.0 
912.25708 36.0 
912.28302 79.0 
912.317627 58.0 
912.378174 38.0 
912.421448 37.0 
912.438782 88.0 
912.481995 104.0 
912.525269 125.0 
912.594482 42.0 
912.620483 37.0 
912.663757 25.0 
912.68103 19.0 
912.724304 46.0 
912.758911 40.0 
912.784851 58.0 
912.810852 44.0 
912.862793 54.0 
912.906067 40.0 
912.957947 37.0 
912.966614 37.0 
912.992554 30.0 
913.027222 31.0 
913.053162 20.0 
913.070496 17.0 
913.105103 39.0 
913.122437 36.0 
913.16571 57.0 
913.217651 38.0 
913.269531 27.0 
913.278198 27.0 
913.295532 48.0 
913.330139 29.0 
913.364807 57.0 
913.38208 44.0 
913.390747 44.0 
913.408081 40.0 
913.442688 92.0 
913.468689 40.0 
913.494629 29.0 
913.52063 46.0 
913.555237 50.0 
913.581238 32.0 
913.607178 50.0 
913.641785 32.0 
913.676453 48.0 
913.702393 39.0 
913.745728 44.0 
913.754395 44.0 
913.797668 37.0 
913.823669 52.0 
913.849609 47.0 
913.87561 28.0 
913.892883 46.0 
913.910217 44.0 
913.927551 50.0 
913.944885 52.0 
913.996826 34.0 
914.022827 48.0 
914.074768 27.0 
914.100769 21.0 
914.109375 21.0 
914.135376 48.0 
914.178711 41.0 
914.213318 27.0 
914.221985 27.0 
914.282593 34.0 
914.308594 32.0 
914.334595 49.0 
914.386536 29.0 
914.421204 55.0 
914.481812 50.0 
914.499146 41.0 
914.559814 29.0 
914.577087 46.0 
914.594421 47.0 
914.637756 54.0 
914.663757 51.0 
914.698364 48.0 
914.759033 49.0 
914.785034 33.0 
914.802368 24.0 
914.845642 36.0 
914.862976 37.0 
914.88031 18.0 
914.923645 57.0 
914.940979 27.0 
914.975647 37.0 
915.001648 26.0 
915.044922 47.0 
915.114258 26.0 
915.140259 43.0 
915.157593 39.0 
915.192261 42.0 
915.218262 38.0 
915.25293 48.0 
915.27887 51.0 
915.304871 46.0 
915.36554 49.0 
915.391541 52.0 
915.452209 48.0 
915.495544 32.0 
915.530212 25.0 
915.556213 32.0 
915.582214 23.0 
915.608215 20.0 
915.634216 36.0 
915.686218 32.0 
915.729553 39.0 
915.755554 30.0 
915.790222 33.0 
915.842285 49.0 
915.894287 54.0 
915.928955 34.0 
915.954956 31.0 
915.989624 56.0 
916.024292 30.0 
916.05896 43.0 
916.102356 39.0 
916.11969 38.0 
916.145691 50.0 
916.189026 45.0 
916.215027 52.0 
916.232361 45.0 
916.249695 29.0 
916.275696 55.0 
916.293091 59.0 
916.345093 27.0 
916.371094 39.0 
916.405762 23.0 
916.440491 40.0 
916.492493 57.0 
916.535828 25.0 
916.553223 30.0 
916.570557 47.0 
916.613892 51.0 
916.622559 51.0 
916.648621 48.0 
916.674622 26.0 
916.700623 36.0 
916.726624 32.0 
916.77002 39.0 
916.796021 51.0 
916.839417 46.0 
916.900085 57.0 
916.934814 44.0 
916.969482 22.0 
916.995483 56.0 
917.047546 43.0 
917.082275 39.0 
917.142944 37.0 
917.160339 32.0 
917.177673 40.0 
917.18634 40.0 
917.203674 48.0 
917.221069 39.0 
917.264404 43.0 
917.290466 30.0 
917.299133 30.0 
917.316467 28.0 
917.342468 36.0 
917.377197 41.0 
917.403198 48.0 
917.42926 73.0 
917.455261 46.0 
917.48999 76.0 
917.507324 41.0 
917.55072 35.0 
917.585449 34.0 
917.61145 24.0 
917.637512 46.0 
917.654846 37.0 
917.67218 32.0 
917.680847 32.0 
917.698242 31.0 
917.741638 32.0 
917.767639 33.0 
917.802368 39.0 
917.828369 28.0 
917.845764 27.0 
917.854431 27.0 
917.88916 32.0 
917.932495 40.0 
917.941223 40.0 
917.967224 17.0 
917.993286 42.0 
918.054016 36.0 
918.071411 27.0 
918.097412 34.0 
918.114807 36.0 
918.132141 37.0 
918.16687 13.0 
918.192871 31.0 
918.218933 14.0 
918.262329 31.0 
918.297058 60.0 
918.340454 54.0 
918.375183 21.0 
918.409912 32.0 
918.470642 59.0 
918.496704 38.0 
918.522766 38.0 
918.548767 28.0 
918.574829 32.0 
918.600891 23.0 
918.626892 37.0 
918.652954 26.0 
918.670349 27.0 
918.687683 37.0 
918.705078 31.0 
918.722412 26.0 
918.748474 30.0 
918.79187 44.0 
918.835266 54.0 
918.878723 28.0 
918.896057 39.0 
918.913452 52.0 
918.956848 33.0 
918.991577 60.0 
919.008972 53.0 
919.052368 43.0 
919.095764 47.0 
919.113159 39.0 
919.147888 62.0 
919.182617 39.0 
919.208679 27.0 
919.234741 23.0 
919.243408 23.0 
919.260803 33.0 
919.295532 32.0 
919.321594 36.0 
919.347595 43.0 
919.373657 30.0 
919.391052 25.0 
919.417114 37.0 
919.434448 33.0 
919.451843 28.0 
919.477905 36.0 
919.503967 33.0 
919.538696 30.0 
919.556091 32.0 
919.573425 34.0 
919.616882 66.0 
919.634277 33.0 
919.642944 33.0 
919.660339 37.0 
919.695068 32.0 
919.738464 53.0 
919.799316 51.0 
919.81665 41.0 
919.860107 38.0 
919.868774 38.0 
919.894836 60.0 
919.94696 53.0 
919.973022 52.0 
920.007812 20.0 
920.033875 44.0 
920.059937 35.0 
920.085999 35.0 
920.112061 36.0 
920.14679 49.0 
920.198975 45.0 
920.242371 39.0 
920.259766 38.0 
920.277161 36.0 
920.31189 25.0 
920.337952 49.0 
920.372742 38.0 
920.390137 34.0 
920.416199 20.0 
920.442261 28.0 
920.459656 48.0 
920.47699 43.0 
920.494385 24.0 
920.537842 56.0 
920.589966 37.0 
920.607361 35.0 
920.642151 51.0 
920.668213 40.0 
920.685608 69.0 
920.720337 22.0 
920.729065 22.0 
920.74646 34.0 
920.772522 38.0 
920.789917 38.0 
920.807251 36.0 
920.824646 31.0 
920.859436 25.0 
920.868103 25.0 
920.885498 34.0 
920.928955 35.0 
920.955017 27.0 
921.015869 34.0 
921.041992 25.0 
921.076721 47.0 
921.111511 43.0 
921.146301 22.0 
921.189758 44.0 
921.224548 29.0 
921.268005 33.0 
921.2854 34.0 
921.311462 49.0 
921.346252 25.0 
921.363647 46.0 
921.398438 46.0 
921.4245 23.0 
921.45929 46.0 
921.485352 49.0 
921.502747 48.0 
921.537537 41.0 
921.563599 42.0 
921.589722 38.0 
921.650574 45.0 
921.676636 42.0 
921.694031 39.0 
921.728821 53.0 
921.754944 29.0 
921.772339 31.0 
921.789734 30.0 
921.815796 56.0 
921.824524 56.0 
921.850586 54.0 
921.876709 27.0 
921.902771 37.0 
921.937561 39.0 
921.963623 30.0 
921.998413 47.0 
922.015808 57.0 
922.076721 54.0 
922.128906 34.0 
922.155029 26.0 
922.172424 27.0 
922.198486 37.0 
922.215881 43.0 
922.250671 56.0 
922.294189 63.0 
922.328979 39.0 
922.372498 38.0 
922.39856 38.0 
922.415955 25.0 
922.450745 36.0 
922.485535 40.0 
922.502991 29.0 
922.555176 65.0 
922.589966 51.0 
922.616089 21.0 
922.642151 43.0 
922.668274 38.0 
922.737854 47.0 
922.755249 61.0 
922.7901 27.0 
922.816162 44.0 
922.851013 28.0 
922.868408 30.0 
922.903198 41.0 
922.929321 31.0 
922.981506 60.0 
923.007629 52.0 
923.068542 26.0 
923.103333 44.0 
923.129456 39.0 
923.181702 37.0 
923.199097 43.0 
923.242615 31.0 
923.268677 27.0 
923.286133 50.0 
923.320923 40.0 
923.347046 26.0 
923.364441 24.0 
923.390564 30.0 
923.44281 36.0 
923.468872 46.0 
923.521118 41.0 
923.547241 31.0 
923.573364 29.0 
923.590759 32.0 
923.651672 44.0 
923.686523 47.0 
923.747437 39.0 
923.799683 43.0 
923.851929 34.0 
923.869324 18.0 
923.904175 32.0 
923.930298 21.0 
923.965088 41.0 
924.017334 60.0 
924.052185 45.0 
924.104431 26.0 
924.121826 29.0 
924.139282 32.0 
924.156677 27.0 
924.174072 26.0 
924.200195 37.0 
924.252441 33.0 
924.278564 26.0 
924.304688 25.0 
924.330811 23.0 
924.365662 22.0 
924.391785 45.0 
924.426636 24.0 
924.452759 41.0 
924.505005 67.0 
924.548584 39.0 
924.574707 29.0 
924.60083 31.0 
924.679199 54.0 
924.705322 48.0 
924.722778 43.0 
924.766296 30.0 
924.783752 44.0 
924.827271 27.0 
924.87085 28.0 
924.896973 24.0 
924.914368 30.0 
924.940552 36.0 
925.010193 38.0 
925.071167 27.0 
925.114746 33.0 
925.140869 15.0 
925.158325 31.0 
925.201904 51.0 
925.219299 58.0 
925.25415 42.0 
925.280273 33.0 
925.306458 73.0 
925.384827 40.0 
925.428406 12.0 
925.45459 33.0 
925.489441 40.0 
925.541687 50.0 
925.567871 39.0 
925.602722 45.0 
925.620117 31.0 
925.654968 39.0 
925.681152 37.0 
925.716003 28.0 
925.742126 29.0 
925.776978 40.0 
925.794434 46.0 
925.829285 51.0 
925.855408 29.0 
925.872864 38.0 
925.881592 38.0 
925.925171 73.0 
925.942566 30.0 
925.960022 51.0 
925.96875 51.0 
925.986145 60.0 
926.003601 76.0 
926.012329 76.0 
926.038452 36.0 
926.064636 37.0 
926.12561 60.0 
926.151794 79.0 
926.160522 79.0 
926.204102 103.0 
926.265137 57.0 
926.282532 48.0 
926.308716 36.0 
926.334839 85.0 
926.387146 63.0 
926.41333 69.0 
926.430786 89.0 
926.456909 36.0 
926.526672 203.0 
926.561523 247.0 
926.605103 215.0 
926.622559 211.0 
926.666138 66.0 
926.692322 78.0 
926.718506 60.0 
926.727173 60.0 
926.753357 72.0 
926.805664 53.0 
926.82312 43.0 
926.849304 32.0 
926.884155 46.0 
926.919067 33.0 
926.936462 35.0 
926.953918 73.0 
927.014954 75.0 
927.067322 65.0 
927.119629 28.0 
927.145813 113.0 
927.19812 83.0 
927.215576 48.0 
927.224304 48.0 
927.24176 46.0 
927.276611 58.0 
927.302795 64.0 
927.320251 47.0 
927.337708 74.0 
927.398743 137.0 
927.433655 94.0 
927.468506 104.0 
927.503418 205.0 
927.555786 213.0 
927.590637 87.0 
927.608093 115.0 
927.651733 77.0 
927.686646 70.0 
927.730225 74.0 
927.756409 27.0 
927.782593 47.0 
927.834961 38.0 
927.869812 45.0 
927.930908 25.0 
927.96582 62.0 
927.992004 36.0 
928.035645 46.0 
928.070557 44.0 
928.114136 59.0 
928.14032 46.0 
928.157776 31.0 
928.18396 43.0 
928.210144 73.0 
928.253784 46.0 
928.27124 52.0 
928.297424 63.0 
928.332336 82.0 
928.393433 53.0 
928.419617 122.0 
928.445801 77.0 
928.463257 112.0 
928.480713 157.0 
928.498169 145.0 
928.524353 173.0 
928.533081 173.0 
928.567993 139.0 
928.594177 105.0 
928.611633 148.0 
928.646545 85.0 
928.681458 43.0 
928.698914 51.0 
928.71637 41.0 
928.76001 66.0 
928.794922 76.0 
928.829834 108.0 
928.856018 37.0 
928.882202 118.0 
928.943359 63.0 
928.969543 36.0 
929.004456 63.0 
929.021912 41.0 
929.056824 65.0 
929.083008 29.0 
929.109192 44.0 
929.161621 58.0 
929.187805 46.0 
929.257629 67.0 
929.292603 36.0 
929.344971 68.0 
929.379883 48.0 
929.397339 42.0 
929.432312 132.0 
929.493408 267.0 
929.537109 399.0 
929.58075 400.0 
929.62439 204.0 
929.659363 114.0 
929.694275 84.0 
929.76416 78.0 
929.799072 47.0 
929.834045 35.0 
929.851501 40.0 
929.868958 50.0 
929.912659 32.0 
929.947571 44.0 
930.0 44.0 
930.017456 35.0 
930.034912 28.0 
930.052368 27.0 
930.078613 70.0 
930.104797 74.0 
930.157227 97.0 
930.192139 78.0 
930.227112 36.0 
930.253296 58.0 
930.288269 42.0 
930.305725 41.0 
930.33197 56.0 
930.37561 38.0 
930.393127 38.0 
930.410583 58.0 
930.480469 437.0 
930.497925 422.0 
930.532898 485.0 
930.559143 468.0 
930.585327 354.0 
930.6203 147.0 
930.655212 116.0 
930.690186 64.0 
930.733887 62.0 
930.777588 91.0 
930.795044 53.0 
930.8125 49.0 
930.856201 75.0 
930.90863 49.0 
930.926147 36.0 
930.943604 43.0 
931.004822 47.0 
931.039734 55.0 
931.092224 59.0 
931.10968 41.0 
931.135925 39.0 
931.188354 39.0 
931.249512 65.0 
931.284485 47.0 
931.328186 52.0 
931.363159 30.0 
931.40686 60.0 
931.424377 41.0 
931.441833 38.0 
931.468079 28.0 
931.494263 50.0 
931.51178 44.0 
931.555481 68.0 
931.581726 28.0 
931.60791 61.0 
931.651672 35.0 
931.686646 33.0 
931.704102 28.0 
931.721619 41.0 
931.756592 40.0 
931.782776 37.0 
931.817749 55.0 
931.861511 78.0 
931.91394 37.0 
931.940186 42.0 
931.948914 42.0 
931.983887 36.0 
932.010132 27.0 
932.036377 35.0 
932.062622 33.0 
932.088867 50.0 
932.12384 46.0 
932.150085 39.0 
932.167542 40.0 
932.202515 43.0 
932.246277 58.0 
932.289978 55.0 
932.307495 44.0 
932.33374 42.0 
932.377441 56.0 
932.421204 28.0 
932.464905 49.0 
932.508667 25.0 
932.534912 33.0 
932.569885 30.0 
932.587402 40.0 
932.648621 64.0 
932.674866 37.0 
932.701111 45.0 
932.709839 45.0 
932.736084 42.0 
932.753601 52.0 
932.788574 39.0 
932.806091 42.0 
932.841064 32.0 
932.86731 65.0 
932.928528 68.0 
932.963562 24.0 
932.989807 50.0 
933.016052 34.0 
933.051025 43.0 
933.094788 56.0 
933.121033 34.0 
933.13855 41.0 
933.173523 43.0 
933.19104 33.0 
933.208557 39.0 
933.234802 44.0 
933.269775 39.0 
933.287292 43.0 
933.30481 35.0 
933.322266 26.0 
933.366028 49.0 
933.401062 33.0 
933.444824 62.0 
933.532288 53.0 
933.558594 23.0 
933.57605 27.0 
933.602356 49.0 
933.637329 42.0 
933.654846 47.0 
933.681091 39.0 
933.716125 29.0 
933.742371 41.0 
933.768616 38.0 
933.812378 28.0 
933.829895 36.0 
933.85614 20.0 
933.864929 20.0 
933.891174 41.0 
933.926208 27.0 
933.943665 20.0 
933.978699 47.0 
934.004944 28.0 
934.039978 25.0 
934.048767 25.0 
934.075012 32.0 
934.092529 26.0 
934.118774 20.0 
934.153809 62.0 
934.215088 32.0 
934.250122 17.0 
934.276367 36.0 
934.285095 36.0 
934.302612 37.0 
934.337646 37.0 
934.363892 45.0 
934.381409 36.0 
934.398926 21.0 
934.43396 38.0 
934.468994 44.0 
934.504028 30.0 
934.512756 30.0 
934.565308 31.0 
934.60907 31.0 
934.644104 36.0 
934.67041 27.0 
934.687866 30.0 
934.731689 48.0 
934.766724 36.0 
934.836792 38.0 
934.871826 30.0 
934.880554 30.0 
934.898071 36.0 
934.933105 36.0 
934.959412 42.0 
934.96814 42.0 
935.003174 37.0 
935.020691 27.0 
935.055725 39.0 
935.073242 34.0 
935.099548 21.0 
935.125793 32.0 
935.143311 32.0 
935.169617 26.0 
935.178345 26.0 
935.213379 29.0 
935.26593 45.0 
935.292236 39.0 
935.327271 31.0 
935.344788 41.0 
935.353577 41.0 
935.379822 28.0 
935.414856 29.0 
935.458679 25.0 
935.51123 54.0 
935.528748 50.0 
935.546265 32.0 
935.563782 45.0 
935.607605 49.0 
935.633911 50.0 
935.660156 35.0 
935.695251 53.0 
935.712769 36.0 
935.747803 37.0 
935.76532 26.0 
935.791626 27.0 
935.809143 27.0 
935.835449 37.0 
935.852966 38.0 
935.879211 48.0 
935.905518 25.0 
935.931824 40.0 
935.966858 43.0 
936.010681 21.0 
936.028198 31.0 
936.045715 25.0 
936.054504 25.0 
936.063293 25.0 
936.098328 27.0 
936.142151 18.0 
936.177185 34.0 
936.221008 28.0 
936.247314 53.0 
936.273621 24.0 
936.299927 31.0 
936.352478 68.0 
936.396301 29.0 
936.413818 35.0 
936.431396 37.0 
936.448914 41.0 
936.483948 31.0 
936.492737 31.0 
936.510254 25.0 
936.545349 45.0 
936.5979 31.0 
936.632996 39.0 
936.650513 37.0 
936.685608 28.0 
936.711853 41.0 
936.729431 42.0 
936.773254 26.0 
936.782043 26.0 
936.799561 29.0 
936.825867 47.0 
936.852173 35.0 
936.86969 32.0 
936.913513 66.0 
936.948608 47.0 
936.966125 39.0 
937.001221 59.0 
937.053833 30.0 
937.07135 27.0 
937.088867 25.0 
937.123962 23.0 
937.159058 42.0 
937.194092 30.0 
937.220398 23.0 
937.255493 40.0 
937.27301 30.0 
937.290588 22.0 
937.316895 50.0 
937.334412 46.0 
937.378235 36.0 
937.395813 45.0 
937.465942 67.0 
937.501038 31.0 
937.536133 46.0 
937.571228 55.0 
937.632568 46.0 
937.667664 46.0 
937.729065 32.0 
937.746643 22.0 
937.772949 32.0 
937.799255 30.0 
937.834351 62.0 
937.869446 24.0 
937.895752 29.0 
937.930847 36.0 
937.97467 48.0 
937.992249 49.0 
938.009766 50.0 
938.036072 40.0 
938.05365 37.0 
938.115051 41.0 
938.132629 27.0 
938.158936 44.0 
938.167725 44.0 
938.194031 29.0 
938.220337 29.0 
938.255432 34.0 
938.281738 29.0 
938.308105 35.0 
938.343201 43.0 
938.369507 22.0 
938.422119 44.0 
938.457214 26.0 
938.474792 36.0 
938.501099 32.0 
938.527466 36.0 
938.562561 34.0 
938.580078 28.0 
938.588867 28.0 
938.615173 26.0 
938.641541 41.0 
938.676636 20.0 
938.711731 23.0 
938.746826 43.0 
938.79071 46.0 
938.817017 21.0 
938.834595 25.0 
938.860901 41.0 
938.878479 45.0 
938.922363 17.0 
938.939941 36.0 
938.966248 34.0 
939.001343 34.0 
939.02771 28.0 
939.080322 43.0 
939.089111 43.0 
939.106689 34.0 
939.141785 22.0 
939.159363 28.0 
939.203247 42.0 
939.264709 36.0 
939.282227 18.0 
939.299805 21.0 
939.326111 32.0 
939.361267 41.0 
939.387573 38.0 
939.431519 40.0 
939.449036 41.0 
939.510498 31.0 
939.545593 39.0 
939.598328 44.0 
939.642212 51.0 
939.677307 40.0 
939.694885 41.0 
939.712463 28.0 
939.73877 35.0 
939.756348 22.0 
939.782715 31.0 
939.809021 32.0 
939.852966 30.0 
939.861694 30.0 
939.896851 27.0 
939.940735 22.0 
939.98468 56.0 
940.037354 44.0 
940.063721 35.0 
940.090027 31.0 
940.125183 60.0 
940.160339 47.0 
940.186646 30.0 
940.204224 19.0 
940.23938 38.0 
940.256897 19.0 
940.283264 20.0 
940.31842 67.0 
940.353516 42.0 
940.379883 42.0 
940.397461 35.0 
940.415039 38.0 
940.467712 26.0 
940.485291 23.0 
940.520447 38.0 
940.538025 51.0 
940.57312 33.0 
940.599487 60.0 
940.652222 34.0 
940.687317 40.0 
940.713684 44.0 
940.757629 22.0 
940.792786 56.0 
940.845459 36.0 
940.871826 36.0 
940.906982 35.0 
940.950928 61.0 
940.977295 43.0 
940.994873 41.0 
941.029968 22.0 
941.038757 22.0 
941.073914 59.0 
941.126648 31.0 
941.144226 30.0 
941.188171 29.0 
941.20575 25.0 
941.223328 25.0 
941.267273 34.0 
941.302429 22.0 
941.328796 43.0 
941.346375 38.0 
941.363953 41.0 
941.381531 43.0 
941.407837 29.0 
941.416626 29.0 
941.442993 24.0 
941.46936 24.0 
941.504517 49.0 
941.557251 29.0 
941.574829 28.0 
941.609985 49.0 
941.645142 26.0 
941.67157 34.0 
941.689148 36.0 
941.715515 24.0 
941.741882 37.0 
941.750671 37.0 
941.812195 64.0 
941.864929 50.0 
941.900085 32.0 
941.944031 50.0 
941.996765 31.0 
942.031982 45.0 
942.067139 25.0 
942.093506 40.0 
942.128662 48.0 
942.172607 34.0 
942.190186 37.0 
942.25177 40.0 
942.269348 30.0 
942.295715 27.0 
942.322083 44.0 
942.383667 27.0 
942.401245 37.0 
942.427612 33.0 
942.44519 19.0 
942.480347 36.0 
942.506775 35.0 
942.541931 18.0 
942.568298 47.0 
942.621094 41.0 
942.673828 24.0 
942.709045 39.0 
942.735413 30.0 
942.76178 25.0 
942.788147 47.0 
942.832153 37.0 
942.876099 56.0 
942.937683 39.0 
942.96405 21.0 
942.999268 35.0 
943.025635 25.0 
943.052063 42.0 
943.113586 22.0 
943.131226 18.0 
943.157593 28.0 
943.18396 28.0 
943.219177 67.0 
943.245544 50.0 
943.280762 51.0 
943.307129 35.0 
943.342346 42.0 
943.386292 30.0 
943.456726 38.0 
943.483093 29.0 
943.500671 36.0 
943.535889 34.0 
943.562256 33.0 
943.579895 41.0 
943.650269 36.0 
943.694275 45.0 
943.755859 43.0 
943.782288 43.0 
943.808655 44.0 
943.870239 67.0 
943.914246 56.0 
943.940674 29.0 
943.975891 44.0 
943.993469 42.0 
944.037476 46.0 
944.081482 38.0 
944.09906 28.0 
944.125488 36.0 
944.160706 49.0 
944.204712 46.0 
944.22229 28.0 
944.239868 27.0 
944.283936 24.0 
944.301514 24.0 
944.327942 31.0 
944.380737 46.0 
944.415955 46.0 
944.442322 55.0 
944.486389 39.0 
944.503967 49.0 
944.521545 32.0 
944.556763 33.0 
944.583191 46.0 
944.644836 48.0 
944.680054 22.0 
944.688843 22.0 
944.741638 68.0 
944.776855 40.0 
944.829712 40.0 
944.873718 40.0 
944.935364 41.0 
944.961792 42.0 
945.023438 42.0 
945.041016 26.0 
945.076233 33.0 
945.102661 27.0 
945.1203 36.0 
945.129089 36.0 
945.155518 21.0 
945.190735 26.0 
945.208313 31.0 
945.24353 53.0 
945.287598 35.0 
945.305176 28.0 
945.340454 23.0 
945.358032 31.0 
945.4021 33.0 
945.446106 41.0 
945.490173 28.0 
945.53418 28.0 
945.551819 25.0 
945.560608 25.0 
945.578247 24.0 
945.613464 28.0 
945.648682 50.0 
945.67511 38.0 
945.736755 46.0 
945.780823 46.0 
945.81604 18.0 
945.851318 29.0 
945.868896 25.0 
945.904175 35.0 
945.921753 27.0 
945.974609 48.0 
946.001038 37.0 
946.027466 25.0 
946.062744 40.0 
946.089172 44.0 
946.12439 52.0 
946.159668 54.0 
946.186096 34.0 
946.203674 29.0 
946.221313 29.0 
946.247742 44.0 
946.309448 51.0 
946.371094 32.0 
946.415161 45.0 
946.476868 31.0 
946.494507 35.0 
946.520935 47.0 
946.547363 25.0 
946.582581 29.0 
946.617859 20.0 
946.626648 20.0 
946.653137 36.0 
946.688354 32.0 
946.705994 53.0 
946.732422 34.0 
946.794128 42.0 
946.811768 28.0 
946.838196 37.0 
946.891052 37.0 
946.917542 56.0 
946.970398 20.0 
947.005676 42.0 
947.049744 25.0 
947.067383 28.0 
947.1026 49.0 
947.181946 50.0 
947.199585 48.0 
947.243652 35.0 
947.28772 29.0 
947.305359 16.0 
947.331848 40.0 
947.358276 31.0 
947.428833 76.0 
947.46405 29.0 
947.481689 30.0 
947.508179 68.0 
947.561035 31.0 
947.578674 28.0 
947.596313 24.0 
947.631592 16.0 
947.658081 42.0 
947.719788 29.0 
947.755066 32.0 
947.772705 33.0 
947.807983 31.0 
947.86969 47.0 
947.931396 48.0 
947.957886 29.0 
947.984314 55.0 
948.001953 35.0 
948.019592 35.0 
948.063721 43.0 
948.098999 28.0 
948.116638 28.0 
948.160706 38.0 
948.178345 24.0 
948.204834 28.0 
948.240112 31.0 
948.275391 44.0 
948.310669 21.0 
948.337158 46.0 
948.381226 40.0 
948.390076 40.0 
948.434143 41.0 
948.469421 28.0 
948.487122 36.0 
948.504761 27.0 
948.531189 33.0 
948.557678 34.0 
948.592957 28.0 
948.654724 49.0 
948.698853 36.0 
948.760559 51.0 
948.813538 35.0 
948.857605 26.0 
948.875305 27.0 
948.910583 53.0 
948.919373 53.0 
948.945862 30.0 
948.99884 42.0 
949.034119 53.0 
949.051758 53.0 
949.087036 30.0 
949.113525 37.0 
949.140015 26.0 
949.166443 33.0 
949.219421 22.0 
949.228271 22.0 
949.2547 38.0 
949.290039 36.0 
949.307678 38.0 
949.334167 28.0 
949.360596 19.0 
949.378296 23.0 
949.422424 34.0 
949.466553 44.0 
949.484192 38.0 
949.52832 33.0 
949.563599 30.0 
949.581299 27.0 
949.616577 39.0 
949.643066 32.0 
949.678345 47.0 
949.713684 31.0 
949.766663 49.0 
949.801941 42.0 
949.854919 22.0 
949.872559 19.0 
949.907898 34.0 
949.934387 43.0 
949.952026 32.0 
949.969666 24.0 
949.987366 24.0 
950.013855 35.0 
950.075623 33.0 
950.119751 41.0 
950.16394 29.0 
950.18158 25.0 
950.199219 29.0 
950.216919 27.0 
950.252197 38.0 
950.278687 29.0 
950.305176 21.0 
950.314026 21.0 
950.331665 40.0 
950.358154 43.0 
950.384644 38.0 
950.411133 51.0 
950.446472 24.0 
950.481812 26.0 
950.508301 27.0 
950.53479 36.0 
950.578918 26.0 
950.596619 29.0 
950.640747 32.0 
950.667236 27.0 
950.684937 33.0 
950.720276 50.0 
950.755554 56.0 
950.773254 55.0 
950.843872 60.0 
950.861572 52.0 
950.914551 58.0 
950.932251 49.0 
950.94104 49.0 
950.967529 24.0 
951.011719 42.0 
951.055908 27.0 
951.091248 17.0 
951.108887 24.0 
951.161865 38.0 
951.197205 44.0 
951.259094 42.0 
951.303223 30.0 
951.320923 28.0 
951.329773 28.0 
951.347412 33.0 
951.373901 48.0 
951.426941 56.0 
951.45343 29.0 
951.48877 34.0 
951.50647 40.0 
951.541809 20.0 
951.568298 32.0 
951.594788 31.0 
951.630127 26.0 
951.665466 19.0 
951.683167 21.0 
951.736206 23.0 
951.753845 30.0 
951.780396 21.0 
951.815735 33.0 
951.851074 38.0 
951.886414 29.0 
951.904114 21.0 
951.930603 47.0 
951.965942 29.0 
952.001282 28.0 
952.027832 33.0 
952.045471 28.0 
952.089661 27.0 
952.098511 27.0 
952.1604 38.0 
952.21344 45.0 
952.257629 24.0 
952.337158 58.0 
952.381348 40.0 
952.416748 55.0 
952.460938 29.0 
952.496277 37.0 
952.513977 26.0 
952.540466 54.0 
952.593506 53.0 
952.637756 42.0 
952.673096 63.0 
952.717285 43.0 
952.734985 46.0 
952.770325 26.0 
952.788025 28.0 
952.823425 41.0 
952.841064 22.0 
952.876465 28.0 
952.929504 42.0 
952.947205 47.0 
952.964844 34.0 
952.991394 39.0 
953.026794 46.0 
953.044434 52.0 
953.079834 30.0 
953.115173 43.0 
953.141724 34.0 
953.168274 46.0 
953.194763 36.0 
953.221313 38.0 
953.247864 27.0 
953.274353 24.0 
953.309753 24.0 
953.336304 36.0 
953.362793 32.0 
953.389343 44.0 
953.442383 52.0 
953.477783 39.0 
953.513184 41.0 
953.575073 43.0 
953.601624 44.0 
953.637024 38.0 
953.663513 32.0 
953.690063 43.0 
953.725464 16.0 
953.752014 35.0 
953.769714 37.0 
953.822754 27.0 
953.893555 49.0 
953.928894 29.0 
953.955444 62.0 
953.990845 28.0 
954.026245 46.0 
954.043945 55.0 
954.070496 39.0 
954.105835 37.0 
954.123535 39.0 
954.158936 33.0 
954.176636 16.0 
954.203186 20.0 
954.247437 20.0 
954.273987 40.0 
954.327087 43.0 
954.380188 35.0 
954.389038 35.0 
954.415527 32.0 
954.433228 30.0 
954.477478 58.0 
954.512878 44.0 
954.539429 51.0 
954.565979 51.0 
954.601379 49.0 
954.65448 44.0 
954.68103 34.0 
954.707581 31.0 
954.725281 29.0 
954.751831 33.0 
954.778381 29.0 
954.813782 43.0 
954.866882 44.0 
954.893433 48.0 
954.911194 39.0 
954.937744 34.0 
954.955444 35.0 
954.990845 28.0 
955.017395 37.0 
955.043945 26.0 
955.079346 44.0 
955.114746 25.0 
955.150146 41.0 
955.167847 44.0 
955.185547 30.0 
955.203308 29.0 
955.212158 29.0 
955.229858 25.0 
955.247559 27.0 
955.274109 40.0 
955.33606 63.0 
955.389221 50.0 
955.442322 30.0 
955.486572 29.0 
955.513123 27.0 
955.530884 30.0 
955.566284 32.0 
955.592834 40.0 
955.628235 27.0 
955.654846 50.0 
955.681396 33.0 
955.699097 41.0 
955.734497 30.0 
955.769958 38.0 
955.787659 46.0 
955.823059 28.0 
955.885071 65.0 
955.938171 46.0 
955.973633 41.0 
956.009033 37.0 
956.044495 44.0 
956.062195 49.0 
956.097595 59.0 
956.150757 58.0 
956.203918 55.0 
956.239319 64.0 
956.29248 45.0 
956.381042 53.0 
956.407654 49.0 
956.425354 57.0 
956.443054 69.0 
956.487366 40.0 
956.522766 40.0 
956.558228 31.0 
956.602539 38.0 
956.629089 31.0 
956.64679 42.0 
956.664551 53.0 
956.691101 31.0 
956.708801 29.0 
956.753113 57.0 
956.788574 32.0 
956.824036 25.0 
956.841736 34.0 
956.859436 42.0 
956.877197 39.0 
956.894897 38.0 
956.912598 32.0 
956.921448 32.0 
956.939209 35.0 
956.974609 18.0 
957.018921 44.0 
957.089844 43.0 
957.107544 31.0 
957.116394 31.0 
957.143005 29.0 
957.160706 27.0 
957.178467 27.0 
957.196167 25.0 
957.222778 16.0 
957.240479 17.0 
957.26709 34.0 
957.29364 23.0 
957.311401 31.0 
957.337952 26.0 
957.346802 26.0 
957.373413 27.0 
957.391113 26.0 
957.462036 50.0 
957.479797 42.0 
957.506348 48.0 
957.524109 50.0 
957.550659 59.0 
957.586121 34.0 
957.603882 39.0 
957.630432 33.0 
957.692505 41.0 
957.727966 33.0 
957.763428 48.0 
957.807739 40.0 
957.834351 33.0 
957.852051 32.0 
957.887512 30.0 
957.922974 34.0 
957.967285 19.0 
957.993896 23.0 
958.020508 35.0 
958.07373 45.0 
958.100281 27.0 
958.118042 37.0 
958.180115 49.0 
958.206726 33.0 
958.224426 34.0 
958.286499 71.0 
958.31311 35.0 
958.330811 40.0 
958.375183 34.0 
958.419495 34.0 
958.454956 27.0 
958.463867 27.0 
958.490417 26.0 
958.517029 28.0 
958.552551 15.0 
958.570251 23.0 
958.579102 23.0 
958.596863 22.0 
958.614624 33.0 
958.650085 27.0 
958.658936 27.0 
958.676697 26.0 
958.694397 26.0 
958.703308 26.0 
958.73877 42.0 
958.800842 48.0 
958.836304 32.0 
958.854065 21.0 
958.907288 48.0 
958.925049 38.0 
958.96051 32.0 
958.987122 34.0 
959.013733 36.0 
959.040344 60.0 
959.093567 42.0 
959.14679 42.0 
959.200012 57.0 
959.253235 38.0 
959.288696 37.0 
959.315369 39.0 
959.34198 29.0 
959.377441 56.0 
959.395203 40.0 
959.421814 32.0 
959.439575 42.0 
959.475037 45.0 
959.53717 41.0 
959.554871 30.0 
959.599243 49.0 
959.652466 51.0 
959.687988 47.0 
959.7146 28.0 
959.732361 28.0 
959.750122 26.0 
959.794495 47.0 
959.821106 41.0 
959.847717 26.0 
959.88324 34.0 
959.909851 40.0 
959.963074 37.0 
959.998596 23.0 
960.051819 47.0 
960.087341 35.0 
960.105103 24.0 
960.167236 57.0 
960.193848 27.0 
960.22937 51.0 
960.255981 51.0 
960.282593 44.0 
960.300354 38.0 
960.326965 45.0 
960.353638 40.0 
960.40686 42.0 
960.433472 48.0 
960.451233 38.0 
960.477905 29.0 
960.513367 49.0 
960.5578 27.0 
960.593262 30.0 
960.611023 22.0 
960.637695 37.0 
960.682068 27.0 
960.71759 35.0 
960.744202 30.0 
960.770874 32.0 
960.833008 50.0 
960.87738 35.0 
960.904053 41.0 
960.921814 42.0 
960.966187 47.0 
961.010559 36.0 
961.063843 55.0 
961.081604 46.0 
961.117126 39.0 
961.143799 44.0 
961.152649 44.0 
961.179321 46.0 
961.205933 38.0 
961.232605 38.0 
961.268127 26.0 
961.294739 40.0 
961.330261 52.0 
961.348022 33.0 
961.374695 59.0 
961.410217 35.0 
961.427979 34.0 
961.44574 33.0 
961.472351 37.0 
961.507874 27.0 
961.543457 49.0 
961.58783 40.0 
961.605591 56.0 
961.632263 34.0 
961.658875 27.0 
961.667786 27.0 
961.676636 27.0 
961.694458 30.0 
961.72998 32.0 
961.738831 32.0 
961.774353 29.0 
961.809937 15.0 
961.836548 48.0 
961.86322 40.0 
961.880981 37.0 
961.925415 34.0 
961.952026 39.0 
961.969788 54.0 
962.014221 24.0 
962.031982 27.0 
962.049744 33.0 
962.094177 43.0 
962.12085 55.0 
962.138611 47.0 
962.174133 39.0 
962.200806 25.0 
962.218567 32.0 
962.280762 46.0 
962.316345 28.0 
962.334106 41.0 
962.38739 43.0 
962.422974 58.0 
962.440735 42.0 
962.467407 30.0 
962.494019 37.0 
962.511841 38.0 
962.556274 51.0 
962.574036 20.0 
962.591797 28.0 
962.609558 30.0 
962.653992 55.0 
962.671753 57.0 
962.689575 37.0 
962.707336 43.0 
962.734009 46.0 
962.76062 32.0 
962.778442 32.0 
962.796204 33.0 
962.822876 26.0 
962.858398 28.0 
962.911743 37.0 
962.929504 33.0 
962.965088 31.0 
963.027283 49.0 
963.062866 30.0 
963.089539 35.0 
963.116211 51.0 
963.160645 20.0 
963.178406 37.0 
963.222839 43.0 
963.276184 34.0 
963.294006 19.0 
963.311768 15.0 
963.356201 38.0 
963.409546 53.0 
963.445129 29.0 
963.471802 36.0 
963.507385 40.0 
963.534058 45.0 
963.587402 35.0 
963.631836 38.0 
963.667419 34.0 
963.685181 29.0 
963.702942 30.0 
963.729675 35.0 
963.747437 35.0 
963.765198 31.0 
963.78302 29.0 
963.809692 40.0 
963.871948 52.0 
963.907471 43.0 
963.943054 32.0 
963.987549 46.0 
964.014221 30.0 
964.031982 28.0 
964.067566 36.0 
964.120911 40.0 
964.156494 48.0 
964.2099 44.0 
964.254333 22.0 
964.281006 53.0 
964.316589 24.0 
964.334412 46.0 
964.369995 41.0 
964.414429 43.0 
964.467834 44.0 
964.503418 41.0 
964.521179 42.0 
964.565674 60.0 
964.601257 37.0 
964.645752 68.0 
964.690247 36.0 
964.708008 41.0 
964.743591 19.0 
964.770325 23.0 
964.796997 25.0 
964.841492 38.0 
964.868164 37.0 
964.885986 35.0 
964.894836 35.0 
964.912659 24.0 
964.930481 26.0 
964.957153 35.0 
964.983826 68.0 
965.019409 49.0 
965.037231 48.0 
965.063904 32.0 
965.099487 53.0 
965.152893 39.0 
965.197388 31.0 
965.224121 31.0 
965.241882 30.0 
965.259705 32.0 
965.277466 32.0 
965.31311 33.0 
965.348694 54.0 
965.419861 39.0 
965.455505 58.0 
965.482178 38.0 
965.517761 51.0 
965.535583 46.0 
965.553406 41.0 
965.5979 55.0 
965.624573 42.0 
965.651306 32.0 
965.677979 40.0 
965.713623 52.0 
965.767029 38.0 
965.78479 40.0 
965.820435 32.0 
965.847107 30.0 
965.87384 24.0 
965.909424 37.0 
965.953979 29.0 
965.971741 16.0 
966.007385 44.0 
966.069702 38.0 
966.087463 37.0 
966.105286 44.0 
966.158691 47.0 
966.212158 55.0 
966.265564 28.0 
966.301147 53.0 
966.310059 53.0 
966.372437 36.0 
966.390198 21.0 
966.425842 38.0 
966.479248 29.0 
966.550476 43.0 
966.568298 41.0 
966.612854 27.0 
966.648438 52.0 
966.692993 46.0 
966.728638 36.0 
966.746399 36.0 
966.773132 30.0 
966.790955 26.0 
966.826599 32.0 
966.844421 31.0 
966.853271 31.0 
966.880005 25.0 
966.897827 35.0 
966.924561 24.0 
966.942383 28.0 
966.960205 29.0 
966.977966 41.0 
967.022522 42.0 
967.067078 50.0 
967.102722 38.0 
967.129395 28.0 
967.156128 31.0 
967.191772 37.0 
967.218506 33.0 
967.245239 34.0 
967.271973 44.0 
967.298645 22.0 
967.325378 36.0 
967.387756 22.0 
967.41449 31.0 
967.432312 46.0 
967.467957 39.0 
967.521423 42.0 
967.539246 55.0 
967.601562 36.0 
967.628296 42.0 
967.672852 61.0 
967.717407 33.0 
967.735229 40.0 
967.779785 22.0 
967.797607 23.0 
967.859985 37.0 
967.913452 23.0 
967.940186 21.0 
967.958008 32.0 
967.993652 28.0 
968.011475 26.0 
968.05603 53.0 
968.118408 48.0 
968.154114 35.0 
968.180847 39.0 
968.216492 35.0 
968.252136 46.0 
968.269958 70.0 
968.27887 70.0 
968.332336 51.0 
968.350159 35.0 
968.394714 37.0 
968.412537 35.0 
968.466064 67.0 
968.519531 53.0 
968.555176 32.0 
968.581909 46.0 
968.617615 46.0 
968.671082 57.0 
968.706726 27.0 
968.733459 39.0 
968.795898 44.0 
968.831543 28.0 
968.858276 17.0 
968.885071 38.0 
968.929626 21.0 
968.95636 24.0 
969.009888 31.0 
969.063354 46.0 
969.081177 42.0 
969.125793 36.0 
969.143616 35.0 
969.170349 27.0 
969.197144 35.0 
969.232788 54.0 
969.268494 17.0 
969.286316 30.0 
969.313049 18.0 
969.330872 17.0 
969.348755 28.0 
969.366577 26.0 
969.384399 22.0 
969.429016 41.0 
969.446838 38.0 
969.482483 44.0 
969.509277 48.0 
969.5271 38.0 
969.553833 21.0 
969.571716 31.0 
969.59845 38.0 
969.634094 38.0 
969.651978 35.0 
969.678711 35.0 
969.714417 37.0 
969.74115 59.0 
969.794678 25.0 
969.8125 18.0 
969.839294 44.0 
969.892822 48.0 
969.910645 28.0 
969.919556 28.0 
969.955261 35.0 
969.973083 27.0 
969.990906 27.0 
970.0177 36.0 
970.053345 44.0 
970.097961 52.0 
970.133667 35.0 
970.160461 41.0 
970.178284 43.0 
970.213989 27.0 
970.231812 22.0 
970.303162 35.0 
970.321045 33.0 
970.356689 42.0 
970.383484 32.0 
970.419189 48.0 
970.481628 61.0 
970.499512 46.0 
970.517334 38.0 
970.526245 38.0 
970.561951 48.0 
970.588745 33.0 
970.606567 37.0 
970.642273 41.0 
970.669006 37.0 
970.68689 38.0 
970.695801 38.0 
970.722595 24.0 
970.749329 51.0 
970.776123 36.0 
970.802917 25.0 
970.82074 22.0 
970.838623 32.0 
970.874329 40.0 
970.892151 37.0 
970.927856 53.0 
970.954651 35.0 
971.008179 58.0 
971.043884 40.0 
971.070679 39.0 
971.088501 36.0 
971.151001 50.0 
971.186707 14.0 
971.204529 22.0 
971.231323 30.0 
971.258118 37.0 
971.27594 26.0 
971.293823 27.0 
971.320618 43.0 
971.365234 53.0 
971.445557 46.0 
971.472351 50.0 
971.481323 50.0 
971.52594 37.0 
971.552734 35.0 
971.597351 31.0 
971.606262 31.0 
971.624146 22.0 
971.65094 38.0 
971.677734 29.0 
971.731262 32.0 
971.749146 37.0 
971.77594 43.0 
971.811646 27.0 
971.829529 29.0 
971.856323 43.0 
971.90094 35.0 
971.945618 50.0 
971.990234 41.0 
972.017029 36.0 
972.034912 28.0 
972.070618 49.0 
972.106323 37.0 
972.133118 27.0 
972.159912 46.0 
972.213501 46.0 
972.258179 45.0 
972.32959 41.0 
972.338562 41.0 
972.365356 32.0 
972.38324 44.0 
972.418945 27.0 
972.44574 20.0 
972.481445 35.0 
972.50824 25.0 
972.552917 46.0 
972.588684 58.0 
972.669067 38.0 
972.695862 38.0 
972.74054 32.0 
972.785217 33.0 
972.820923 26.0 
972.838806 32.0 
972.874512 32.0 
972.901306 42.0 
972.928162 44.0 
972.963867 53.0 
972.990662 23.0 
973.026428 34.0 
973.053223 47.0 
973.080017 43.0 
973.133667 25.0 
973.160461 34.0 
973.196167 30.0 
973.223022 26.0 
973.240845 29.0 
973.2677 44.0 
973.285522 28.0 
973.339172 49.0 
973.357056 51.0 
973.392761 40.0 
973.428528 49.0 
973.464294 35.0 
973.482178 26.0 
973.517883 31.0 
973.544678 44.0 
973.580444 45.0 
973.607239 41.0 
973.634094 55.0 
973.669861 47.0 
973.714539 52.0 
973.741333 29.0 
973.750305 29.0 
973.768127 28.0 
973.803894 26.0 
973.83075 36.0 
973.857544 18.0 
973.884338 22.0 
973.893311 22.0 
973.920105 28.0 
973.955872 48.0 
973.991638 36.0 
974.045288 49.0 
974.06311 37.0 
974.080994 46.0 
974.11676 35.0 
974.188293 48.0 
974.250854 37.0 
974.295593 15.0 
974.33136 45.0 
974.38501 40.0 
974.429688 49.0 
974.474426 39.0 
974.519104 38.0 
974.554871 26.0 
974.572754 34.0 
974.599609 13.0 
974.626404 24.0 
974.653259 32.0 
974.671143 16.0 
974.680054 16.0 
974.706909 42.0 
974.742676 19.0 
974.76947 36.0 
974.805298 33.0 
974.841064 28.0 
974.858948 33.0 
974.903625 30.0 
974.930481 32.0 
974.957336 30.0 
974.984131 32.0 
975.019897 33.0 
975.046753 29.0 
975.064636 33.0 
975.08252 42.0 
975.127258 27.0 
975.163025 17.0 
975.171997 17.0 
975.207764 39.0 
975.288269 40.0 
975.315063 25.0 
975.333008 34.0 
975.368774 43.0 
975.413513 50.0 
975.431396 48.0 
975.44928 39.0 
975.494019 41.0 
975.547668 53.0 
975.574524 41.0 
975.601379 32.0 
975.610291 32.0 
975.637146 34.0 
975.646118 34.0 
975.672913 35.0 
975.699768 38.0 
975.726624 49.0 
975.753479 57.0 
975.780334 44.0 
975.807129 35.0 
975.842957 29.0 
975.86084 35.0 
975.896606 29.0 
975.932434 40.0 
975.95929 45.0 
975.977173 32.0 
976.004028 18.0 
976.021912 24.0 
976.057678 28.0 
976.084534 33.0 
976.102417 33.0 
976.138245 26.0 
976.1651 32.0 
976.174011 32.0 
976.182983 32.0 
976.26355 48.0 
976.299316 50.0 
976.308289 50.0 
976.353027 43.0 
976.406738 38.0 
976.442505 31.0 
976.46936 20.0 
976.505188 38.0 
976.532043 35.0 
976.576782 64.0 
976.639465 43.0 
976.675232 38.0 
976.693176 32.0 
976.71106 28.0 
976.728943 34.0 
976.755798 25.0 
976.764771 25.0 
976.791626 37.0 
976.80957 41.0 
976.827454 29.0 
976.863281 36.0 
976.899048 25.0 
976.925903 34.0 
976.952759 28.0 
976.961731 28.0 
976.979614 30.0 
976.997559 24.0 
977.05127 45.0 
977.078125 45.0 
977.122864 70.0 
977.167664 53.0 
977.176636 53.0 
977.230347 41.0 
977.266174 67.0 
977.328857 62.0 
977.346741 35.0 
977.373596 46.0 
977.409424 37.0 
977.436279 40.0 
977.454224 39.0 
977.472107 49.0 
977.498962 48.0 
977.543762 44.0 
977.570618 59.0 
977.606445 40.0 
977.651245 53.0 
977.695984 46.0 
977.713928 35.0 
977.731812 33.0 
977.758728 18.0 
977.794556 32.0 
977.812439 33.0 
977.848267 23.0 
977.866211 49.0 
977.928894 51.0 
977.95575 31.0 
977.982605 40.0 
978.009521 57.0 
978.036377 45.0 
978.063232 45.0 
978.090149 24.0 
978.125977 27.0 
978.152832 44.0 
978.170776 25.0 
978.197632 40.0 
978.224487 50.0 
978.269287 36.0 
978.287231 32.0 
978.314087 39.0 
978.349915 15.0 
978.376831 28.0 
978.394714 20.0 
978.412659 21.0 
978.430542 21.0 
978.448486 17.0 
978.466431 38.0 
978.502258 22.0 
978.538086 39.0 
978.591858 44.0 
978.618713 37.0 
978.654541 49.0 
978.672485 25.0 
978.708313 28.0 
978.735229 44.0 
978.762085 36.0 
978.797974 21.0 
978.806885 21.0 
978.824829 21.0 
978.851746 47.0 
978.914429 29.0 
978.977173 33.0 
979.004089 20.0 
979.021973 27.0 
979.075745 24.0 
979.102661 24.0 
979.129517 25.0 
979.156433 35.0 
979.18335 19.0 
979.219177 38.0 
979.255005 46.0 
979.308838 21.0 
979.36261 44.0 
979.40741 34.0 
979.461182 37.0 
979.488098 24.0 
979.49707 24.0 
979.523926 20.0 
979.559814 28.0 
979.577759 39.0 
979.604614 23.0 
979.640503 29.0 
979.694275 35.0 
979.748108 44.0 
979.792908 40.0 
979.80188 40.0 
979.84668 42.0 
979.864624 52.0 
979.927429 54.0 
979.954285 30.0 
979.981201 28.0 
980.008118 40.0 
980.034973 43.0 
980.06189 23.0 
980.079834 23.0 
980.10675 45.0 
980.124695 48.0 
980.15155 50.0 
980.205383 42.0 
980.268188 31.0 
980.286072 40.0 
980.32196 35.0 
980.348877 43.0 
980.375793 44.0 
980.393738 35.0 
980.429565 37.0 
980.474426 33.0 
980.510315 45.0 
980.546204 34.0 
980.564148 26.0 
980.582092 22.0 
980.608948 40.0 
980.626892 27.0 
980.644836 28.0 
980.662781 27.0 
980.680725 18.0 
980.698669 28.0 
980.716614 25.0 
980.74353 33.0 
980.797363 42.0 
980.815308 45.0 
980.833252 31.0 
980.878113 37.0 
980.91394 44.0 
980.958801 36.0 
981.003662 47.0 
981.066467 58.0 
981.1203 57.0 
981.174133 30.0 
981.192078 41.0 
981.218994 32.0 
981.245911 26.0 
981.263855 24.0 
981.281799 26.0 
981.308716 26.0 
981.362549 37.0 
981.398438 30.0 
981.425354 36.0 
981.479248 32.0 
981.524109 25.0 
981.551025 26.0 
981.56897 31.0 
981.631775 50.0 
981.658691 37.0 
981.676636 30.0 
981.703552 41.0 
981.739502 21.0 
981.775391 41.0 
981.802307 31.0 
981.820251 31.0 
981.874084 39.0 
981.892029 31.0 
981.909973 44.0 
981.927979 28.0 
981.963867 27.0 
981.990784 46.0 
982.035645 39.0 
982.080566 52.0 
982.125427 46.0 
982.170288 36.0 
982.206238 32.0 
982.233154 21.0 
982.251099 37.0 
982.286987 21.0 
982.304993 22.0 
982.313965 22.0 
982.322937 22.0 
982.367798 49.0 
982.385742 50.0 
982.41272 46.0 
982.448608 42.0 
982.538391 59.0 
982.610229 34.0 
982.628174 31.0 
982.664124 40.0 
982.708984 31.0 
982.726929 31.0 
982.762878 51.0 
982.780823 38.0 
982.825745 49.0 
982.843689 32.0 
982.879578 34.0 
982.906555 22.0 
982.933472 61.0 
982.978394 46.0 
983.04126 49.0 
983.104126 35.0 
983.140015 46.0 
983.175964 55.0 
983.238831 28.0 
983.265808 21.0 
983.301697 28.0 
983.319702 26.0 
983.337646 26.0 
983.346619 26.0 
983.373596 41.0 
983.391541 31.0 
983.454407 32.0 
983.481384 43.0 
983.517273 36.0 
983.580139 41.0 
983.652039 31.0 
983.69696 26.0 
983.73291 40.0 
983.759827 38.0 
983.777832 30.0 
983.795776 32.0 
983.813721 30.0 
983.84967 60.0 
983.92157 36.0 
983.966492 24.0 
983.993469 22.0 
984.029358 42.0 
984.119263 39.0 
984.182129 51.0 
984.218079 66.0 
984.263 59.0 
984.316956 41.0 
984.3349 37.0 
984.37085 37.0 
984.424744 35.0 
984.451721 42.0 
984.496643 49.0 
984.55957 36.0 
984.586548 23.0 
984.613525 39.0 
984.649475 34.0 
984.667419 21.0 
984.703369 28.0 
984.730347 37.0 
984.766296 38.0 
984.793274 32.0 
984.811279 39.0 
984.829224 41.0 
984.856201 37.0 
984.874146 53.0 
984.892151 50.0 
984.937073 29.0 
984.96405 37.0 
984.991028 36.0 
985.018005 33.0 
985.053955 32.0 
985.07196 42.0 
985.10791 30.0 
985.134888 36.0 
985.170837 31.0 
985.206787 27.0 
985.260742 64.0 
985.305725 42.0 
985.350647 70.0 
985.386597 15.0 
985.422607 41.0 
985.467529 27.0 
985.50354 32.0 
985.521484 41.0 
985.584473 32.0 
985.620422 30.0 
985.629395 30.0 
985.6474 33.0 
985.68335 46.0 
985.728333 51.0 
985.773315 52.0 
985.809265 40.0 
985.854248 29.0 
985.872192 29.0 
985.908203 34.0 
985.935181 16.0 
985.980164 36.0 
986.007141 34.0 
986.025146 22.0 
986.052124 30.0 
986.106079 28.0 
986.124084 41.0 
986.169006 37.0 
986.17804 37.0 
986.223022 54.0 
986.28595 44.0 
986.32196 21.0 
986.35791 28.0 
986.384949 46.0 
986.438904 35.0 
986.492859 34.0 
986.501892 34.0 
986.519897 39.0 
986.537842 42.0 
986.582825 42.0 
986.627808 63.0 
986.663818 24.0 
986.708801 33.0 
986.726807 33.0 
986.77179 19.0 
986.798767 33.0 
986.834778 47.0 
986.861755 39.0 
986.879761 36.0 
986.897766 36.0 
986.924744 41.0 
986.951782 44.0 
986.987732 26.0 
986.996765 26.0 
987.023743 34.0 
987.059753 40.0 
987.077759 37.0 
987.113708 23.0 
987.131714 36.0 
987.158752 62.0 
987.176758 46.0 
987.212708 44.0 
987.257751 40.0 
987.284729 24.0 
987.302734 31.0 
987.347717 23.0 
987.365723 16.0 
987.401733 41.0 
987.428711 32.0 
987.49176 41.0 
987.509766 48.0 
987.545776 40.0 
987.572754 44.0 
987.599731 49.0 
987.680786 39.0 
987.698792 46.0 
987.716797 50.0 
987.743774 7.0 
987.779785 42.0 
987.797791 46.0 
987.824829 33.0 
987.842834 29.0 
987.887817 34.0 
987.923828 44.0 
987.968872 25.0 
988.004883 27.0 
988.022888 24.0 
988.058899 23.0 
988.121948 37.0 
988.148926 15.0 
988.175964 38.0 
988.202942 35.0 
988.22998 25.0 
988.265991 40.0 
988.29303 32.0 
988.311035 33.0 
988.338013 26.0 
988.374023 40.0 
988.410095 30.0 
988.428101 22.0 
988.455078 40.0 
988.509155 29.0 
988.527161 17.0 
988.536133 17.0 
988.545166 17.0 
988.572144 16.0 
988.608215 74.0 
988.626221 34.0 
988.671204 52.0 
988.68927 71.0 
988.725281 28.0 
988.761292 49.0 
988.806335 31.0 
988.833374 23.0 
988.869385 36.0 
988.896423 27.0 
988.923401 34.0 
988.959473 45.0 
988.986511 35.0 
989.013489 35.0 
989.031494 53.0 
989.076538 35.0 
989.094604 32.0 
989.11261 31.0 
989.139648 33.0 
989.166626 41.0 
989.229736 43.0 
989.247742 41.0 
989.27478 15.0 
989.328796 45.0 
989.33783 45.0 
989.37384 32.0 
989.427917 37.0 
989.463928 22.0 
989.490967 27.0 
989.527039 36.0 
989.563049 31.0 
989.590088 49.0 
989.644165 32.0 
989.707214 52.0 
989.725281 33.0 
989.752319 33.0 
989.806396 52.0 
989.860413 81.0 
989.905518 50.0 
989.959595 57.0 
989.9776 34.0 
990.013672 41.0 
990.04071 38.0 
990.076721 47.0 
990.094788 24.0 
990.130798 49.0 
990.16687 26.0 
990.211914 35.0 
990.220947 35.0 
990.257019 27.0 
990.29303 42.0 
990.338135 39.0 
990.347168 39.0 
990.383179 31.0 
990.428284 36.0 
990.482361 28.0 
990.500366 25.0 
990.509399 25.0 
990.536438 15.0 
990.563477 39.0 
990.617554 27.0 
990.644653 35.0 
990.680664 27.0 
990.689697 27.0 
990.743774 35.0 
990.788879 43.0 
990.797913 43.0 
990.842957 28.0 
990.869995 39.0 
990.9151 47.0 
990.969177 36.0 
991.032349 51.0 
991.086426 41.0 
991.113464 43.0 
991.131531 42.0 
991.158569 23.0 
991.194641 32.0 
991.22168 33.0 
991.239746 25.0 
991.302856 48.0 
991.338928 50.0 
991.384033 48.0 
991.402039 65.0 
991.43811 52.0 
991.456177 50.0 
991.501282 31.0 
991.52832 31.0 
991.564392 40.0 
991.591492 27.0 
991.61853 42.0 
991.654602 49.0 
991.681641 44.0 
991.717773 55.0 
991.744812 34.0 
991.780884 48.0 
991.825989 51.0 
991.862061 25.0 
991.871094 25.0 
991.907166 44.0 
991.934265 46.0 
991.961304 42.0 
991.997375 16.0 
992.024475 28.0 
992.051514 36.0 
992.078613 35.0 
992.105652 39.0 
992.123718 42.0 
992.15979 39.0 
992.213928 49.0 
992.259033 34.0 
992.313171 38.0 
992.349243 48.0 
992.412415 43.0 
992.448547 26.0 
992.466553 25.0 
992.493652 38.0 
992.520691 35.0 
992.538757 42.0 
992.547791 42.0 
992.57489 39.0 
992.610962 36.0 
992.619995 36.0 
992.6651 21.0 
992.6922 29.0 
992.728271 21.0 
992.746338 33.0 
992.818542 45.0 
992.872681 41.0 
992.890747 39.0 
992.935852 38.0 
992.953918 44.0 
992.999023 38.0 
993.01709 42.0 
993.035156 53.0 
993.053223 56.0 
993.080261 24.0 
993.125427 47.0 
993.143494 28.0 
993.188599 33.0 
993.224731 43.0 
993.25177 34.0 
993.269836 38.0 
993.305969 48.0 
993.333008 43.0 
993.360107 46.0 
993.387207 40.0 
993.414307 49.0 
993.477478 38.0 
993.513611 67.0 
993.567749 46.0 
993.603882 32.0 
993.630981 58.0 
993.667114 31.0 
993.721252 60.0 
993.748352 24.0 
993.775452 55.0 
993.802551 32.0 
993.820618 44.0 
993.874756 38.0 
993.883789 38.0 
993.901855 30.0 
993.937988 23.0 
993.983154 26.0 
994.010254 29.0 
994.028259 23.0 
994.064392 52.0 
994.109558 49.0 
994.163757 33.0 
994.190857 39.0 
994.217957 42.0 
994.236023 39.0 
994.272156 42.0 
994.290222 63.0 
994.34436 61.0 
994.380493 46.0 
994.407593 38.0 
994.425659 54.0 
994.434692 54.0 
994.479858 26.0 
994.515991 37.0 
994.543091 38.0 
994.579224 46.0 
994.62439 34.0 
994.678589 58.0 
994.723755 41.0 
994.759888 26.0 
994.805115 32.0 
994.850281 31.0 
994.868347 38.0 
994.895447 21.0 
994.958679 42.0 
994.976746 26.0 
995.003845 33.0 
995.030945 33.0 
995.039978 33.0 
995.058044 28.0 
995.085144 39.0 
995.139404 42.0 
995.18457 36.0 
995.220703 40.0 
995.265869 27.0 
995.292969 23.0 
995.320129 35.0 
995.347229 29.0 
995.365295 30.0 
995.383362 32.0 
995.410461 35.0 
995.428528 58.0 
995.473755 44.0 
995.518921 59.0 
995.564087 29.0 
995.582214 36.0 
995.618347 45.0 
995.636414 43.0 
995.672546 21.0 
995.699707 35.0 
995.726807 35.0 
995.762939 31.0 
995.7901 13.0 
995.8172 48.0 
995.853333 21.0 
995.871399 18.0 
995.880432 18.0 
995.907593 15.0 
995.934692 19.0 
995.979919 45.0 
995.997986 34.0 
996.034119 18.0 
996.061279 41.0 
996.070312 41.0 
996.133545 52.0 
996.196838 61.0 
996.223999 41.0 
996.260132 25.0 
996.278198 32.0 
996.314392 38.0 
996.359619 57.0 
996.377686 25.0 
996.386719 25.0 
996.440979 56.0 
996.486206 38.0 
996.513306 46.0 
996.567566 54.0 
996.594666 24.0 
996.621826 38.0 
996.657959 44.0 
996.676086 46.0 
996.73938 48.0 
996.757446 24.0 
996.784607 33.0 
996.811707 51.0 
996.865967 32.0 
996.875 32.0 
996.884094 32.0 
996.902161 32.0 
996.965454 43.0 
997.010681 42.0 
997.046875 28.0 
997.064941 39.0 
997.101135 40.0 
997.128235 26.0 
997.155396 52.0 
997.191589 38.0 
997.218689 24.0 
997.236816 32.0 
997.254883 33.0 
997.27301 45.0 
997.318237 44.0 
997.345337 33.0 
997.363464 45.0 
997.399597 48.0 
997.435791 35.0 
997.481018 29.0 
997.499146 38.0 
997.544373 37.0 
997.571533 24.0 
997.5896 26.0 
997.607666 19.0 
997.625793 29.0 
997.689148 39.0 
997.707214 25.0 
997.716248 25.0 
997.743408 45.0 
997.797668 42.0 
997.833862 40.0 
997.85199 35.0 
997.87915 23.0 
997.90625 40.0 
997.933411 35.0 
997.960571 40.0 
997.987732 46.0 
998.032959 39.0 
998.078186 63.0 
998.132507 37.0 
998.150574 39.0 
998.177734 59.0 
998.204895 24.0 
998.241089 42.0 
998.277283 61.0 
998.331604 40.0 
998.367798 44.0 
998.385864 23.0 
998.413025 46.0 
998.467346 38.0 
998.50354 45.0 
998.566895 39.0 
998.585022 49.0 
998.612183 36.0 
998.648376 54.0 
998.675537 36.0 
998.702698 30.0 
998.720764 16.0 
998.729858 16.0 
998.766052 44.0 
998.78418 23.0 
998.820374 29.0 
998.838501 28.0 
998.847534 28.0 
998.883728 36.0 
998.938049 22.0 
998.974243 25.0 
999.001404 27.0 
999.028564 25.0 
999.064819 8.0 
999.101013 33.0 
999.128174 29.0 
999.200623 23.0 
999.218689 27.0 
999.254944 43.0 
999.282104 32.0 
999.309265 35.0 
999.336426 56.0 
999.37262 38.0 
999.399841 27.0 
999.436035 58.0 
999.463196 31.0 
999.490356 28.0 
999.499451 28.0 
999.517517 42.0 
999.553772 30.0 
999.589966 16.0 
999.635254 32.0 
999.653381 25.0 
999.671509 31.0 
999.680542 31.0 
999.698669 34.0 
999.716797 35.0 
999.734863 31.0 
999.762024 32.0 
999.780151 30.0 
999.816406 43.0 
999.834534 28.0 
999.870728 41.0 
999.906982 51.0 
999.970398 46.0 
999.997559 53.0 
1000.042847 26.0 
1000.079041 28.0 
1000.106262 25.0 
1000.15155 43.0 
1000.196838 33.0 
1000.25116 31.0 
1000.260254 31.0 
1000.305542 24.0 
1000.359863 44.0 
1000.396118 39.0 
1000.468628 72.0 
1000.495789 30.0 
1000.513916 39.0 
1000.532043 26.0 
1000.568298 45.0 
1000.586365 37.0 
1000.613586 24.0 
1000.658875 53.0 
1000.740417 37.0 
1000.758545 38.0 
1000.785706 28.0 
1000.82196 21.0 
1000.858215 35.0 
1000.885437 42.0 
1000.89447 42.0 
1000.921631 22.0 
1000.948853 32.0 
1000.985107 27.0 
1001.003235 42.0 
1001.048523 25.0 
1001.06665 26.0 
1001.121033 43.0 
1001.157288 39.0 
1001.184448 37.0 
1001.21167 35.0 
1001.229797 26.0 
1001.275085 44.0 
1001.31134 37.0 
1001.320435 37.0 
1001.356689 31.0 
1001.374817 43.0 
1001.411072 25.0 
1001.45636 51.0 
1001.465454 51.0 
1001.483582 43.0 
1001.510803 40.0 
1001.547058 31.0 
1001.574219 27.0 
1001.619568 28.0 
1001.67395 26.0 
1001.710205 31.0 
1001.728333 32.0 
1001.764587 23.0 
1001.782715 20.0 
1001.800842 23.0 
1001.819031 25.0 
1001.846191 19.0 
1001.873413 44.0 
1001.918701 54.0 
1001.955017 25.0 
1001.982178 38.0 
1002.018494 42.0 
1002.027527 42.0 
1002.072876 33.0 
1002.127258 46.0 
1002.163513 38.0 
1002.217957 51.0 
1002.254211 10.0 
1002.272339 12.0 
1002.299561 37.0 
1002.326782 45.0 
1002.381165 33.0 
1002.41748 61.0 
1002.471863 51.0 
1002.517212 30.0 
1002.544434 38.0 
1002.571655 32.0 
1002.598816 25.0 
1002.617004 25.0 
1002.644165 49.0 
1002.662354 45.0 
1002.680481 44.0 
1002.698608 36.0 
1002.734863 62.0 
1002.780212 55.0 
1002.834656 59.0 
1002.870972 34.0 
1002.898132 41.0 
1002.979797 37.0 
1003.007019 18.0 
1003.034241 31.0 
1003.070496 55.0 
1003.134033 42.0 
1003.143066 42.0 
1003.188477 54.0 
1003.215698 24.0 
1003.242859 26.0 
1003.279175 40.0 
1003.342712 29.0 
1003.369934 27.0 
1003.397095 22.0 
1003.442505 32.0 
1003.47876 20.0 
1003.533203 33.0 
1003.551392 40.0 
1003.587646 36.0 
1003.623962 37.0 
1003.64209 41.0 
1003.696594 18.0 
1003.741943 44.0 
1003.796387 49.0 
1003.823608 29.0 
1003.841736 23.0 
1003.878052 35.0 
1003.923462 48.0 
1003.950684 49.0 
1004.005127 61.0 
1004.032349 54.0 
1004.068665 31.0 
1004.114014 36.0 
1004.123108 36.0 
1004.177551 24.0 
1004.204834 31.0 
1004.222961 31.0 
1004.241089 47.0 
1004.286499 30.0 
1004.331909 55.0 
1004.359131 46.0 
1004.395447 46.0 
1004.431763 45.0 
1004.458984 28.0 
1004.477112 43.0 
1004.522522 27.0 
1004.558838 43.0 
1004.576965 50.0 
1004.640564 53.0 
1004.685913 31.0 
1004.704102 28.0 
1004.713196 28.0 
1004.731323 30.0 
1004.749512 33.0 
1004.794922 30.0 
1004.813049 29.0 
1004.849365 26.0 
1004.867554 24.0 
1004.921997 33.0 
1004.94928 16.0 
1004.985596 37.0 
1005.012817 35.0 
1005.058228 38.0 
1005.112671 26.0 
1005.139954 22.0 
1005.194458 49.0 
1005.22168 39.0 
1005.257996 59.0 
1005.276184 40.0 
1005.294312 40.0 
1005.3125 42.0 
1005.339722 41.0 
1005.394226 53.0 
1005.421509 36.0 
1005.439636 42.0 
1005.485046 34.0 
1005.503235 29.0 
1005.530457 34.0 
1005.548645 37.0 
1005.575867 48.0 
1005.630371 22.0 
1005.657654 37.0 
1005.69397 27.0 
1005.721191 39.0 
1005.748474 26.0 
1005.775696 30.0 
1005.839294 35.0 
1005.875671 33.0 
1005.893799 36.0 
1005.930176 33.0 
1005.948303 30.0 
1005.975586 29.0 
1006.039185 51.0 
1006.057373 53.0 
1006.102783 34.0 
1006.139099 28.0 
1006.157288 44.0 
1006.220886 35.0 
1006.248169 23.0 
1006.275391 31.0 
1006.320862 57.0 
1006.366272 27.0 
1006.411682 47.0 
1006.457153 23.0 
1006.502563 49.0 
1006.520752 28.0 
1006.557129 50.0 
1006.593445 26.0 
1006.611633 35.0 
1006.647949 22.0 
1006.684326 25.0 
1006.702515 33.0 
1006.738831 33.0 
1006.784302 51.0 
1006.838806 18.0 
1006.875183 39.0 
1006.929749 34.0 
1006.966064 52.0 
1006.993347 43.0 
1007.011536 41.0 
1007.056946 35.0 
1007.093323 29.0 
1007.138794 25.0 
1007.175171 32.0 
1007.193298 30.0 
1007.211487 45.0 
1007.229675 46.0 
1007.293335 26.0 
1007.356934 48.0 
1007.384216 32.0 
1007.411499 37.0 
1007.429688 41.0 
1007.447876 32.0 
1007.466064 31.0 
1007.52063 43.0 
1007.538818 51.0 
1007.575134 35.0 
1007.602417 36.0 
1007.647888 46.0 
1007.711548 41.0 
1007.775208 31.0 
1007.793396 32.0 
1007.838867 19.0 
1007.857056 25.0 
1007.893433 34.0 
1007.911621 41.0 
1007.947998 38.0 
1007.975281 36.0 
1007.984375 36.0 
1008.038879 48.0 
1008.075256 28.0 
1008.084412 28.0 
1008.1026 30.0 
1008.16626 52.0 
1008.202637 38.0 
1008.229919 34.0 
1008.257202 38.0 
1008.293579 48.0 
1008.320862 27.0 
1008.357239 32.0 
1008.429993 40.0 
1008.448181 53.0 
1008.46637 41.0 
1008.520935 46.0 
1008.539124 47.0 
1008.584656 38.0 
1008.611938 16.0 
1008.621033 16.0 
1008.65741 50.0 
1008.684692 25.0 
1008.721069 57.0 
1008.775696 53.0 
1008.839355 53.0 
1008.866638 51.0 
1008.903015 42.0 
1008.939453 38.0 
1008.966736 22.0 
1008.994019 31.0 
1009.039551 40.0 
1009.057739 39.0 
1009.085022 26.0 
1009.121399 55.0 
1009.157837 43.0 
1009.221497 32.0 
1009.248779 33.0 
1009.276123 27.0 
1009.303406 48.0 
1009.321594 50.0 
1009.357971 42.0 
1009.385315 38.0 
1009.421692 21.0 
1009.43988 34.0 
1009.467224 58.0 
1009.503601 34.0 
1009.540039 37.0 
1009.549133 37.0 
1009.567322 40.0 
1009.58551 41.0 
1009.603699 36.0 
1009.631042 34.0 
1009.658325 37.0 
1009.667419 37.0 
1009.685608 56.0 
1009.722046 26.0 
1009.749329 26.0 
1009.776672 33.0 
1009.822144 22.0 
1009.894958 37.0 
1009.904114 37.0 
1009.931396 28.0 
1009.949585 38.0 
1009.986023 22.0 
1010.0224 41.0 
1010.067932 37.0 
1010.095276 33.0 
1010.140747 49.0 
1010.186279 33.0 
1010.231812 25.0 
1010.259094 14.0 
1010.295532 47.0 
1010.322876 13.0 
1010.359253 33.0 
1010.386597 40.0 
1010.413879 24.0 
1010.459412 63.0 
1010.486755 33.0 
1010.49585 33.0 
1010.514038 43.0 
1010.550476 44.0 
1010.568665 39.0 
1010.586914 34.0 
1010.623291 43.0 
1010.677979 68.0 
1010.705261 31.0 
1010.732605 41.0 
1010.759888 33.0 
1010.796326 53.0 
1010.832764 34.0 
1010.869202 28.0 
1010.88739 34.0 
1010.896484 34.0 
1010.914734 23.0 
1010.951172 35.0 
1010.96936 49.0 
1011.033142 46.0 
1011.051331 34.0 
1011.087769 28.0 
1011.096863 28.0 
1011.142395 43.0 
1011.197083 31.0 
1011.260803 43.0 
1011.279053 35.0 
1011.306396 23.0 
1011.315491 23.0 
1011.333679 40.0 
1011.361023 44.0 
1011.397461 50.0 
1011.41571 41.0 
1011.433899 37.0 
1011.461243 36.0 
1011.488586 44.0 
1011.515869 35.0 
1011.525024 35.0 
1011.561462 34.0 
1011.579651 28.0 
1011.625183 51.0 
1011.707214 46.0 
1011.743652 55.0 
1011.770996 34.0 
1011.789185 52.0 
1011.816528 44.0 
1011.834778 39.0 
1011.852966 27.0 
1011.871216 39.0 
1011.89856 42.0 
1011.916748 34.0 
1011.934998 36.0 
1011.971436 23.0 
1012.007874 23.0 
1012.035217 36.0 
1012.062561 27.0 
1012.071655 27.0 
1012.098999 40.0 
1012.117249 29.0 
1012.153687 49.0 
1012.208374 44.0 
1012.226562 49.0 
1012.272156 44.0 
1012.28125 44.0 
1012.308594 34.0 
1012.345032 46.0 
1012.408875 39.0 
1012.436218 40.0 
1012.490906 21.0 
1012.51825 29.0 
1012.536438 42.0 
1012.600281 44.0 
1012.627625 37.0 
1012.645813 43.0 
1012.664062 29.0 
1012.7005 67.0 
1012.737 24.0 
1012.764343 31.0 
1012.782532 30.0 
1012.800781 25.0 
1012.819031 36.0 
1012.846375 29.0 
1012.873718 34.0 
1012.882812 34.0 
1012.910156 34.0 
1012.9375 40.0 
1012.992249 50.0 
1013.028687 31.0 
1013.046936 31.0 
1013.07428 31.0 
1013.110718 54.0 
1013.156311 36.0 
1013.165466 36.0 
1013.174561 36.0 
1013.201904 28.0 
1013.238403 43.0 
1013.274841 44.0 
1013.302185 41.0 
1013.356934 40.0 
1013.375183 47.0 
1013.429871 45.0 
1013.493713 37.0 
1013.521057 26.0 
1013.539307 26.0 
1013.557556 28.0 
1013.5849 33.0 
1013.621338 38.0 
1013.648743 29.0 
1013.676086 22.0 
1013.72168 34.0 
1013.739929 26.0 
1013.785522 37.0 
1013.803772 40.0 
1013.858459 45.0 
1013.885864 37.0 
1013.958801 40.0 
1013.977051 43.0 
1013.9953 33.0 
1014.040894 48.0 
1014.068237 29.0 
1014.086487 31.0 
1014.141235 48.0 
1014.195984 48.0 
1014.232483 49.0 
1014.259827 29.0 
1014.278076 30.0 
1014.296326 36.0 
1014.314575 40.0 
1014.341919 70.0 
1014.378418 35.0 
1014.396667 30.0 
1014.414917 34.0 
1014.442261 20.0 
1014.46051 25.0 
1014.515259 28.0 
1014.560852 33.0 
1014.579102 37.0 
1014.615601 37.0 
1014.670349 61.0 
1014.716003 38.0 
1014.752502 28.0 
1014.798096 49.0 
1014.84375 26.0 
1014.862 35.0 
1014.889343 25.0 
1014.916748 23.0 
1014.971497 42.0 
1014.989746 38.0 
1015.053589 49.0 
1015.108337 39.0 
1015.163147 66.0 
1015.22699 41.0 
1015.272644 32.0 
1015.290894 33.0 
1015.345642 31.0 
1015.363892 34.0 
1015.400391 37.0 
1015.427795 39.0 
1015.446045 52.0 
1015.464294 27.0 
1015.491699 23.0 
1015.500793 23.0 
1015.528198 34.0 
1015.564697 66.0 
1015.601257 37.0 
1015.628601 62.0 
1015.656006 39.0 
1015.70166 44.0 
1015.71991 40.0 
1015.756409 32.0 
1015.783813 39.0 
1015.811218 41.0 
1015.865967 43.0 
1015.902466 22.0 
1015.939026 57.0 
1015.993774 51.0 
1016.030334 26.0 
1016.048584 30.0 
1016.057678 30.0 
1016.075928 31.0 
1016.121582 41.0 
1016.158142 19.0 
1016.176392 20.0 
1016.212891 54.0 
1016.240295 45.0 
1016.276855 41.0 
1016.313354 44.0 
1016.368164 39.0 
1016.404663 48.0 
1016.432068 31.0 
1016.468628 48.0 
1016.495972 34.0 
1016.523376 27.0 
1016.559937 36.0 
1016.605591 40.0 
1016.6604 51.0 
1016.687805 43.0 
1016.706055 45.0 
1016.733459 20.0 
1016.769958 45.0 
1016.815674 39.0 
1016.852173 31.0 
1016.879578 49.0 
1016.897888 38.0 
1016.916138 30.0 
1016.952637 56.0 
1016.989197 38.0 
1017.034851 47.0 
1017.107971 42.0 
1017.135376 41.0 
1017.162781 43.0 
1017.21759 46.0 
1017.244995 40.0 
1017.290649 37.0 
1017.30896 35.0 
1017.327209 29.0 
1017.345459 27.0 
1017.400269 41.0 
1017.418579 46.0 
1017.436829 50.0 
1017.464233 36.0 
1017.473389 36.0 
1017.500793 55.0 
1017.537354 45.0 
1017.555603 41.0 
1017.592163 43.0 
1017.619568 31.0 
1017.637878 33.0 
1017.656128 45.0 
1017.692688 47.0 
1017.720093 51.0 
1017.765808 72.0 
1017.811462 26.0 
1017.829773 21.0 
1017.848022 58.0 
1017.902832 45.0 
1017.939392 41.0 
1017.957703 37.0 
1017.985107 30.0 
1018.003357 28.0 
1018.030823 24.0 
1018.049072 26.0 
1018.094788 36.0 
1018.149597 41.0 
1018.204468 35.0 
1018.250122 43.0 
1018.295837 17.0 
1018.341553 31.0 
1018.368958 30.0 
1018.396423 12.0 
1018.432983 27.0 
1018.451233 21.0 
1018.478638 24.0 
1018.515259 42.0 
1018.542664 43.0 
1018.570068 30.0 
1018.597534 29.0 
1018.624939 32.0 
1018.661499 42.0 
1018.707214 56.0 
1018.75293 35.0 
1018.771179 34.0 
1018.798645 42.0 
1018.84436 23.0 
1018.871765 36.0 
1018.944946 45.0 
1018.963196 43.0 
1019.008911 31.0 
1019.063782 56.0 
1019.082092 31.0 
1019.100342 36.0 
1019.118652 37.0 
1019.146057 52.0 
1019.210083 59.0 
1019.255798 26.0 
1019.274109 22.0 
1019.301514 32.0 
1019.319824 26.0 
1019.338135 23.0 
1019.356384 27.0 
1019.393005 49.0 
1019.411255 45.0 
1019.466125 40.0 
1019.475281 40.0 
1019.530151 58.0 
1019.575928 37.0 
1019.594177 30.0 
1019.612488 30.0 
1019.630798 28.0 
1019.658203 30.0 
1019.685669 37.0 
1019.713074 39.0 
1019.749695 39.0 
1019.7771 33.0 
1019.804565 27.0 
1019.813721 27.0 
1019.832031 24.0 
1019.868591 35.0 
1019.896057 41.0 
1019.932617 33.0 
1019.950928 35.0 
1019.987549 28.0 
1020.014954 34.0 
1020.051575 42.0 
1020.088135 19.0 
1020.133911 37.0 
1020.170471 41.0 
1020.225403 35.0 
1020.261963 42.0 
1020.280273 43.0 
1020.298584 57.0 
1020.316895 58.0 
1020.353455 55.0 
1020.36261 55.0 
1020.417542 44.0 
1020.454102 27.0 
1020.490723 45.0 
1020.554749 46.0 
1020.582214 49.0 
1020.627991 44.0 
1020.646301 38.0 
1020.682861 53.0 
1020.710327 40.0 
1020.746948 45.0 
1020.792725 36.0 
1020.810974 36.0 
1020.83844 50.0 
1020.902527 38.0 
1020.929993 38.0 
1020.948303 29.0 
1020.984863 39.0 
1021.021484 48.0 
1021.076416 38.0 
1021.140503 40.0 
1021.177124 38.0 
1021.195435 45.0 
1021.222839 36.0 
1021.277771 32.0 
1021.305237 29.0 
1021.369324 34.0 
1021.405945 28.0 
1021.424255 23.0 
1021.460876 41.0 
1021.479187 53.0 
1021.515808 26.0 
1021.552429 41.0 
1021.579895 40.0 
1021.607361 39.0 
1021.643982 40.0 
1021.689758 32.0 
1021.753845 62.0 
1021.790466 24.0 
1021.817932 33.0 
1021.836243 37.0 
1021.909485 27.0 
1021.973572 14.0 
1022.010193 30.0 
1022.05603 31.0 
1022.101807 38.0 
1022.147583 39.0 
1022.184204 47.0 
1022.220825 24.0 
1022.239136 30.0 
1022.266602 47.0 
1022.294128 41.0 
1022.33075 60.0 
1022.394836 34.0 
1022.413147 44.0 
1022.449829 17.0 
1022.495605 36.0 
1022.523071 10.0 
1022.568848 33.0 
1022.596375 32.0 
1022.642151 29.0 
1022.660461 29.0 
1022.715454 46.0 
1022.76123 25.0 
1022.807007 59.0 
1022.852844 31.0 
1022.898621 34.0 
1022.916992 35.0 
1022.935303 36.0 
1022.981079 34.0 
1022.990234 34.0 
1023.026917 37.0 
1023.072693 51.0 
1023.11853 33.0 
1023.164307 44.0 
1023.210144 39.0 
1023.228455 40.0 
1023.265137 36.0 
1023.283447 35.0 
1023.301758 31.0 
1023.347595 24.0 
1023.375061 40.0 
1023.411743 30.0 
1023.475891 36.0 
1023.512512 33.0 
1023.530823 32.0 
1023.55835 41.0 
1023.585815 44.0 
1023.613342 25.0 
1023.640808 34.0 
1023.67749 53.0 
1023.732483 33.0 
1023.769104 27.0 
1023.787476 25.0 
1023.814941 29.0 
1023.833252 33.0 
1023.860779 29.0 
1023.888245 34.0 
1023.943237 46.0 
1023.989075 32.0 
1024.016602 40.0 
1024.034912 33.0 
1024.080811 40.0 
1024.099121 42.0 
1024.135742 32.0 
1024.163208 14.0 
1024.181641 21.0 
1024.227417 32.0 
1024.264038 36.0 
1024.291626 44.0 
1024.337402 27.0 
1024.346558 27.0 
1024.374146 31.0 
1024.419922 49.0 
1024.46582 43.0 
1024.493286 48.0 
1024.529907 59.0 
1024.557495 72.0 
1024.584961 35.0 
1024.621582 41.0 
1024.66748 34.0 
1024.685791 29.0 
1024.722534 30.0 
1024.759155 32.0 
1024.777466 33.0 
1024.805054 50.0 
1024.83252 42.0 
1024.859985 40.0 
1024.887573 37.0 
1024.93335 30.0 
1024.942505 30.0 
1024.988403 22.0 
1025.034302 53.0 
1025.061768 24.0 
1025.080078 20.0 
1025.125977 46.0 
1025.144287 31.0 
1025.18103 31.0 
1025.217651 26.0 
1025.236084 22.0 
1025.26355 24.0 
1025.291016 25.0 
1025.300171 25.0 
1025.318604 30.0 
1025.355225 29.0 
1025.373657 28.0 
1025.419434 25.0 
1025.456177 29.0 
1025.474487 39.0 
1025.520386 23.0 
1025.538696 28.0 
1025.566284 41.0 
1025.584595 23.0 
1025.612061 28.0 
1025.630493 22.0 
1025.648804 20.0 
1025.667114 29.0 
1025.67627 29.0 
1025.694702 19.0 
1025.731323 43.0 
1025.758911 25.0 
1025.795532 31.0 
1025.813965 26.0 
1025.841431 22.0 
1025.90564 36.0 
1025.969849 49.0 
1025.988281 38.0 
1026.006592 46.0 
1026.024902 46.0 
1026.061646 45.0 
1026.098267 33.0 
1026.15332 56.0 
1026.199219 32.0 
1026.254272 25.0 
1026.309326 17.0 
1026.336914 29.0 
1026.373657 41.0 
1026.410278 54.0 
1026.447021 37.0 
1026.465332 38.0 
1026.49292 40.0 
1026.520386 34.0 
1026.557129 39.0 
1026.575439 30.0 
1026.593872 26.0 
1026.612183 38.0 
1026.648926 37.0 
1026.676392 44.0 
1026.694824 29.0 
1026.713135 28.0 
1026.740723 47.0 
1026.786621 31.0 
1026.804932 25.0 
1026.85083 39.0 
1026.869141 27.0 
1026.915039 55.0 
1026.951782 47.0 
1026.997681 42.0 
1027.034424 31.0 
1027.052734 28.0 
1027.089478 41.0 
1027.098633 41.0 
1027.135376 20.0 
1027.162964 31.0 
1027.19043 27.0 
1027.218018 24.0 
1027.245605 47.0 
1027.282227 32.0 
1027.328125 34.0 
1027.364868 31.0 
1027.374146 31.0 
1027.420044 36.0 
1027.438354 32.0 
1027.493408 33.0 
1027.520996 31.0 
1027.548584 30.0 
1027.585205 20.0 
1027.603638 34.0 
1027.621948 28.0 
1027.649536 30.0 
1027.695435 47.0 
1027.723022 31.0 
1027.759766 40.0 
1027.787231 45.0 
1027.814819 36.0 
1027.851562 46.0 
1027.906616 49.0 
1027.952515 38.0 
1027.961792 38.0 
1027.989258 54.0 
1028.035278 40.0 
1028.044434 40.0 
1028.062744 37.0 
1028.090332 43.0 
1028.11792 35.0 
1028.172974 51.0 
1028.209717 39.0 
1028.237305 35.0 
1028.264893 63.0 
1028.292358 26.0 
1028.310791 16.0 
1028.347534 25.0 
1028.375122 39.0 
1028.402588 23.0 
1028.439331 47.0 
1028.485352 39.0 
1028.53125 53.0 
1028.577148 26.0 
1028.604736 20.0 
1028.632324 40.0 
1028.687378 37.0 
1028.733276 22.0 
1028.751709 16.0 
1028.77002 22.0 
1028.788452 25.0 
1028.806885 27.0 
1028.834351 35.0 
1028.871094 35.0 
1028.917114 54.0 
1028.953857 31.0 
1028.972168 32.0 
1029.018188 48.0 
1029.054932 25.0 
1029.08252 40.0 
1029.119263 38.0 
1029.137573 41.0 
1029.21106 46.0 
1029.25708 26.0 
1029.284668 44.0 
1029.312256 30.0 
1029.348999 32.0 
1029.36731 29.0 
1029.431641 30.0 
1029.459229 27.0 
1029.495972 23.0 
1029.52356 26.0 
1029.541992 38.0 
1029.587891 36.0 
1029.624634 45.0 
1029.670654 29.0 
1029.707397 31.0 
1029.734985 33.0 
1029.762573 29.0 
1029.780884 32.0 
1029.83606 48.0 
1029.872803 23.0 
1029.909668 41.0 
1029.937134 34.0 
1029.964722 20.0 
1030.001587 52.0 
1030.029053 23.0 
1030.047485 22.0 
1030.093506 27.0 
1030.121094 39.0 
1030.166992 31.0 
1030.19458 22.0 
1030.213013 24.0 
1030.268188 42.0 
1030.304932 19.0 
1030.323364 31.0 
1030.387695 51.0 
1030.406006 43.0 
1030.470459 39.0 
1030.48877 34.0 
1030.507202 42.0 
1030.543945 32.0 
1030.562378 43.0 
1030.599121 29.0 
1030.626709 37.0 
1030.663574 54.0 
1030.681885 39.0 
1030.709473 22.0 
1030.727905 26.0 
1030.764648 16.0 
1030.783081 8.0 
1030.801514 11.0 
1030.819824 19.0 
1030.856689 22.0 
1030.911865 33.0 
1030.957764 14.0 
1030.985352 24.0 
1031.012939 28.0 
1031.040527 26.0 
1031.10498 27.0 
1031.123413 20.0 
1031.151001 20.0 
1031.187744 23.0 
1031.24292 20.0 
1031.261353 17.0 
1031.279663 27.0 
1031.298096 28.0 
1031.316528 27.0 
1031.344116 33.0 
1031.371704 44.0 
1031.408447 31.0 
1031.436157 20.0 
1031.454468 24.0 
1031.4729 34.0 
1031.509644 27.0 
1031.555664 59.0 
1031.583252 30.0 
1031.601685 31.0 
1031.63855 45.0 
1031.65686 35.0 
1031.675293 30.0 
1031.702881 27.0 
1031.739746 48.0 
1031.813354 38.0 
1031.86853 42.0 
1031.923706 24.0 
1031.960571 41.0 
1032.015747 34.0 
1032.05249 35.0 
1032.070923 24.0 
1032.116943 36.0 
1032.172119 28.0 
1032.21814 31.0 
1032.26416 51.0 
1032.328613 48.0 
1032.374634 18.0 
1032.393066 26.0 
1032.45752 42.0 
1032.503418 47.0 
1032.540283 47.0 
1032.604736 48.0 
1032.613892 48.0 
1032.659912 29.0 
1032.687622 23.0 
1032.705933 27.0 
1032.724365 28.0 
1032.742798 39.0 
1032.788818 41.0 
1032.843994 32.0 
1032.880859 44.0 
1032.899292 49.0 
1032.92688 49.0 
1032.9729 34.0 
1032.982178 34.0 
1033.018921 41.0 
1033.064941 37.0 
1033.120239 37.0 
1033.193848 32.0 
1033.221558 24.0 
1033.258301 48.0 
1033.295166 23.0 
1033.313599 36.0 
1033.368774 46.0 
1033.396484 34.0 
1033.460938 46.0 
1033.47937 35.0 
1033.506958 27.0 
1033.525391 26.0 
1033.571411 44.0 
1033.617432 40.0 
1033.672729 57.0 
1033.727905 55.0 
1033.774048 38.0 
1033.79248 30.0 
1033.810791 34.0 
1033.875366 63.0 
1033.939819 39.0 
1034.004272 45.0 
1034.03186 31.0 
1034.05957 33.0 
1034.078003 26.0 
1034.114746 48.0 
1034.179321 37.0 
1034.234497 57.0 
1034.299072 53.0 
1034.317383 21.0 
1034.354248 47.0 
1034.391113 40.0 
1034.409546 31.0 
1034.446411 28.0 
1034.483276 40.0 
1034.510864 37.0 
1034.547729 24.0 
1034.566162 25.0 
1034.612305 45.0 
1034.66748 43.0 
1034.685913 39.0 
1034.704346 33.0 
1034.759644 36.0 
1034.787354 29.0 
1034.824219 35.0 
1034.860962 22.0 
1034.879395 24.0 
1034.897827 14.0 
1034.925537 41.0 
1034.980835 41.0 
1034.999268 40.0 
1035.0177 42.0 
1035.045288 30.0 
1035.063721 53.0 
1035.082153 51.0 
1035.128296 55.0 
1035.155884 42.0 
1035.174316 44.0 
1035.211182 24.0 
1035.238892 36.0 
1035.266479 32.0 
1035.303345 26.0 
1035.34021 38.0 
1035.377075 18.0 
1035.41394 33.0 
1035.432373 32.0 
1035.469238 33.0 
1035.496948 32.0 
1035.533813 30.0 
1035.561401 31.0 
1035.589111 48.0 
1035.644409 42.0 
1035.671997 34.0 
1035.69043 35.0 
1035.699707 35.0 
1035.727295 38.0 
1035.773438 40.0 
1035.810303 41.0 
1035.838013 27.0 
1035.884033 30.0 
1035.920898 34.0 
1035.957764 31.0 
1035.985474 42.0 
1036.013184 35.0 
1036.068481 36.0 
1036.086914 40.0 
1036.123779 35.0 
1036.151489 44.0 
1036.179077 53.0 
1036.215942 38.0 
1036.262085 44.0 
1036.280518 36.0 
1036.317383 64.0 
1036.409668 49.0 
1036.446533 46.0 
1036.474121 41.0 
1036.501831 49.0 
1036.566406 45.0 
1036.593994 42.0 
1036.612549 33.0 
1036.658569 22.0 
1036.667847 22.0 
1036.695557 33.0 
1036.713989 33.0 
1036.741577 16.0 
1036.750854 16.0 
1036.769287 31.0 
1036.796997 38.0 
1036.833862 30.0 
1036.870728 31.0 
1036.88916 24.0 
1036.907593 29.0 
1036.926025 28.0 
1036.972168 27.0 
1036.990601 26.0 
1037.036743 19.0 
1037.082886 39.0 
1037.156738 47.0 
1037.202759 26.0 
1037.230469 27.0 
1037.258179 25.0 
1037.285767 34.0 
1037.295044 34.0 
1037.341187 41.0 
1037.368896 33.0 
1037.396484 20.0 
1037.424194 26.0 
1037.46106 45.0 
1037.498047 37.0 
1037.562622 35.0 
1037.581055 24.0 
1037.599487 22.0 
1037.627197 38.0 
1037.67334 33.0 
1037.719482 30.0 
1037.747192 29.0 
1037.784058 35.0 
1037.80249 26.0 
1037.820923 27.0 
1037.848633 28.0 
1037.913208 35.0 
1037.922485 35.0 
1037.977783 34.0 
1038.005493 32.0 
1038.04248 48.0 
1038.079346 33.0 
1038.116211 37.0 
1038.134766 27.0 
1038.143921 27.0 
1038.180908 49.0 
1038.199341 58.0 
1038.227051 52.0 
1038.273193 48.0 
1038.310059 31.0 
1038.328491 32.0 
1038.356201 34.0 
1038.420776 35.0 
1038.448486 19.0 
1038.485474 31.0 
1038.513184 19.0 
1038.531616 20.0 
1038.550049 21.0 
1038.568481 23.0 
1038.577759 23.0 
1038.614624 31.0 
1038.633179 31.0 
1038.670044 41.0 
1038.725464 24.0 
1038.771606 39.0 
1038.836182 45.0 
1038.873169 46.0 
1038.910034 22.0 
1038.947021 86.0 
1038.993164 72.0 
1039.039307 46.0 
1039.057861 34.0 
1039.085571 38.0 
1039.122437 27.0 
1039.159424 45.0 
1039.177856 44.0 
1039.196289 34.0 
1039.214844 48.0 
1039.270142 41.0 
1039.325562 24.0 
1039.334839 24.0 
1039.353271 21.0 
1039.390259 41.0 
1039.417969 29.0 
1039.445679 29.0 
1039.482544 32.0 
1039.510254 35.0 
1039.528809 47.0 
1039.593384 35.0 
1039.611816 36.0 
1039.630371 36.0 
1039.694946 38.0 
1039.722656 44.0 
1039.750366 41.0 
1039.778076 39.0 
1039.796631 23.0 
1039.824341 30.0 
1039.861206 37.0 
1039.879761 75.0 
1039.907471 33.0 
1039.944336 55.0 
1039.981323 43.0 
1040.009033 33.0 
1040.046021 48.0 
1040.064453 37.0 
1040.10144 50.0 
1040.12915 44.0 
1040.15686 41.0 
1040.21228 35.0 
1040.2677 24.0 
1040.286133 29.0 
1040.304688 31.0 
1040.32312 37.0 
1040.35083 24.0 
1040.369385 24.0 
1040.397095 29.0 
1040.415527 38.0 
1040.470947 33.0 
1040.526367 39.0 
1040.563354 22.0 
1040.581787 21.0 
1040.609497 33.0 
1040.655762 20.0 
1040.683472 42.0 
1040.692749 42.0 
1040.720459 27.0 
1040.775879 36.0 
1040.803589 33.0 
1040.831299 32.0 
1040.868286 31.0 
1040.895996 25.0 
1040.923706 35.0 
1040.979126 48.0 
1041.053101 57.0 
1041.090088 32.0 
1041.108521 31.0 
1041.127075 28.0 
1041.154785 32.0 
1041.182495 32.0 
1041.247192 60.0 
1041.302612 45.0 
1041.330444 34.0 
1041.348877 29.0 
1041.376587 19.0 
1041.404297 24.0 
1041.432129 27.0 
1041.450562 24.0 
1041.496826 50.0 
1041.542969 43.0 
1041.570679 21.0 
1041.598511 35.0 
1041.635498 42.0 
1041.644653 42.0 
1041.690918 27.0 
1041.709351 29.0 
1041.746338 61.0 
1041.755615 61.0 
1041.820312 66.0 
1041.848022 28.0 
1041.894287 32.0 
1041.912842 37.0 
1041.940552 34.0 
1041.977539 51.0 
1041.995972 44.0 
1042.023804 39.0 
1042.042236 37.0 
1042.079224 45.0 
1042.088501 45.0 
1042.143921 24.0 
1042.171631 19.0 
1042.190186 20.0 
1042.217896 26.0 
1042.245728 58.0 
1042.310425 40.0 
1042.328857 30.0 
1042.356689 30.0 
1042.393677 46.0 
1042.412109 37.0 
1042.439819 46.0 
1042.467651 38.0 
1042.504639 63.0 
1042.560059 51.0 
1042.569336 51.0 
1042.597046 40.0 
1042.634033 29.0 
1042.661865 35.0 
1042.680298 25.0 
1042.70813 30.0 
1042.772827 40.0 
1042.809814 24.0 
1042.856079 59.0 
1042.883789 40.0 
1042.902344 45.0 
1042.939331 68.0 
1042.994873 44.0 
1043.08728 39.0 
1043.115112 35.0 
1043.17981 63.0 
1043.198364 54.0 
1043.226074 37.0 
1043.263062 51.0 
1043.318604 50.0 
1043.337158 41.0 
1043.364868 21.0 
1043.401855 46.0 
1043.438843 54.0 
1043.503662 52.0 
1043.531372 45.0 
1043.586914 41.0 
1043.605469 41.0 
1043.633179 13.0 
1043.670166 37.0 
1043.716553 36.0 
1043.75354 35.0 
1043.771973 24.0 
1043.809082 38.0 
1043.827515 30.0 
1043.892334 21.0 
1043.938599 39.0 
1043.975586 24.0 
1044.003418 22.0 
1044.05896 53.0 
1044.105225 50.0 
1044.132935 36.0 
1044.151489 31.0 
1044.179199 46.0 
1044.197754 59.0 
1044.216309 49.0 
1044.262573 42.0 
1044.318115 20.0 
1044.327271 20.0 
1044.36438 36.0 
1044.419922 32.0 
1044.456909 40.0 
1044.503174 39.0 
1044.540283 49.0 
1044.595825 37.0 
1044.623535 25.0 
1044.632812 25.0 
1044.660645 21.0 
1044.706909 41.0 
1044.734619 43.0 
1044.790161 35.0 
1044.836548 47.0 
1044.882812 32.0 
1044.901367 30.0 
1044.9198 35.0 
1044.947632 27.0 
1044.966064 25.0 
1045.030884 38.0 
1045.058716 42.0 
1045.123535 51.0 
1045.160522 108.0 
1045.216187 110.0 
1045.271729 51.0 
1045.327271 37.0 
1045.382812 38.0 
1045.419922 38.0 
1045.447632 24.0 
1045.466187 23.0 
1045.512451 45.0 
1045.558838 57.0 
1045.577271 61.0 
1045.61438 46.0 
1045.642212 58.0 
1045.688477 45.0 
1045.707031 47.0 
1045.753296 46.0 
1045.790405 37.0 
1045.83667 40.0 
1045.882935 27.0 
1045.901489 16.0 
1045.920044 39.0 
1045.938599 44.0 
1045.975586 25.0 
1046.003418 42.0 
1046.021973 29.0 
1046.049683 33.0 
1046.086792 26.0 
1046.114624 44.0 
1046.142334 55.0 
1046.179443 34.0 
1046.197998 28.0 
1046.216553 31.0 
1046.234985 35.0 
1046.272095 26.0 
1046.327637 31.0 
1046.401855 29.0 
1046.411011 29.0 
1046.429565 37.0 
1046.485229 24.0 
1046.512939 16.0 
1046.540771 35.0 
1046.550049 35.0 
1046.577881 29.0 
1046.624146 49.0 
1046.661255 41.0 
1046.689087 35.0 
1046.698364 35.0 
1046.716797 31.0 
1046.735352 37.0 
1046.753906 30.0 
1046.772461 38.0 
1046.818848 39.0 
1046.83728 31.0 
1046.865112 25.0 
1046.892944 20.0 
1046.930054 30.0 
1046.948486 24.0 
1046.967041 20.0 
1046.994873 26.0 
1047.022705 27.0 
1047.078247 36.0 
1047.124634 47.0 
1047.161743 48.0 
1047.198853 35.0 
1047.23584 25.0 
1047.263672 35.0 
1047.337891 32.0 
1047.393433 40.0 
1047.439819 30.0 
1047.458374 40.0 
1047.495483 54.0 
1047.513916 51.0 
1047.532471 29.0 
1047.560303 59.0 
1047.578857 40.0 
1047.606689 28.0 
1047.625244 33.0 
1047.653076 48.0 
1047.690063 39.0 
1047.717896 35.0 
1047.73645 39.0 
1047.764282 50.0 
1047.801392 28.0 
1047.819946 41.0 
1047.847778 34.0 
1047.87561 33.0 
1047.912598 43.0 
1047.968262 48.0 
1047.996094 43.0 
1048.014648 49.0 
1048.051758 45.0 
1048.098145 34.0 
1048.125977 37.0 
1048.144409 44.0 
1048.181519 66.0 
1048.237183 39.0 
1048.265015 31.0 
1048.302124 26.0 
1048.329956 43.0 
1048.394897 47.0 
1048.432007 44.0 
1048.478394 29.0 
1048.496826 29.0 
1048.515381 25.0 
1048.571045 32.0 
1048.5896 32.0 
1048.626709 38.0 
1048.682373 69.0 
1048.710205 16.0 
1048.765869 32.0 
1048.830811 43.0 
1048.849365 39.0 
1048.86792 30.0 
1048.905029 39.0 
1048.951416 38.0 
1048.988525 24.0 
1049.016357 37.0 
1049.072021 49.0 
1049.118408 38.0 
1049.164795 29.0 
1049.201904 32.0 
1049.211182 32.0 
1049.239014 39.0 
1049.313232 43.0 
1049.341064 41.0 
1049.387451 46.0 
1049.406006 51.0 
1049.452393 36.0 
1049.470947 38.0 
1049.489502 24.0 
1049.517334 26.0 
1049.535889 26.0 
1049.554443 39.0 
1049.582275 39.0 
1049.60083 46.0 
1049.647339 32.0 
1049.665894 45.0 
1049.721558 40.0 
1049.777222 29.0 
1049.795776 24.0 
1049.823608 42.0 
1049.860718 42.0 
1049.879272 33.0 
1049.897827 22.0 
1049.925659 49.0 
1049.962769 30.0 
1049.981445 34.0 
1050.027832 43.0 
1050.074219 47.0 
1050.092773 50.0 
1050.13916 38.0 
1050.157715 36.0 
1050.17627 29.0 
1050.194824 39.0 
1050.222778 23.0 
1050.241333 26.0 
1050.28772 38.0 
1050.343384 67.0 
1050.371216 27.0 
1050.389771 50.0 
1050.436279 65.0 
1050.482666 41.0 
1050.529053 49.0 
1050.556885 28.0 
1050.584717 42.0 
1050.612671 30.0 
1050.64978 33.0 
1050.677612 25.0 
1050.714722 35.0 
1050.742554 31.0 
1050.76123 27.0 
1050.789062 42.0 
1050.844727 51.0 
1050.891113 35.0 
1050.90979 25.0 
1050.928345 28.0 
1050.956177 48.0 
1050.974731 51.0 
1051.067627 54.0 
1051.123291 41.0 
1051.1698 39.0 
1051.216187 46.0 
1051.253296 40.0 
1051.28125 29.0 
1051.309082 36.0 
1051.336914 41.0 
1051.374023 40.0 
1051.401978 30.0 
1051.420532 39.0 
1051.439087 41.0 
1051.476196 33.0 
1051.50415 29.0 
1051.54126 10.0 
1051.569092 19.0 
1051.587646 14.0 
1051.624878 30.0 
1051.671265 42.0 
1051.699219 33.0 
1051.727051 27.0 
1051.773438 39.0 
1051.782715 39.0 
1051.801392 33.0 
1051.838501 40.0 
1051.894287 66.0 
1051.931396 18.0 
1051.949951 23.0 
1051.977905 25.0 
1051.99646 19.0 
1052.024292 27.0 
1052.042847 34.0 
1052.070801 29.0 
1052.10791 47.0 
1052.182251 40.0 
1052.200806 42.0 
1052.256592 49.0 
1052.293701 49.0 
1052.312378 50.0 
1052.368042 46.0 
1052.395996 35.0 
1052.433105 31.0 
1052.45166 46.0 
1052.479614 48.0 
1052.5354 35.0 
1052.563232 39.0 
1052.581787 28.0 
1052.646851 57.0 
1052.665405 32.0 
1052.693359 22.0 
1052.730469 38.0 
1052.786255 47.0 
1052.80481 35.0 
1052.823486 30.0 
1052.860596 24.0 
1052.907104 41.0 
1052.944214 34.0 
1052.962891 33.0 
1052.990723 17.0 
1053.018677 34.0 
1053.027954 34.0 
1053.046509 42.0 
1053.074341 26.0 
1053.111572 48.0 
1053.139404 31.0 
1053.167358 27.0 
1053.19519 29.0 
1053.223145 35.0 
1053.260254 24.0 
1053.306763 30.0 
1053.325439 28.0 
1053.353271 28.0 
1053.381104 19.0 
1053.409058 46.0 
1053.455566 48.0 
1053.474121 46.0 
1053.52063 42.0 
1053.539185 39.0 
1053.567139 31.0 
1053.594971 47.0 
1053.613525 56.0 
1053.650757 22.0 
1053.687988 34.0 
1053.706543 28.0 
1053.734497 32.0 
1053.753052 30.0 
1053.771606 32.0 
1053.799561 24.0 
1053.827393 26.0 
1053.855347 35.0 
1053.892578 33.0 
1053.92041 32.0 
1054.00415 40.0 
1054.013428 40.0 
1054.031982 49.0 
1054.069214 39.0 
1054.097168 37.0 
1054.115723 21.0 
1054.152954 49.0 
1054.20874 24.0 
1054.236572 30.0 
1054.264526 27.0 
1054.301758 37.0 
1054.32959 43.0 
1054.394775 29.0 
1054.422607 37.0 
1054.478394 31.0 
1054.524902 22.0 
1054.543579 22.0 
1054.571411 34.0 
1054.61792 38.0 
1054.664429 51.0 
1054.692383 18.0 
1054.710938 24.0 
1054.729614 23.0 
1054.748169 28.0 
1054.813354 37.0 
1054.841187 30.0 
1054.906372 55.0 
1054.943604 39.0 
1054.962158 44.0 
1054.980713 31.0 
1054.99939 39.0 
1055.045898 37.0 
1055.092407 45.0 
1055.129639 27.0 
1055.157593 34.0 
1055.185425 44.0 
1055.222656 42.0 
1055.25061 35.0 
1055.287842 50.0 
1055.334351 50.0 
1055.390137 23.0 
1055.418091 31.0 
1055.446045 21.0 
1055.455322 21.0 
1055.492554 34.0 
1055.529785 17.0 
1055.557617 34.0 
1055.576294 35.0 
1055.604248 45.0 
1055.63208 41.0 
1055.669312 34.0 
1055.687988 29.0 
1055.72522 51.0 
1055.762451 48.0 
1055.781006 43.0 
1055.799683 30.0 
1055.827515 27.0 
1055.864746 29.0 
1055.901978 34.0 
1055.929932 40.0 
1055.97644 36.0 
1055.995117 30.0 
1056.032349 38.0 
1056.06958 45.0 
1056.125366 61.0 
1056.181274 53.0 
1056.237061 39.0 
1056.283691 33.0 
1056.3302 28.0 
1056.348877 31.0 
1056.386108 49.0 
1056.42334 44.0 
1056.441895 34.0 
1056.479126 42.0 
1056.525757 41.0 
1056.544312 38.0 
1056.581543 45.0 
1056.628174 26.0 
1056.646729 32.0 
1056.665405 37.0 
1056.68396 37.0 
1056.730591 43.0 
1056.758423 30.0 
1056.795776 28.0 
1056.823608 42.0 
1056.898193 43.0 
1056.926147 38.0 
1056.972656 37.0 
1057.028564 43.0 
1057.075073 39.0 
1057.103027 25.0 
1057.130981 66.0 
1057.196167 41.0 
1057.214844 34.0 
1057.252075 22.0 
1057.261353 22.0 
1057.280029 26.0 
1057.298584 28.0 
1057.317261 25.0 
1057.345215 23.0 
1057.36377 26.0 
1057.391724 21.0 
1057.4104 26.0 
1057.447632 12.0 
1057.475586 35.0 
1057.512817 35.0 
1057.559448 10.0 
1057.587402 24.0 
1057.59668 24.0 
1057.624634 28.0 
1057.633911 28.0 
1057.671143 38.0 
1057.717773 37.0 
1057.755005 23.0 
1057.773682 24.0 
1057.792358 24.0 
1057.82019 39.0 
1057.857544 25.0 
1057.904053 28.0 
1057.941406 37.0 
1057.987915 48.0 
1058.034546 39.0 
1058.090454 67.0 
1058.146362 65.0 
1058.183594 30.0 
1058.239502 34.0 
1058.248779 34.0 
1058.276733 27.0 
1058.332642 50.0 
1058.379272 45.0 
1058.397949 45.0 
1058.416504 43.0 
1058.435181 53.0 
1058.463135 47.0 
1058.500366 56.0 
1058.519043 65.0 
1058.556396 36.0 
1058.584351 32.0 
1058.593628 32.0 
1058.621582 39.0 
1058.658813 31.0 
1058.705444 29.0 
1058.742676 18.0 
1058.770752 27.0 
1058.817261 25.0 
1058.835938 24.0 
1058.873169 37.0 
1058.891846 39.0 
1058.901123 39.0 
1058.938477 47.0 
1058.985107 68.0 
1059.050293 56.0 
1059.078247 50.0 
1059.115601 39.0 
1059.152832 33.0 
1059.190186 38.0 
1059.236816 45.0 
1059.274048 31.0 
1059.292725 30.0 
1059.311279 27.0 
1059.35791 47.0 
1059.404541 38.0 
1059.451172 47.0 
1059.497803 35.0 
1059.516479 44.0 
1059.535034 38.0 
1059.553711 42.0 
1059.609741 48.0 
1059.65625 34.0 
1059.684326 41.0 
1059.721558 52.0 
1059.740234 60.0 
1059.749512 60.0 
1059.786865 26.0 
1059.842773 43.0 
1059.917358 44.0 
1059.973389 45.0 
1060.029297 41.0 
1060.047974 35.0 
1060.094604 43.0 
1060.113281 36.0 
1060.141235 29.0 
1060.169189 41.0 
1060.206543 22.0 
1060.234497 41.0 
1060.271729 41.0 
1060.290405 42.0 
1060.327759 35.0 
1060.355713 42.0 
1060.383667 25.0 
1060.411743 26.0 
1060.448975 43.0 
1060.505005 23.0 
1060.523682 27.0 
1060.560913 28.0 
1060.588867 53.0 
1060.616943 48.0 
1060.663574 57.0 
1060.682251 55.0 
1060.719482 39.0 
1060.738159 32.0 
1060.766113 44.0 
1060.812866 57.0 
1060.878174 59.0 
1060.934082 30.0 
1060.952759 37.0 
1060.971436 36.0 
1060.990112 35.0 
1061.027344 26.0 
1061.046021 30.0 
1061.074097 35.0 
1061.092651 29.0 
1061.130005 35.0 
1061.158081 49.0 
1061.186035 24.0 
1061.223389 43.0 
1061.279297 28.0 
1061.297974 29.0 
1061.31665 19.0 
1061.372681 41.0 
1061.409912 32.0 
1061.447266 29.0 
1061.503296 40.0 
1061.521973 36.0 
1061.549927 20.0 
1061.596558 44.0 
1061.652588 38.0 
1061.680664 37.0 
1061.736572 36.0 
1061.773926 32.0 
1061.820557 45.0 
1061.885986 38.0 
1061.904663 37.0 
1061.932617 32.0 
1061.960571 39.0 
1061.997925 24.0 
1062.044678 53.0 
1062.100586 41.0 
1062.128662 31.0 
1062.147339 29.0 
1062.166016 22.0 
1062.184692 40.0 
1062.203369 41.0 
1062.222046 41.0 
1062.240601 31.0 
1062.259277 32.0 
1062.287354 17.0 
1062.30603 18.0 
1062.343384 26.0 
1062.399414 26.0 
1062.427368 26.0 
1062.446045 24.0 
1062.464722 41.0 
1062.492676 35.0 
1062.530029 44.0 
1062.548706 61.0 
1062.58606 21.0 
1062.614136 40.0 
1062.632812 43.0 
1062.688843 26.0 
1062.70752 23.0 
1062.726196 26.0 
1062.75415 35.0 
1062.782227 20.0 
1062.810181 38.0 
1062.828857 36.0 
1062.866211 31.0 
1062.894287 40.0 
1062.922241 28.0 
1062.959595 25.0 
1062.987671 39.0 
1063.025024 44.0 
1063.052979 31.0 
1063.090332 63.0 
1063.137085 38.0 
1063.155762 36.0 
1063.174438 32.0 
1063.211792 44.0 
1063.249146 44.0 
1063.267822 45.0 
1063.295776 36.0 
1063.314575 34.0 
1063.342529 38.0 
1063.361206 32.0 
1063.39856 22.0 
1063.417236 22.0 
1063.445312 41.0 
1063.45459 41.0 
1063.473267 23.0 
1063.501343 14.0 
1063.547974 44.0 
1063.604126 19.0 
1063.63208 18.0 
1063.669434 32.0 
1063.68811 22.0 
1063.734863 46.0 
1063.790894 35.0 
1063.81897 28.0 
1063.865601 29.0 
1063.875 29.0 
1063.893677 25.0 
1063.903076 25.0 
1063.94043 32.0 
1063.99646 48.0 
1064.015137 40.0 
1064.043213 33.0 
1064.080566 41.0 
1064.108521 52.0 
1064.136597 20.0 
1064.17395 45.0 
1064.211304 23.0 
1064.258057 32.0 
1064.276733 30.0 
1064.30481 31.0 
1064.342163 38.0 
1064.379517 38.0 
1064.398315 45.0 
1064.416992 39.0 
1064.454346 42.0 
1064.473022 41.0 
1064.510376 34.0 
1064.566528 51.0 
1064.594482 34.0 
1064.659912 51.0 
1064.725342 28.0 
1064.753418 30.0 
1064.781372 27.0 
1064.818848 45.0 
1064.846802 38.0 
1064.874878 50.0 
1064.902954 28.0 
1064.968384 44.0 
1064.99646 33.0 
1065.043213 42.0 
1065.099243 30.0 
1065.127319 20.0 
1065.136597 20.0 
1065.155273 18.0 
1065.18335 38.0 
1065.220825 30.0 
1065.239502 32.0 
1065.286255 41.0 
1065.342285 54.0 
1065.370361 20.0 
1065.407715 31.0 
1065.454468 25.0 
1065.491943 22.0 
1065.51062 30.0 
1065.519897 30.0 
1065.547974 30.0 
1065.585449 40.0 
1065.622803 33.0 
1065.650879 41.0 
1065.669556 42.0 
1065.706909 36.0 
1065.734985 39.0 
1065.772461 28.0 
1065.800415 39.0 
1065.828491 24.0 
1065.865967 31.0 
1065.884644 34.0 
1065.921997 51.0 
1065.950073 43.0 
1065.987549 36.0 
1066.052979 53.0 
1066.090332 53.0 
1066.109131 48.0 
1066.155884 28.0 
1066.174561 38.0 
1066.202637 61.0 
1066.23999 32.0 
1066.268066 33.0 
1066.286743 49.0 
1066.333496 44.0 
1066.417725 38.0 
1066.4552 33.0 
1066.51123 47.0 
1066.530029 28.0 
1066.557983 34.0 
1066.595459 32.0 
1066.642212 32.0 
1066.660889 30.0 
1066.707764 32.0 
1066.72644 36.0 
1066.745117 38.0 
1066.773193 36.0 
1066.80127 32.0 
1066.829346 25.0 
1066.866699 26.0 
1066.894775 46.0 
1066.932251 24.0 
1066.960327 42.0 
1067.016479 34.0 
1067.072632 48.0 
1067.109985 17.0 
1067.138062 39.0 
1067.166138 33.0 
1067.194214 28.0 
1067.212891 37.0 
1067.250366 37.0 
1067.306519 41.0 
1067.343994 29.0 
1067.362671 48.0 
1067.428223 35.0 
1067.456299 21.0 
1067.474976 24.0 
1067.493652 29.0 
1067.512451 26.0 
1067.531128 38.0 
1067.549805 39.0 
1067.577881 35.0 
1067.624756 21.0 
1067.671509 18.0 
1067.690186 14.0 
1067.718262 32.0 
1067.774414 34.0 
1067.80249 41.0 
1067.821289 43.0 
1067.868042 43.0 
1067.896118 62.0 
1067.971069 45.0 
1067.999146 32.0 
1068.027222 37.0 
1068.073975 51.0 
1068.092773 50.0 
1068.130127 27.0 
1068.167603 36.0 
1068.205078 38.0 
1068.242554 30.0 
1068.27063 30.0 
1068.307983 46.0 
1068.345459 40.0 
1068.373535 56.0 
1068.401611 56.0 
1068.439087 45.0 
1068.467163 46.0 
1068.495239 55.0 
1068.523315 51.0 
1068.57019 33.0 
1068.598267 20.0 
1068.635742 30.0 
1068.654419 43.0 
1068.673218 34.0 
1068.691895 35.0 
1068.73877 33.0 
1068.785522 25.0 
1068.813599 56.0 
1068.87915 45.0 
1068.897949 35.0 
1068.916626 37.0 
1068.963501 47.0 
1068.982178 41.0 
1068.991577 41.0 
1069.010254 43.0 
1069.047729 21.0 
1069.075806 34.0 
1069.104004 29.0 
1069.13208 32.0 
1069.169556 23.0 
1069.197632 33.0 
1069.244507 30.0 
1069.28186 41.0 
1069.319336 28.0 
1069.338135 35.0 
1069.38501 35.0 
1069.441162 35.0 
1069.459839 32.0 
1069.488037 32.0 
1069.553589 29.0 
1069.591064 40.0 
1069.609741 39.0 
1069.62854 41.0 
1069.694092 52.0 
1069.731567 23.0 
1069.759644 33.0 
1069.797119 52.0 
1069.815918 41.0 
1069.843994 21.0 
1069.900146 34.0 
1069.956421 44.0 
1070.021973 36.0 
1070.040771 37.0 
1070.078247 43.0 
1070.134399 41.0 
1070.162598 26.0 
1070.181274 28.0 
1070.228149 54.0 
1070.246826 49.0 
1070.275024 32.0 
1070.331177 39.0 
1070.368652 56.0 
1070.396851 15.0 
1070.424927 49.0 
1070.462402 30.0 
1070.490479 26.0 
1070.527954 37.0 
1070.546753 32.0 
1070.603027 40.0 
1070.631104 35.0 
1070.649902 51.0 
1070.677979 36.0 
1070.74353 44.0 
1070.771729 30.0 
1070.790405 23.0 
1070.827881 32.0 
1070.856079 31.0 
1070.884155 31.0 
1070.912231 33.0 
1070.94043 41.0 
1070.959106 27.0 
1070.968506 27.0 
1070.996704 55.0 
1071.02478 28.0 
1071.062256 46.0 
1071.109131 38.0 
1071.137207 23.0 
1071.174805 28.0 
1071.240356 37.0 
1071.277832 24.0 
1071.296631 26.0 
1071.31543 28.0 
1071.334106 24.0 
1071.362305 39.0 
1071.371582 39.0 
1071.40918 21.0 
1071.427856 21.0 
1071.465454 32.0 
1071.512329 45.0 
1071.540405 31.0 
1071.568481 27.0 
1071.59668 43.0 
1071.624756 29.0 
1071.652954 53.0 
1071.68103 48.0 
1071.727905 28.0 
1071.756104 28.0 
1071.77478 43.0 
1071.793579 32.0 
1071.812378 45.0 
1071.831055 43.0 
1071.868652 49.0 
1071.887329 42.0 
1071.915527 34.0 
1071.953003 24.0 
1071.971802 23.0 
1071.990479 26.0 
1072.009277 33.0 
1072.046753 29.0 
1072.103027 46.0 
1072.131226 51.0 
1072.1875 29.0 
1072.215576 24.0 
1072.271851 49.0 
1072.318726 33.0 
1072.365723 30.0 
1072.393799 11.0 
1072.412598 18.0 
1072.487671 42.0 
1072.553223 21.0 
1072.59082 30.0 
1072.618896 41.0 
1072.665894 46.0 
1072.68457 33.0 
1072.703369 19.0 
1072.731567 44.0 
1072.750244 62.0 
1072.769043 56.0 
1072.787842 48.0 
1072.825317 31.0 
1072.834717 31.0 
1072.862915 38.0 
1072.881592 31.0 
1072.90979 65.0 
1072.975464 62.0 
1072.994263 52.0 
1073.031738 48.0 
1073.069336 32.0 
1073.078613 32.0 
1073.106812 30.0 
1073.153687 35.0 
1073.172485 27.0 
1073.200684 17.0 
1073.22876 26.0 
1073.266357 33.0 
1073.285156 46.0 
1073.322632 28.0 
1073.341431 21.0 
1073.369507 31.0 
1073.388306 43.0 
1073.425903 27.0 
1073.463379 33.0 
1073.482178 29.0 
1073.519653 28.0 
1073.56665 38.0 
1073.585449 63.0 
1073.622925 22.0 
1073.651123 39.0 
1073.679321 45.0 
1073.726196 40.0 
1073.773071 41.0 
1073.80127 36.0 
1073.857544 38.0 
1073.885742 39.0 
1073.92334 44.0 
1073.942017 34.0 
1073.960815 34.0 
1073.979614 39.0 
1074.007812 47.0 
1074.026611 42.0 
1074.045288 37.0 
1074.073486 17.0 
1074.111084 35.0 
1074.167358 39.0 
1074.204956 30.0 
1074.223755 25.0 
1074.26123 36.0 
1074.327026 36.0 
1074.383301 30.0 
1074.439575 43.0 
1074.467773 41.0 
1074.486572 42.0 
1074.514771 27.0 
1074.533569 35.0 
1074.580444 23.0 
1074.599243 23.0 
1074.64624 36.0 
1074.702515 46.0 
1074.740112 44.0 
1074.787109 40.0 
1074.824585 42.0 
1074.843384 32.0 
1074.862183 40.0 
1074.890381 44.0 
1074.927856 39.0 
1074.956055 29.0 
1074.993652 36.0 
1075.012451 24.0 
1075.050049 61.0 
1075.078125 24.0 
1075.087524 24.0 
1075.106323 20.0 
1075.143921 39.0 
1075.16272 31.0 
1075.190918 30.0 
1075.228394 45.0 
1075.265991 45.0 
1075.322388 34.0 
1075.350586 34.0 
1075.388184 56.0 
1075.453857 38.0 
1075.500854 54.0 
1075.529053 47.0 
1075.557251 20.0 
1075.585327 46.0 
1075.632324 21.0 
1075.651123 23.0 
1075.660522 23.0 
1075.688721 41.0 
1075.716919 29.0 
1075.726318 29.0 
1075.763916 33.0 
1075.792114 44.0 
1075.82959 24.0 
1075.857788 32.0 
1075.895386 48.0 
1075.951782 43.0 
1075.98938 40.0 
1076.055176 24.0 
1076.092773 52.0 
1076.12085 28.0 
1076.158447 40.0 
1076.186646 34.0 
1076.233643 30.0 
1076.243042 30.0 
1076.27124 37.0 
1076.28064 37.0 
1076.299438 23.0 
1076.337036 48.0 
1076.365234 36.0 
1076.402832 17.0 
1076.412231 17.0 
1076.43103 22.0 
1076.468628 47.0 
1076.487427 59.0 
1076.525024 37.0 
1076.543823 33.0 
1076.553223 33.0 
1076.59082 40.0 
1076.619019 39.0 
1076.628418 39.0 
1076.675415 22.0 
1076.713013 17.0 
1076.731812 17.0 
1076.75061 17.0 
1076.797607 23.0 
1076.835205 36.0 
1076.882202 37.0 
1076.9104 38.0 
1076.929199 36.0 
1076.947998 30.0 
1077.004395 27.0 
1077.07019 25.0 
1077.088989 23.0 
1077.107788 25.0 
1077.135986 31.0 
1077.164185 40.0 
1077.182983 34.0 
1077.201782 33.0 
1077.267578 48.0 
1077.314575 50.0 
1077.342773 38.0 
1077.361572 41.0 
1077.389771 38.0 
1077.446167 42.0 
1077.464966 34.0 
1077.502563 31.0 
1077.530762 31.0 
1077.559082 34.0 
1077.59668 29.0 
1077.615479 33.0 
1077.634277 45.0 
1077.662476 36.0 
1077.700073 38.0 
1077.709473 38.0 
1077.728271 20.0 
1077.765869 34.0 
1077.822266 30.0 
1077.878784 47.0 
1077.916382 29.0 
1077.935181 30.0 
1078.000977 42.0 
1078.029175 29.0 
1078.047974 30.0 
1078.076172 39.0 
1078.113892 38.0 
1078.14209 18.0 
1078.170288 34.0 
1078.207886 28.0 
1078.236084 36.0 
1078.254883 28.0 
1078.292603 32.0 
1078.311401 31.0 
1078.3302 29.0 
1078.348999 25.0 
1078.367798 28.0 
1078.395996 25.0 
1078.414795 29.0 
1078.442993 24.0 
1078.480713 49.0 
1078.508911 30.0 
1078.537109 44.0 
1078.555908 38.0 
1078.593506 34.0 
1078.621826 46.0 
1078.668823 33.0 
1078.687622 34.0 
1078.734619 22.0 
1078.762939 26.0 
1078.781738 27.0 
1078.819336 20.0 
1078.838135 26.0 
1078.866333 19.0 
1078.904053 32.0 
1078.932251 29.0 
1078.979248 37.0 
1079.035767 49.0 
1079.063965 35.0 
1079.101562 34.0 
1079.120361 40.0 
1079.17688 30.0 
1079.205078 59.0 
1079.270996 22.0 
1079.299194 37.0 
1079.355713 48.0 
1079.365112 48.0 
1079.383911 46.0 
1079.430908 29.0 
1079.478027 47.0 
1079.496826 25.0 
1079.553345 36.0 
1079.590942 31.0 
1079.609741 30.0 
1079.647461 33.0 
1079.65686 33.0 
1079.675659 34.0 
1079.694458 36.0 
1079.741577 32.0 
1079.769775 32.0 
1079.807373 19.0 
1079.854492 55.0 
1079.910889 43.0 
1079.948608 58.0 
1079.986206 32.0 
1080.042725 36.0 
1080.099243 28.0 
1080.118042 22.0 
1080.14624 26.0 
1080.18396 47.0 
1080.240356 44.0 
1080.325195 33.0 
1080.343994 38.0 
1080.362793 32.0 
1080.372192 32.0 
1080.409912 29.0 
1080.428711 31.0 
1080.44751 35.0 
1080.466431 34.0 
1080.494629 22.0 
1080.522827 45.0 
1080.532227 45.0 
1080.541748 45.0 
1080.560547 41.0 
1080.579346 34.0 
1080.645264 34.0 
1080.711182 29.0 
1080.748901 33.0 
1080.7771 29.0 
1080.795898 27.0 
1080.833618 37.0 
1080.880737 16.0 
1080.908936 18.0 
1080.946655 33.0 
1080.956055 33.0 
1080.984253 20.0 
1081.031372 51.0 
1081.06897 45.0 
1081.116089 69.0 
1081.163208 52.0 
1081.219727 66.0 
1081.247925 34.0 
1081.276245 32.0 
1081.313965 43.0 
1081.351562 42.0 
1081.408081 32.0 
1081.436401 29.0 
1081.4552 30.0 
1081.49292 25.0 
1081.521118 29.0 
1081.539917 28.0 
1081.568237 32.0 
1081.605957 36.0 
1081.634155 44.0 
1081.643555 44.0 
1081.681274 33.0 
1081.690674 33.0 
1081.737793 26.0 
1081.794312 46.0 
1081.841431 46.0 
1081.869751 24.0 
1081.88855 22.0 
1081.916748 48.0 
1081.92627 48.0 
1081.973389 36.0 
1082.001587 27.0 
1082.029907 33.0 
1082.048706 34.0 
1082.077026 55.0 
1082.105225 43.0 
1082.124146 44.0 
1082.161743 28.0 
1082.190063 46.0 
1082.199463 46.0 
1082.246582 31.0 
1082.265381 25.0 
1082.303101 32.0 
1082.322021 28.0 
1082.35022 26.0 
1082.369141 17.0 
1082.41626 55.0 
1082.435059 34.0 
1082.500977 32.0 
1082.510498 32.0 
1082.529297 34.0 
1082.548096 38.0 
1082.585815 26.0 
1082.632935 46.0 
1082.661255 53.0 
1082.680054 39.0 
1082.727173 34.0 
1082.755493 44.0 
1082.783813 35.0 
1082.793213 35.0 
1082.812012 33.0 
1082.840332 42.0 
1082.878052 34.0 
1082.953369 40.0 
1082.962891 40.0 
1082.991089 65.0 
1083.047729 44.0 
1083.085449 33.0 
1083.104248 37.0 
1083.132568 38.0 
1083.141968 38.0 
1083.160767 41.0 
1083.179688 19.0 
1083.207886 31.0 
1083.226807 36.0 
1083.255127 45.0 
1083.321045 42.0 
1083.339966 43.0 
1083.368164 25.0 
1083.405884 38.0 
1083.434204 37.0 
1083.443604 37.0 
1083.481323 32.0 
1083.509644 38.0 
1083.537964 28.0 
1083.556763 31.0 
1083.594482 36.0 
1083.632202 32.0 
1083.679321 36.0 
1083.698242 32.0 
1083.717041 32.0 
1083.773682 47.0 
1083.811401 25.0 
1083.820801 25.0 
1083.8396 23.0 
1083.858521 22.0 
1083.886841 33.0 
1083.952759 21.0 
1083.97168 13.0 
1083.981079 13.0 
1084.018799 56.0 
1084.084839 41.0 
1084.122559 50.0 
1084.207397 18.0 
1084.235718 22.0 
1084.282959 41.0 
1084.311157 33.0 
1084.339478 47.0 
1084.367798 26.0 
1084.405518 42.0 
1084.433838 29.0 
1084.452637 48.0 
1084.509277 33.0 
1084.528198 23.0 
1084.537598 23.0 
1084.556396 23.0 
1084.575317 24.0 
1084.603638 41.0 
1084.641357 40.0 
1084.669678 46.0 
1084.697998 40.0 
1084.726196 27.0 
1084.745117 29.0 
1084.773438 37.0 
1084.801758 32.0 
1084.820557 35.0 
1084.858276 28.0 
1084.886597 29.0 
1084.924316 48.0 
1084.962158 24.0 
1084.980957 31.0 
1085.028198 49.0 
1085.084717 48.0 
1085.131958 69.0 
1085.150757 38.0 
1085.188599 53.0 
1085.207397 39.0 
1085.245117 33.0 
1085.273438 24.0 
1085.301758 48.0 
1085.358398 39.0 
1085.396118 38.0 
1085.415039 47.0 
1085.452759 63.0 
1085.5 42.0 
1085.547119 53.0 
1085.59436 62.0 
1085.641479 58.0 
1085.679321 44.0 
1085.707642 15.0 
1085.745361 21.0 
1085.783081 24.0 
1085.820801 37.0 
1085.868042 51.0 
1085.896362 30.0 
1085.915283 54.0 
1085.962402 31.0 
1086.000122 32.0 
1086.028442 57.0 
1086.085083 37.0 
1086.132324 50.0 
1086.170044 41.0 
1086.188965 42.0 
1086.198364 42.0 
1086.264526 55.0 
1086.302246 39.0 
1086.349487 65.0 
1086.396729 37.0 
1086.425049 47.0 
1086.472168 63.0 
1086.500488 43.0 
1086.519409 47.0 
1086.557129 36.0 
1086.60437 22.0 
1086.623291 20.0 
1086.64209 14.0 
1086.679932 61.0 
1086.708252 25.0 
1086.774292 47.0 
1086.812134 47.0 
1086.878174 50.0 
1086.934937 28.0 
1086.972656 30.0 
1087.019897 38.0 
1087.048218 28.0 
1087.076538 41.0 
1087.123779 20.0 
1087.133179 20.0 
1087.1521 25.0 
1087.18042 36.0 
1087.20874 27.0 
1087.246582 35.0 
1087.265381 38.0 
1087.322144 33.0 
1087.331543 33.0 
1087.369263 38.0 
1087.388184 42.0 
1087.444824 49.0 
1087.492065 25.0 
1087.510986 22.0 
1087.548828 27.0 
1087.577148 18.0 
1087.596069 17.0 
1087.605469 17.0 
1087.62439 18.0 
1087.633789 18.0 
1087.65271 34.0 
1087.699951 26.0 
1087.728271 29.0 
1087.784912 35.0 
1087.794434 35.0 
1087.851074 39.0 
1087.898315 42.0 
1087.936157 26.0 
1087.973877 51.0 
1088.002197 24.0 
1088.040039 27.0 
1088.05896 30.0 
1088.077881 41.0 
1088.125122 28.0 
1088.143921 29.0 
1088.181763 30.0 
1088.210083 20.0 
1088.238403 41.0 
1088.295166 48.0 
1088.332886 35.0 
1088.399048 51.0 
1088.455811 35.0 
1088.474731 37.0 
1088.493652 24.0 
1088.503052 24.0 
1088.540894 20.0 
1088.559692 31.0 
1088.597534 33.0 
1088.644775 28.0 
1088.663696 33.0 
1088.692017 39.0 
1088.720459 23.0 
1088.739258 18.0 
1088.7771 27.0 
1088.796021 37.0 
1088.843262 26.0 
1088.881104 35.0 
1088.947266 25.0 
1088.975586 18.0 
1089.041748 40.0 
1089.070068 34.0 
1089.07959 34.0 
1089.10791 20.0 
1089.136353 37.0 
1089.155151 41.0 
1089.192993 18.0 
1089.211914 41.0 
1089.268677 38.0 
1089.306396 50.0 
1089.315918 50.0 
1089.372681 45.0 
1089.419922 31.0 
1089.457764 42.0 
1089.476685 33.0 
1089.505005 26.0 
1089.542847 26.0 
1089.571167 28.0 
1089.637329 25.0 
1089.684692 34.0 
1089.703491 31.0 
1089.741333 40.0 
1089.788696 49.0 
1089.826416 61.0 
1089.864258 34.0 
1089.8927 32.0 
1089.930542 46.0 
1089.949341 40.0 
1089.958862 40.0 
1089.977783 40.0 
1090.015625 22.0 
1090.062866 46.0 
1090.110107 56.0 
1090.157471 31.0 
1090.16687 31.0 
1090.195312 26.0 
1090.233154 46.0 
1090.280396 28.0 
1090.299316 31.0 
1090.346558 25.0 
1090.384399 30.0 
1090.422241 27.0 
1090.460083 41.0 
1090.488525 36.0 
1090.516846 28.0 
1090.564209 36.0 
1090.592529 28.0 
1090.620972 35.0 
1090.639771 35.0 
1090.668213 28.0 
1090.687134 30.0 
1090.706055 32.0 
1090.734375 27.0 
1090.762817 30.0 
1090.800659 27.0 
1090.838501 33.0 
1090.866821 40.0 
1090.885742 27.0 
1090.933105 37.0 
1090.980347 33.0 
1090.999268 39.0 
1091.018188 26.0 
1091.046631 32.0 
1091.065552 32.0 
1091.093872 45.0 
1091.150757 25.0 
1091.179077 28.0 
1091.22644 27.0 
1091.254761 27.0 
1091.292603 42.0 
1091.311523 29.0 
1091.339966 29.0 
1091.358887 17.0 
1091.387207 41.0 
1091.453491 42.0 
1091.472412 32.0 
1091.491333 33.0 
1091.510254 32.0 
1091.529175 49.0 
1091.576538 23.0 
1091.623779 52.0 
1091.671143 24.0 
1091.708984 25.0 
1091.746826 36.0 
1091.765747 40.0 
1091.81311 58.0 
1091.850952 41.0 
1091.860474 41.0 
1091.907715 27.0 
1091.936157 32.0 
1091.955078 24.0 
1091.973999 31.0 
1092.021362 35.0 
1092.068726 55.0 
1092.125488 26.0 
1092.153809 56.0 
1092.191772 30.0 
1092.229614 59.0 
1092.258057 20.0 
1092.276978 34.0 
1092.295898 27.0 
1092.324219 28.0 
1092.362183 36.0 
1092.400024 38.0 
1092.418945 60.0 
1092.466309 54.0 
1092.50415 42.0 
1092.532593 36.0 
1092.551514 24.0 
1092.570435 39.0 
1092.617798 35.0 
1092.646118 55.0 
1092.674561 49.0 
1092.740845 45.0 
1092.788208 24.0 
1092.807129 22.0 
1092.82605 34.0 
1092.854492 32.0 
1092.873413 35.0 
1092.911255 20.0 
1092.930176 30.0 
1092.949219 29.0 
1092.977539 36.0 
1092.99646 26.0 
1093.024902 38.0 
1093.110107 39.0 
1093.157471 47.0 
1093.195435 32.0 
1093.223755 29.0 
1093.242676 35.0 
1093.261719 36.0 
1093.290039 43.0 
1093.299561 43.0 
1093.328003 36.0 
1093.365845 34.0 
1093.384766 38.0 
1093.432129 54.0 
1093.479492 34.0 
1093.526855 30.0 
1093.564819 22.0 
1093.59314 29.0 
1093.621582 15.0 
1093.659546 55.0 
1093.697388 41.0 
1093.72583 34.0 
1093.744751 26.0 
1093.792114 43.0 
1093.829956 44.0 
1093.848999 28.0 
1093.886841 46.0 
1093.962646 43.0 
1094.000488 24.0 
1094.028931 17.0 
1094.057373 34.0 
1094.085815 48.0 
1094.123657 37.0 
1094.1521 43.0 
1094.171021 26.0 
1094.199463 25.0 
1094.218384 24.0 
1094.265869 37.0 
1094.28479 32.0 
1094.313232 30.0 
1094.351074 51.0 
1094.398438 33.0 
1094.464844 46.0 
1094.493286 27.0 
1094.512207 22.0 
1094.531128 29.0 
1094.550049 41.0 
1094.588013 48.0 
1094.635376 46.0 
1094.692261 40.0 
1094.730103 34.0 
1094.749146 45.0 
1094.805908 46.0 
1094.843872 29.0 
1094.862793 24.0 
1094.910278 32.0 
1094.94812 24.0 
1094.976562 21.0 
1095.014526 43.0 
1095.042969 21.0 
1095.080811 39.0 
1095.099731 20.0 
1095.137695 41.0 
1095.185059 38.0 
1095.204102 32.0 
1095.223022 41.0 
1095.251465 45.0 
1095.298828 27.0 
1095.355713 51.0 
1095.403076 43.0 
1095.422119 35.0 
1095.469482 37.0 
1095.497925 30.0 
1095.535889 39.0 
1095.564331 31.0 
1095.583252 26.0 
1095.602173 29.0 
1095.621216 31.0 
1095.659058 33.0 
1095.697021 33.0 
1095.725464 17.0 
1095.753906 31.0 
1095.782349 59.0 
1095.810791 27.0 
1095.848755 43.0 
1095.877197 41.0 
1095.896118 45.0 
1095.943604 32.0 
1095.972046 24.0 
1096.009888 23.0 
1096.028931 25.0 
1096.057373 34.0 
1096.114258 52.0 
1096.1427 30.0 
1096.180664 31.0 
1096.199585 40.0 
1096.237549 44.0 
1096.284912 24.0 
1096.303955 24.0 
1096.313354 24.0 
1096.341797 28.0 
1096.370361 46.0 
1096.427246 38.0 
1096.455688 43.0 
1096.474609 40.0 
1096.531494 36.0 
1096.578979 25.0 
1096.654907 58.0 
1096.721313 29.0 
1096.740234 23.0 
1096.759155 35.0 
1096.816162 44.0 
1096.844604 45.0 
1096.891968 27.0 
1096.92041 43.0 
1096.929932 43.0 
1096.977417 22.0 
1097.015381 36.0 
1097.072266 37.0 
1097.100708 28.0 
1097.12915 45.0 
1097.176636 37.0 
1097.205078 26.0 
1097.233521 32.0 
1097.271484 34.0 
1097.299927 28.0 
1097.366333 35.0 
1097.404297 33.0 
1097.432861 37.0 
1097.480225 37.0 
1097.508667 36.0 
1097.556152 50.0 
1097.622559 40.0 
1097.641602 39.0 
1097.670044 22.0 
1097.708008 28.0 
1097.745972 27.0 
1097.783936 29.0 
1097.802856 26.0 
1097.850342 25.0 
1097.869385 35.0 
1097.878784 35.0 
1097.92627 29.0 
1097.964233 52.0 
1098.03064 62.0 
1098.049683 31.0 
1098.068604 34.0 
1098.087646 23.0 
1098.12561 34.0 
1098.144531 39.0 
1098.192017 37.0 
1098.249023 54.0 
1098.286987 27.0 
1098.296509 27.0 
1098.334473 35.0 
1098.362915 21.0 
1098.372437 21.0 
1098.400879 25.0 
1098.429321 36.0 
1098.457886 27.0 
1098.476807 28.0 
1098.486328 28.0 
1098.514771 25.0 
1098.543335 32.0 
1098.581299 47.0 
1098.609741 15.0 
1098.657227 50.0 
1098.69519 37.0 
1098.714233 42.0 
1098.733154 38.0 
1098.752197 24.0 
1098.78064 55.0 
1098.818604 26.0 
1098.856567 19.0 
1098.885132 30.0 
1098.904053 39.0 
1098.951538 40.0 
1099.008545 44.0 
1099.046509 41.0 
1099.093994 29.0 
1099.131958 43.0 
1099.179443 42.0 
1099.226929 48.0 
1099.274414 53.0 
1099.359863 42.0 
1099.41687 24.0 
1099.473877 33.0 
1099.521362 52.0 
1099.568848 36.0 
1099.59729 26.0 
1099.654297 42.0 
1099.701782 31.0 
1099.730347 40.0 
1099.758789 21.0 
1099.796753 40.0 
1099.815796 36.0 
1099.863281 35.0 
1099.910767 31.0 
1099.92981 39.0 
1099.939331 39.0 
1099.977295 31.0 
1100.005737 28.0 
1100.034302 38.0 
1100.053345 37.0 
1100.072266 40.0 
1100.091309 31.0 
1100.110352 29.0 
1100.119751 29.0 
1100.176758 39.0 
1100.233765 27.0 
1100.252808 22.0 
1100.271851 28.0 
1100.319336 27.0 
1100.338379 16.0 
1100.376343 31.0 
1100.404785 19.0 
1100.43335 39.0 
1100.452393 25.0 
1100.471313 27.0 
1100.518799 33.0 
1100.537842 30.0 
1100.556885 27.0 
1100.585327 30.0 
1100.613892 27.0 
1100.623413 27.0 
1100.651855 28.0 
1100.68042 30.0 
1100.708862 18.0 
1100.718384 18.0 
1100.746948 30.0 
1100.775391 35.0 
1100.803955 35.0 
1100.841919 39.0 
1100.860962 31.0 
1100.898926 33.0 
1100.937012 33.0 
1100.965454 33.0 
1101.00354 31.0 
1101.022583 31.0 
1101.041504 22.0 
1101.051025 22.0 
1101.089111 19.0 
1101.098511 19.0 
1101.117554 22.0 
1101.136597 17.0 
1101.15564 23.0 
1101.203125 42.0 
1101.241089 43.0 
1101.269653 38.0 
1101.298218 45.0 
1101.32666 24.0 
1101.364746 39.0 
1101.421753 42.0 
1101.450317 34.0 
1101.47876 26.0 
1101.507324 42.0 
1101.535767 27.0 
1101.545288 27.0 
1101.583374 60.0 
1101.630859 36.0 
1101.678467 27.0 
1101.706909 19.0 
1101.735474 36.0 
1101.79248 39.0 
1101.811523 51.0 
1101.840088 45.0 
1101.859131 31.0 
1101.878052 37.0 
1101.906616 57.0 
1101.973145 40.0 
1102.001709 38.0 
1102.020752 30.0 
1102.039673 29.0 
1102.058716 46.0 
1102.08728 26.0 
1102.125366 43.0 
1102.182373 36.0 
1102.220459 42.0 
1102.267944 46.0 
1102.30603 41.0 
1102.334473 40.0 
1102.353516 29.0 
1102.372559 28.0 
1102.420166 31.0 
1102.45813 55.0 
1102.515259 60.0 
1102.543701 40.0 
1102.591309 44.0 
1102.629395 21.0 
1102.67688 48.0 
1102.705444 22.0 
1102.724487 32.0 
1102.753052 18.0 
1102.771973 15.0 
1102.810059 32.0 
1102.838623 24.0 
1102.867188 28.0 
1102.89563 21.0 
1102.933716 30.0 
1102.952759 29.0 
1102.990845 41.0 
1103.009888 30.0 
1103.03833 71.0 
1103.10498 31.0 
1103.124023 21.0 
1103.143066 32.0 
1103.162109 26.0 
1103.190552 30.0 
1103.228638 31.0 
1103.295288 39.0 
1103.314331 42.0 
1103.352295 27.0 
1103.390381 37.0 
1103.409424 41.0 
1103.457031 52.0 
1103.504517 62.0 
1103.561646 44.0 
1103.599731 54.0 
1103.685303 36.0 
1103.694824 36.0 
1103.742432 39.0 
1103.761475 36.0 
1103.780518 43.0 
1103.809082 36.0 
1103.837646 27.0 
1103.866211 28.0 
1103.894775 42.0 
1103.961304 41.0 
1103.989868 45.0 
1104.027954 47.0 
1104.075562 30.0 
1104.113647 35.0 
1104.180298 74.0 
1104.20874 31.0 
1104.218262 31.0 
1104.246826 58.0 
1104.265869 32.0 
1104.303955 38.0 
1104.39917 41.0 
1104.46582 26.0 
1104.494385 17.0 
1104.561035 34.0 
1104.599121 17.0 
1104.618164 16.0 
1104.637207 25.0 
1104.675293 50.0 
1104.703735 36.0 
1104.741821 34.0 
1104.760864 23.0 
1104.779907 27.0 
1104.79895 46.0 
1104.808472 46.0 
1104.846558 29.0 
1104.865601 19.0 
1104.903687 36.0 
1104.951294 31.0 
1104.979858 25.0 
1104.998901 27.0 
1105.017944 26.0 
1105.046509 40.0 
1105.075073 44.0 
1105.132202 53.0 
1105.160767 28.0 
1105.17981 33.0 
1105.198853 32.0 
1105.217896 28.0 
1105.24646 25.0 
1105.265503 33.0 
1105.313232 40.0 
1105.351318 42.0 
1105.417969 31.0 
1105.437012 39.0 
1105.465576 24.0 
1105.503662 28.0 
1105.522705 40.0 
1105.55127 23.0 
1105.560791 23.0 
1105.570312 23.0 
1105.589355 32.0 
1105.608398 25.0 
1105.646484 37.0 
1105.694092 47.0 
1105.713135 33.0 
1105.741699 38.0 
1105.79895 48.0 
1105.846558 21.0 
1105.884644 29.0 
1105.960815 33.0 
1105.979858 28.0 
1105.998901 25.0 
1106.036987 20.0 
1106.05603 46.0 
1106.075195 31.0 
1106.122803 51.0 
1106.17041 41.0 
1106.179932 41.0 
1106.227539 31.0 
1106.275146 36.0 
1106.313354 38.0 
1106.341919 47.0 
1106.360962 50.0 
1106.399048 32.0 
1106.446655 43.0 
1106.47522 39.0 
1106.494385 27.0 
1106.561035 48.0 
1106.5896 43.0 
1106.646729 31.0 
1106.694458 32.0 
1106.742065 36.0 
1106.77063 45.0 
1106.856445 34.0 
1106.875488 27.0 
1106.904053 33.0 
1106.923096 27.0 
1106.980347 49.0 
1107.027954 37.0 
1107.056519 48.0 
1107.085083 44.0 
1107.11377 36.0 
1107.132812 42.0 
1107.18042 22.0 
1107.199463 25.0 
1107.218628 29.0 
1107.247192 19.0 
1107.275757 39.0 
1107.332886 22.0 
1107.390137 50.0 
1107.437744 21.0 
1107.456909 22.0 
1107.485474 35.0 
1107.504517 36.0 
1107.571289 49.0 
1107.590332 30.0 
1107.618896 29.0 
1107.637939 18.0 
1107.656982 36.0 
1107.704712 86.0 
1107.733276 32.0 
1107.771484 80.0 
1107.80957 36.0 
1107.838135 33.0 
1107.866821 42.0 
1107.885864 32.0 
1107.92395 28.0 
1107.952637 54.0 
1107.990723 32.0 
1108.019287 49.0 
1108.047974 52.0 
1108.076538 60.0 
1108.124268 43.0 
1108.152832 39.0 
1108.181396 34.0 
1108.200439 51.0 
1108.248169 51.0 
1108.25769 51.0 
1108.286255 41.0 
1108.324463 58.0 
1108.343506 52.0 
1108.37207 27.0 
1108.410278 39.0 
1108.477051 47.0 
1108.496094 50.0 
1108.543823 33.0 
1108.591431 46.0 
1108.629639 27.0 
1108.648682 26.0 
1108.677246 32.0 
1108.724976 46.0 
1108.744019 30.0 
1108.763184 32.0 
1108.772705 32.0 
1108.810791 49.0 
1108.848999 31.0 
1108.887085 31.0 
1108.982544 63.0 
1109.030273 50.0 
1109.077881 28.0 
1109.106567 25.0 
1109.135132 31.0 
1109.144653 31.0 
1109.201904 40.0 
1109.268677 43.0 
1109.325928 35.0 
1109.373657 29.0 
1109.411743 47.0 
1109.44043 27.0 
1109.468994 36.0 
1109.497681 49.0 
1109.526245 24.0 
1109.564453 27.0 
1109.621704 29.0 
1109.640747 20.0 
1109.659912 24.0 
1109.678955 39.0 
1109.745728 33.0 
1109.764771 36.0 
1109.793457 43.0 
1109.831665 36.0 
1109.850708 45.0 
1109.869751 50.0 
1109.91748 33.0 
1109.96521 40.0 
1110.003418 38.0 
1110.031982 29.0 
1110.060669 48.0 
1110.089233 53.0 
1110.11792 26.0 
1110.146484 78.0 
1110.203857 58.0 
1110.251587 42.0 
1110.318359 40.0 
1110.337402 22.0 
1110.394653 41.0 
1110.42334 12.0 
1110.442383 20.0 
1110.490112 33.0 
1110.509277 28.0 
1110.537842 37.0 
1110.566528 30.0 
1110.614258 15.0 
1110.642822 38.0 
1110.68103 27.0 
1110.709717 26.0 
1110.72876 32.0 
1110.776489 26.0 
1110.814697 26.0 
1110.83374 27.0 
1110.843384 27.0 
1110.862427 29.0 
1110.88147 38.0 
1110.929321 36.0 
1110.948364 35.0 
1111.02478 64.0 
1111.07251 28.0 
1111.110718 35.0 
1111.158447 30.0 
1111.17749 23.0 
1111.215698 38.0 
1111.22522 38.0 
1111.263428 34.0 
1111.292114 36.0 
1111.339844 50.0 
1111.36853 56.0 
1111.454468 34.0 
1111.463989 34.0 
1111.52124 28.0 
1111.540405 27.0 
1111.559448 23.0 
1111.56897 23.0 
1111.597656 32.0 
1111.626343 24.0 
1111.654907 46.0 
1111.693115 28.0 
1111.721802 79.0 
1111.750488 42.0 
1111.769531 36.0 
1111.788696 38.0 
1111.807739 38.0 
1111.836426 18.0 
1111.865112 27.0 
1111.912842 29.0 
1111.931885 38.0 
1111.989258 49.0 
1112.027466 27.0 
1112.056152 40.0 
1112.122925 44.0 
1112.14209 52.0 
1112.199341 45.0 
1112.237549 41.0 
1112.266235 36.0 
1112.313965 59.0 
1112.361816 38.0 
1112.371338 38.0 
1112.390381 32.0 
1112.409546 37.0 
1112.428711 31.0 
1112.485962 48.0 
1112.543335 37.0 
1112.591064 28.0 
1112.610229 32.0 
1112.648438 50.0 
1112.696167 35.0 
1112.715332 22.0 
1112.734375 28.0 
1112.772583 25.0 
1112.791748 22.0 
1112.810791 26.0 
1112.829956 32.0 
1112.877686 38.0 
1112.896851 34.0 
1112.925537 49.0 
1112.963745 26.0 
1112.982788 31.0 
1113.020996 33.0 
1113.068848 30.0 
1113.107056 24.0 
1113.126221 33.0 
1113.193115 52.0 
1113.22168 32.0 
1113.250366 43.0 
1113.279053 44.0 
1113.317261 37.0 
1113.345947 33.0 
1113.384155 39.0 
1113.441528 20.0 
1113.470215 14.0 
1113.518066 51.0 
1113.556274 27.0 
1113.604004 19.0 
1113.642334 20.0 
1113.651855 20.0 
1113.709229 38.0 
1113.71875 38.0 
1113.747437 34.0 
1113.80481 44.0 
1113.833496 28.0 
1113.862183 30.0 
1113.900391 31.0 
1113.929077 22.0 
1113.957764 32.0 
1113.995972 26.0 
1114.03418 35.0 
1114.053345 38.0 
1114.091553 24.0 
1114.129883 37.0 
1114.148926 35.0 
1114.177612 44.0 
1114.196777 41.0 
1114.234985 46.0 
1114.273193 40.0 
1114.30188 28.0 
1114.330566 44.0 
1114.359253 39.0 
1114.416626 53.0 
1114.464478 67.0 
1114.521851 41.0 
1114.550537 32.0 
1114.579224 17.0 
1114.60791 33.0 
1114.646118 47.0 
1114.703491 44.0 
1114.741821 44.0 
1114.770508 43.0 
1114.827881 35.0 
1114.885254 41.0 
1114.904419 32.0 
1114.923462 21.0 
1114.952148 32.0 
1114.980835 27.0 
1115.0 25.0 
1115.047852 30.0 
1115.067017 21.0 
1115.114746 21.0 
1115.133911 26.0 
1115.162598 28.0 
1115.181763 18.0 
1115.200928 26.0 
1115.219971 24.0 
1115.239136 34.0 
1115.296509 18.0 
1115.334839 37.0 
1115.363525 24.0 
1115.392212 33.0 
1115.411377 40.0 
1115.440063 32.0 
1115.459106 33.0 
1115.478271 43.0 
1115.497437 42.0 
1115.506958 42.0 
1115.526123 24.0 
1115.545288 31.0 
1115.564453 35.0 
1115.602661 23.0 
1115.640991 34.0 
1115.669678 30.0 
1115.707886 31.0 
1115.765259 40.0 
1115.794067 34.0 
1115.81311 37.0 
1115.841919 36.0 
1115.889648 49.0 
1115.9375 28.0 
1115.956665 25.0 
1115.97583 30.0 
1115.994995 38.0 
1116.023682 25.0 
1116.052368 36.0 
1116.081055 27.0 
1116.090698 27.0 
1116.109741 28.0 
1116.148071 33.0 
1116.195923 33.0 
1116.272461 44.0 
1116.358643 48.0 
1116.406494 45.0 
1116.454346 49.0 
1116.511719 36.0 
1116.530884 32.0 
1116.55957 29.0 
1116.5979 41.0 
1116.645752 42.0 
1116.693604 42.0 
1116.712769 25.0 
1116.731812 28.0 
1116.76062 40.0 
1116.779785 30.0 
1116.798828 26.0 
1116.827637 39.0 
1116.856323 43.0 
1116.92334 37.0 
1116.971191 29.0 
1117.028564 51.0 
1117.08606 30.0 
1117.143555 40.0 
1117.172241 26.0 
1117.200928 31.0 
1117.229614 33.0 
1117.258423 31.0 
1117.296631 43.0 
1117.315796 39.0 
1117.354126 48.0 
1117.401978 44.0 
1117.440308 42.0 
1117.468994 29.0 
1117.488159 52.0 
1117.507324 40.0 
1117.545654 37.0 
1117.564819 36.0 
1117.593506 37.0 
1117.631836 31.0 
1117.651001 27.0 
1117.679688 30.0 
1117.708374 33.0 
1117.737183 20.0 
1117.765869 42.0 
1117.794556 36.0 
1117.823364 32.0 
1117.852051 31.0 
1117.899902 22.0 
1117.928711 23.0 
1117.947876 28.0 
1117.967041 21.0 
1118.005249 25.0 
1118.053223 41.0 
1118.072388 36.0 
1118.091553 37.0 
1118.129761 44.0 
1118.148926 39.0 
1118.206421 23.0 
1118.225586 23.0 
1118.235229 23.0 
1118.244751 23.0 
1118.273438 31.0 
1118.302246 29.0 
1118.330933 27.0 
1118.359741 36.0 
1118.397949 29.0 
1118.426758 46.0 
1118.455444 37.0 
1118.484253 31.0 
1118.532104 40.0 
1118.570435 29.0 
1118.5896 26.0 
1118.618286 13.0 
1118.647095 28.0 
1118.66626 18.0 
1118.70459 33.0 
1118.733276 43.0 
1118.78125 61.0 
1118.800415 51.0 
1118.867432 60.0 
1118.905762 64.0 
1118.944092 47.0 
1118.991943 35.0 
1119.001587 35.0 
1119.020752 37.0 
1119.039917 22.0 
1119.087769 30.0 
1119.135742 37.0 
1119.154907 41.0 
1119.202759 28.0 
1119.221924 34.0 
1119.260254 31.0 
1119.289062 22.0 
1119.308228 16.0 
1119.327393 17.0 
1119.356079 16.0 
1119.384888 48.0 
1119.442383 44.0 
1119.490234 40.0 
1119.538208 50.0 
1119.567017 32.0 
1119.605347 43.0 
1119.643677 40.0 
1119.672363 35.0 
1119.720337 33.0 
1119.749023 32.0 
1119.768188 36.0 
1119.777832 36.0 
1119.806519 18.0 
1119.825806 25.0 
1119.844971 42.0 
1119.883301 38.0 
1119.950317 47.0 
1120.017456 55.0 
1120.036621 40.0 
1120.074951 30.0 
1120.094116 32.0 
1120.122925 23.0 
1120.161255 19.0 
1120.209229 40.0 
1120.247559 31.0 
1120.276245 34.0 
1120.29541 33.0 
1120.343384 36.0 
1120.362549 32.0 
1120.381714 19.0 
1120.410522 31.0 
1120.429688 47.0 
1120.468018 48.0 
1120.515991 43.0 
1120.554321 17.0 
1120.573486 21.0 
1120.611816 38.0 
1120.640625 28.0 
1120.65979 31.0 
1120.688599 14.0 
1120.736572 42.0 
1120.774902 29.0 
1120.822876 34.0 
1120.880371 28.0 
1120.890015 28.0 
1120.918701 40.0 
1120.957031 40.0 
1120.98584 29.0 
1121.02417 36.0 
1121.052979 27.0 
1121.072144 25.0 
1121.110474 26.0 
1121.158447 39.0 
1121.187256 47.0 
1121.206421 34.0 
1121.216064 34.0 
1121.244751 55.0 
1121.292725 35.0 
1121.359863 34.0 
1121.388672 33.0 
1121.436646 39.0 
1121.455811 40.0 
1121.503784 33.0 
1121.542114 33.0 
1121.570923 21.0 
1121.618896 34.0 
1121.66687 55.0 
1121.714844 31.0 
1121.734009 36.0 
1121.762817 34.0 
1121.791626 32.0 
1121.829956 44.0 
1121.87793 35.0 
1121.897095 27.0 
1121.925903 28.0 
1121.964233 53.0 
1122.031372 36.0 
1122.050659 27.0 
1122.079346 34.0 
1122.117798 51.0 
1122.146606 23.0 
1122.175293 33.0 
1122.204102 37.0 
1122.23291 36.0 
1122.242554 36.0 
1122.280884 28.0 
1122.328857 52.0 
1122.357666 30.0 
1122.395996 52.0 
1122.44397 32.0 
1122.51123 47.0 
1122.549561 37.0 
1122.597534 35.0 
1122.616821 34.0 
1122.635986 33.0 
1122.664795 31.0 
1122.693604 28.0 
1122.731934 43.0 
1122.760742 25.0 
1122.799072 39.0 
1122.827881 21.0 
1122.866333 40.0 
1122.904663 35.0 
1122.96228 27.0 
1123.010254 39.0 
1123.058228 45.0 
1123.115845 23.0 
1123.125488 23.0 
1123.144653 24.0 
1123.173462 14.0 
1123.202271 23.0 
1123.259888 34.0 
1123.298218 26.0 
1123.346313 35.0 
1123.384644 20.0 
1123.432617 36.0 
1123.480713 41.0 
1123.509521 43.0 
1123.567139 40.0 
1123.605469 20.0 
1123.624756 22.0 
1123.672729 24.0 
1123.701538 37.0 
1123.749512 29.0 
1123.768677 23.0 
1123.807129 37.0 
1123.845581 29.0 
1123.87439 40.0 
1123.932007 47.0 
1123.970337 27.0 
1123.989624 26.0 
1124.027954 26.0 
1124.066406 22.0 
1124.085571 14.0 
1124.11438 21.0 
1124.143188 23.0 
1124.152832 23.0 
1124.200806 24.0 
1124.220093 17.0 
1124.239258 26.0 
1124.248901 26.0 
1124.27771 27.0 
1124.316162 43.0 
1124.354492 38.0 
1124.373779 42.0 
1124.421753 60.0 
1124.450562 38.0 
1124.489014 34.0 
1124.508179 32.0 
1124.585083 48.0 
1124.633057 39.0 
1124.661865 33.0 
1124.681152 37.0 
1124.719482 43.0 
1124.748291 23.0 
1124.767578 27.0 
1124.80603 17.0 
1124.84436 27.0 
1124.873169 30.0 
1124.911621 30.0 
1124.94043 24.0 
1124.969238 27.0 
1124.998169 32.0 
1125.026978 21.0 
1125.055786 22.0 
1125.084595 27.0 
1125.113403 25.0 
1125.132568 28.0 
1125.161499 26.0 
1125.199829 38.0 
1125.22876 50.0 
1125.276733 54.0 
1125.324829 51.0 
1125.39209 34.0 
1125.440063 22.0 
1125.459351 26.0 
1125.497803 29.0 
1125.516968 36.0 
1125.526611 36.0 
1125.545776 42.0 
1125.565063 47.0 
1125.603516 27.0 
1125.641846 39.0 
1125.661133 44.0 
1125.680298 40.0 
1125.71875 61.0 
1125.766846 41.0 
1125.84375 51.0 
1125.891724 29.0 
1125.920654 28.0 
1125.968628 37.0 
1125.997559 25.0 
1126.045532 35.0 
1126.083984 44.0 
1126.13208 21.0 
1126.151245 46.0 
1126.170532 34.0 
1126.199341 38.0 
1126.218628 40.0 
1126.25708 37.0 
1126.314697 34.0 
1126.353149 31.0 
1126.372437 20.0 
1126.401245 34.0 
1126.42041 44.0 
1126.449341 41.0 
1126.487793 34.0 
1126.526245 37.0 
1126.583862 28.0 
1126.612671 26.0 
1126.631958 33.0 
1126.651123 31.0 
1126.699219 54.0 
1126.737671 38.0 
1126.756958 37.0 
1126.79541 39.0 
1126.824219 34.0 
1126.853149 17.0 
1126.891602 37.0 
1126.968506 50.0 
1127.006958 50.0 
1127.04541 39.0 
1127.083862 30.0 
1127.112671 29.0 
1127.131958 30.0 
1127.180054 27.0 
1127.208862 31.0 
1127.228149 29.0 
1127.247314 30.0 
1127.276245 28.0 
1127.324341 40.0 
1127.343506 23.0 
1127.362793 26.0 
1127.381958 32.0 
1127.410889 38.0 
1127.439697 29.0 
1127.458984 37.0 
1127.497437 24.0 
1127.564697 47.0 
1127.603149 28.0 
1127.641724 42.0 
1127.660889 45.0 
1127.699341 32.0 
1127.737915 31.0 
1127.786011 38.0 
1127.805176 40.0 
1127.853271 53.0 
1127.891724 46.0 
1127.920654 41.0 
1127.939819 39.0 
1127.987915 37.0 
1128.036133 19.0 
1128.064941 36.0 
1128.09375 40.0 
1128.151489 54.0 
1128.18042 40.0 
1128.199585 25.0 
1128.218872 29.0 
1128.238159 23.0 
1128.30542 48.0 
1128.324707 28.0 
1128.363159 25.0 
1128.401611 36.0 
1128.459351 39.0 
1128.488281 30.0 
1128.546021 50.0 
1128.584473 17.0 
1128.60376 21.0 
1128.642212 45.0 
1128.661499 46.0 
1128.699951 32.0 
1128.728882 39.0 
1128.748047 39.0 
1128.796143 29.0 
1128.81543 33.0 
1128.873169 39.0 
1128.9021 38.0 
1128.911743 38.0 
1128.930908 23.0 
1128.969482 43.0 
1128.988647 38.0 
1129.027222 58.0 
1129.065674 26.0 
1129.094604 28.0 
1129.11377 29.0 
1129.1427 38.0 
1129.181152 28.0 
1129.200439 23.0 
1129.219727 26.0 
1129.238892 36.0 
1129.287109 28.0 
1129.306274 28.0 
1129.364014 40.0 
1129.421875 57.0 
1129.450684 30.0 
1129.489258 31.0 
1129.518066 20.0 
1129.52771 20.0 
1129.546997 24.0 
1129.575806 27.0 
1129.61438 31.0 
1129.633545 35.0 
1129.662476 39.0 
1129.70105 44.0 
1129.720215 41.0 
1129.777954 36.0 
1129.816528 32.0 
1129.85498 62.0 
1129.903198 26.0 
1129.932007 33.0 
1129.989868 47.0 
1130.037964 31.0 
1130.066895 28.0 
1130.095703 39.0 
1130.143921 59.0 
1130.172729 41.0 
1130.20166 33.0 
1130.220947 32.0 
1130.240234 33.0 
1130.269043 50.0 
1130.307617 31.0 
1130.365356 34.0 
1130.394287 20.0 
1130.423218 29.0 
1130.46167 13.0 
1130.480957 29.0 
1130.519409 31.0 
1130.54834 32.0 
1130.557983 32.0 
1130.577271 35.0 
1130.606201 38.0 
1130.644653 30.0 
1130.66394 33.0 
1130.712036 33.0 
1130.731323 35.0 
1130.779541 50.0 
1130.827637 40.0 
1130.885498 30.0 
1130.914307 30.0 
1130.92395 30.0 
1130.981812 45.0 
1131.010742 43.0 
1131.039551 45.0 
1131.107056 44.0 
1131.126343 31.0 
1131.145508 27.0 
1131.164795 26.0 
1131.203369 39.0 
1131.213013 39.0 
1131.2323 33.0 
1131.280396 51.0 
1131.299683 43.0 
1131.3479 24.0 
1131.367188 26.0 
1131.395996 37.0 
1131.43457 38.0 
1131.473145 32.0 
1131.492432 26.0 
1131.511719 25.0 
1131.540527 38.0 
1131.569458 41.0 
1131.588745 37.0 
1131.65625 56.0 
1131.685059 33.0 
1131.713989 47.0 
1131.723633 47.0 
1131.74292 46.0 
1131.781494 26.0 
1131.800781 35.0 
1131.810425 35.0 
1131.82959 30.0 
1131.858521 26.0 
1131.887451 31.0 
1131.954956 34.0 
1132.003052 46.0 
1132.031982 37.0 
1132.070557 37.0 
1132.099487 34.0 
1132.118774 40.0 
1132.128418 40.0 
1132.157349 54.0 
1132.224731 62.0 
1132.244019 29.0 
1132.272949 25.0 
1132.330811 52.0 
1132.359741 37.0 
1132.388672 35.0 
1132.41748 55.0 
1132.436768 51.0 
1132.456055 33.0 
1132.484985 32.0 
1132.504272 25.0 
1132.52356 38.0 
1132.533203 38.0 
1132.581421 30.0 
1132.591064 30.0 
1132.610352 26.0 
1132.629639 25.0 
1132.648926 17.0 
1132.697021 42.0 
1132.725952 35.0 
1132.783813 35.0 
1132.812744 41.0 
1132.832031 21.0 
1132.851318 37.0 
1132.860962 37.0 
1132.90918 38.0 
1132.93811 46.0 
1132.957397 46.0 
1132.995972 49.0 
1133.024902 43.0 
1133.063477 41.0 
1133.092407 40.0 
1133.130981 41.0 
1133.159912 34.0 
1133.169556 34.0 
1133.188721 35.0 
1133.208008 30.0 
1133.236938 29.0 
1133.275513 20.0 
1133.2948 28.0 
1133.343018 36.0 
1133.362305 30.0 
1133.391235 29.0 
1133.420166 15.0 
1133.449097 33.0 
1133.487671 28.0 
1133.506958 37.0 
1133.526245 37.0 
1133.574463 48.0 
1133.622681 47.0 
1133.670898 34.0 
1133.719116 41.0 
1133.776978 27.0 
1133.796265 46.0 
1133.854248 17.0 
1133.873535 18.0 
1133.892822 31.0 
1133.94104 30.0 
1133.969971 27.0 
1133.989258 26.0 
1134.008545 26.0 
1134.027832 42.0 
1134.085693 47.0 
1134.114624 36.0 
1134.143555 38.0 
1134.162842 25.0 
1134.182129 23.0 
1134.21106 41.0 
1134.259277 27.0 
1134.288208 36.0 
1134.355835 13.0 
1134.384766 33.0 
1134.413696 38.0 
1134.452271 25.0 
1134.481201 42.0 
1134.510132 36.0 
1134.539062 41.0 
1134.577637 24.0 
1134.606689 41.0 
1134.63562 35.0 
1134.654907 20.0 
1134.693481 47.0 
1134.722412 22.0 
1134.760986 32.0 
1134.789917 51.0 
1134.857544 34.0 
1134.896118 39.0 
1134.944336 53.0 
1134.963623 36.0 
1134.992554 47.0 
1135.040894 35.0 
1135.060181 36.0 
1135.098755 33.0 
1135.146973 34.0 
1135.185547 38.0 
1135.204956 57.0 
1135.24353 31.0 
1135.272461 43.0 
1135.301392 37.0 
1135.330322 26.0 
1135.349609 30.0 
1135.378662 30.0 
1135.417236 35.0 
1135.446167 26.0 
1135.475098 20.0 
1135.513794 41.0 
1135.542725 26.0 
1135.571655 20.0 
1135.610229 39.0 
1135.658569 36.0 
1135.706787 44.0 
1135.726074 35.0 
1135.774414 31.0 
1135.793701 37.0 
1135.832275 38.0 
1135.87085 29.0 
1135.890259 20.0 
1135.909546 22.0 
1135.938477 34.0 
1135.957764 42.0 
1135.99646 48.0 
1136.025391 53.0 
1136.063965 37.0 
1136.092896 47.0 
1136.121948 37.0 
1136.150879 21.0 
1136.189453 55.0 
1136.25708 47.0 
1136.276367 45.0 
1136.305298 29.0 
1136.343994 49.0 
1136.363281 37.0 
1136.382568 23.0 
1136.430908 43.0 
1136.459839 29.0 
1136.479126 19.0 
1136.508179 25.0 
1136.527466 35.0 
1136.546753 36.0 
1136.575684 31.0 
1136.61438 32.0 
1136.643311 27.0 
1136.662598 37.0 
1136.710938 27.0 
1136.730225 25.0 
1136.749512 24.0 
1136.768921 32.0 
1136.788208 23.0 
1136.807495 36.0 
1136.855835 43.0 
1136.904053 33.0 
1136.92334 50.0 
1136.97168 40.0 
1136.990967 26.0 
1137.029663 40.0 
1137.04895 46.0 
1137.068237 49.0 
1137.106934 27.0 
1137.155151 48.0 
1137.213135 38.0 
1137.261475 49.0 
1137.280762 41.0 
1137.300049 28.0 
1137.338745 20.0 
1137.377319 45.0 
1137.406372 39.0 
1137.444946 30.0 
1137.483643 27.0 
1137.531982 22.0 
1137.55127 24.0 
1137.599609 28.0 
1137.62854 38.0 
1137.657471 22.0 
1137.686523 25.0 
1137.763794 32.0 
1137.792725 14.0 
1137.841064 31.0 
1137.879761 35.0 
1137.918335 29.0 
1137.937744 43.0 
1137.976318 20.0 
1138.005371 30.0 
1138.034302 44.0 
1138.072998 32.0 
1138.092285 26.0 
1138.121338 30.0 
1138.140625 36.0 
1138.169678 37.0 
1138.198608 36.0 
1138.208252 36.0 
1138.227661 26.0 
1138.246948 27.0 
1138.295288 44.0 
1138.343506 41.0 
1138.362915 42.0 
1138.391846 29.0 
1138.440186 36.0 
1138.449829 36.0 
1138.488525 43.0 
1138.517578 43.0 
1138.536865 38.0 
1138.556152 47.0 
1138.575562 30.0 
1138.604492 39.0 
1138.652832 45.0 
1138.672119 36.0 
1138.701172 45.0 
1138.730225 31.0 
1138.768799 61.0 
1138.826782 30.0 
1138.846191 22.0 
1138.865479 29.0 
1138.904175 27.0 
1138.923462 25.0 
1138.952515 47.0 
1139.010498 21.0 
1139.049194 49.0 
1139.078125 38.0 
1139.155518 52.0 
1139.203857 56.0 
1139.223145 46.0 
1139.242554 47.0 
1139.261841 67.0 
1139.290894 26.0 
1139.310181 34.0 
1139.339233 24.0 
1139.348877 24.0 
1139.377808 17.0 
1139.416504 45.0 
1139.4552 36.0 
1139.484253 42.0 
1139.50354 41.0 
1139.55188 24.0 
1139.580933 36.0 
1139.619629 41.0 
1139.64856 30.0 
1139.706665 52.0 
1139.774292 36.0 
1139.793701 30.0 
1139.812988 37.0 
1139.832275 35.0 
1139.861328 54.0 
1139.929077 57.0 
1139.958008 44.0 
1140.006348 31.0 
1140.074097 48.0 
1140.103149 25.0 
1140.151489 39.0 
1140.228882 48.0 
1140.248169 45.0 
1140.267578 44.0 
1140.306274 39.0 
1140.335205 45.0 
1140.373901 30.0 
1140.393311 32.0 
1140.432007 32.0 
1140.451294 26.0 
1140.48999 42.0 
1140.509399 30.0 
1140.557739 32.0 
1140.596436 32.0 
1140.635132 47.0 
1140.702881 41.0 
1140.722168 35.0 
1140.760864 46.0 
1140.789917 35.0 
1140.81897 31.0 
1140.857666 32.0 
1140.906006 34.0 
1140.915649 34.0 
1140.983398 22.0 
1141.022095 34.0 
1141.051147 59.0 
1141.109131 26.0 
1141.12854 26.0 
1141.138184 26.0 
1141.157593 28.0 
1141.17688 28.0 
1141.215576 23.0 
1141.234985 31.0 
1141.312378 24.0 
1141.370483 35.0 
1141.428467 46.0 
1141.467163 26.0 
1141.476929 26.0 
1141.486572 26.0 
1141.515625 36.0 
1141.544678 32.0 
1141.554321 32.0 
1141.583374 38.0 
1141.612427 31.0 
1141.641357 46.0 
1141.689819 27.0 
1141.709106 43.0 
1141.776855 40.0 
1141.825317 23.0 
1141.834961 23.0 
1141.883423 47.0 
1141.90271 49.0 
1141.931763 44.0 
1141.960815 36.0 
1141.970459 36.0 
1141.989868 28.0 
1142.047974 23.0 
1142.08667 46.0 
1142.125366 12.0 
1142.164062 16.0 
1142.183472 28.0 
1142.202759 29.0 
1142.231812 39.0 
1142.280273 40.0 
1142.328613 38.0 
1142.367432 21.0 
1142.396484 21.0 
1142.415771 36.0 
1142.444824 36.0 
1142.473877 43.0 
1142.512573 52.0 
1142.561035 41.0 
1142.570679 41.0 
1142.628784 47.0 
1142.735352 66.0 
1142.774048 31.0 
1142.793457 37.0 
1142.822388 38.0 
1142.861206 33.0 
1142.909546 29.0 
1142.938599 21.0 
1142.967651 30.0 
1143.025757 53.0 
1143.093628 54.0 
1143.122681 26.0 
1143.141968 24.0 
1143.180786 39.0 
1143.19043 39.0 
1143.209839 35.0 
1143.238892 35.0 
1143.277588 31.0 
1143.306641 35.0 
1143.345337 35.0 
1143.384155 28.0 
1143.422852 30.0 
1143.432617 30.0 
1143.490723 27.0 
1143.529419 47.0 
1143.577881 39.0 
1143.616577 42.0 
1143.655396 54.0 
1143.713501 21.0 
1143.723145 21.0 
1143.761841 26.0 
1143.791016 38.0 
1143.820068 36.0 
1143.887817 40.0 
1143.907227 47.0 
1143.955688 43.0 
1143.994385 60.0 
1144.013794 57.0 
1144.042847 39.0 
1144.081543 25.0 
1144.110718 45.0 
1144.139771 33.0 
1144.159058 21.0 
1144.178467 31.0 
1144.197876 25.0 
1144.226929 42.0 
1144.275391 28.0 
1144.2948 25.0 
1144.314087 26.0 
1144.34314 32.0 
1144.362549 27.0 
1144.391602 27.0 
1144.411011 30.0 
1144.43042 28.0 
1144.478882 26.0 
1144.498291 26.0 
1144.517578 21.0 
1144.556396 17.0 
1144.56604 17.0 
1144.604858 34.0 
1144.633911 60.0 
1144.672607 43.0 
1144.701782 43.0 
1144.721069 55.0 
1144.769531 41.0 
1144.78894 27.0 
1144.817993 30.0 
1144.856812 50.0 
1144.885864 40.0 
1144.905273 28.0 
1144.924683 35.0 
1144.963379 33.0 
1144.992432 22.0 
1145.03125 51.0 
1145.070068 35.0 
1145.099121 41.0 
1145.11853 26.0 
1145.137817 25.0 
1145.157227 22.0 
1145.186401 39.0 
1145.234863 24.0 
1145.27356 48.0 
1145.292969 39.0 
1145.331787 27.0 
1145.370483 31.0 
1145.389893 42.0 
1145.44812 40.0 
1145.486816 29.0 
1145.506226 27.0 
1145.545044 39.0 
1145.564453 36.0 
1145.622559 38.0 
1145.671021 38.0 
1145.729248 43.0 
1145.758301 17.0 
1145.77771 22.0 
1145.797119 35.0 
1145.835815 31.0 
1145.884399 47.0 
1145.942505 36.0 
1145.97168 36.0 
1145.990967 28.0 
1146.049194 30.0 
1146.088013 49.0 
1146.117065 24.0 
1146.155884 22.0 
1146.184937 36.0 
1146.194702 36.0 
1146.243164 27.0 
1146.272217 38.0 
1146.281982 38.0 
1146.330444 28.0 
1146.349854 21.0 
1146.378906 29.0 
1146.427368 51.0 
1146.495239 30.0 
1146.534058 28.0 
1146.553467 25.0 
1146.592285 41.0 
1146.611694 43.0 
1146.631104 38.0 
1146.660156 33.0 
1146.698975 38.0 
1146.728027 33.0 
1146.747437 27.0 
1146.776611 25.0 
1146.844482 47.0 
1146.863892 40.0 
1146.892944 35.0 
1146.931763 41.0 
1147.028809 32.0 
1147.067627 29.0 
1147.106323 27.0 
1147.135498 23.0 
1147.164551 30.0 
1147.193726 44.0 
1147.232544 35.0 
1147.261597 39.0 
1147.281006 31.0 
1147.310059 25.0 
1147.319824 25.0 
1147.358643 45.0 
1147.426514 48.0 
1147.465332 30.0 
1147.494507 45.0 
1147.50415 45.0 
1147.52356 28.0 
1147.562378 31.0 
1147.581787 15.0 
1147.610962 25.0 
1147.630249 28.0 
1147.649658 30.0 
1147.698242 52.0 
1147.766113 49.0 
1147.785522 54.0 
1147.863159 46.0 
1147.921387 40.0 
1147.979614 28.0 
1148.028198 31.0 
1148.07666 26.0 
1148.105835 25.0 
1148.125244 32.0 
1148.154297 29.0 
1148.193237 33.0 
1148.212646 34.0 
1148.251465 34.0 
1148.290283 20.0 
1148.329102 21.0 
1148.338745 21.0 
1148.358154 22.0 
1148.36792 22.0 
1148.406738 45.0 
1148.445557 36.0 
1148.474609 46.0 
1148.494019 36.0 
1148.51355 38.0 
1148.532959 27.0 
1148.562012 31.0 
1148.581421 39.0 
1148.610596 39.0 
1148.659058 48.0 
1148.717407 33.0 
1148.74646 27.0 
1148.775635 44.0 
1148.804688 35.0 
1148.824097 27.0 
1148.843506 20.0 
1148.872681 46.0 
1148.89209 45.0 
1148.969727 44.0 
1149.008667 28.0 
1149.03772 29.0 
1149.057129 19.0 
1149.086304 48.0 
1149.125122 24.0 
1149.154297 25.0 
1149.18335 20.0 
1149.212524 24.0 
1149.241699 40.0 
1149.270752 46.0 
1149.30957 46.0 
1149.338745 36.0 
1149.377563 35.0 
1149.396973 39.0 
1149.435913 24.0 
1149.455322 31.0 
1149.484375 39.0 
1149.494141 39.0 
1149.51355 27.0 
1149.523315 27.0 
1149.591187 56.0 
1149.639771 33.0 
1149.668945 63.0 
1149.69812 52.0 
1149.736938 28.0 
1149.756348 53.0 
1149.785522 29.0 
1149.795166 29.0 
1149.824341 26.0 
1149.84375 29.0 
1149.863159 31.0 
1149.892334 41.0 
1149.911743 31.0 
1149.950562 52.0 
1149.999146 48.0 
1150.018555 51.0 
1150.057495 42.0 
1150.086548 37.0 
1150.115723 32.0 
1150.164307 31.0 
1150.193481 40.0 
1150.222534 19.0 
1150.261475 23.0 
1150.280884 18.0 
1150.310059 32.0 
1150.329468 38.0 
1150.339111 38.0 
1150.397461 41.0 
1150.426636 30.0 
1150.446045 27.0 
1150.465454 26.0 
1150.484863 35.0 
1150.504272 22.0 
1150.533447 23.0 
1150.562622 34.0 
1150.591797 25.0 
1150.620972 22.0 
1150.650024 35.0 
1150.669556 25.0 
1150.688965 28.0 
1150.737549 41.0 
1150.766724 43.0 
1150.795776 32.0 
1150.815308 47.0 
1150.883301 43.0 
1150.90271 35.0 
1150.970703 37.0 
1150.999878 21.0 
1151.029053 30.0 
1151.067871 34.0 
1151.077637 34.0 
1151.106812 38.0 
1151.126221 43.0 
1151.14563 28.0 
1151.174805 36.0 
1151.242798 40.0 
1151.262207 35.0 
1151.291382 13.0 
1151.301147 13.0 
1151.330322 31.0 
1151.349731 22.0 
1151.398315 28.0 
1151.456665 37.0 
1151.515015 29.0 
1151.553833 23.0 
1151.583008 39.0 
1151.651001 42.0 
1151.680176 24.0 
1151.699707 23.0 
1151.72876 41.0 
1151.748291 18.0 
1151.787109 42.0 
1151.806641 41.0 
1151.835693 27.0 
1151.864868 31.0 
1151.894043 26.0 
1151.952393 47.0 
1152.010742 29.0 
1152.030151 32.0 
1152.049683 33.0 
1152.069092 27.0 
1152.098267 39.0 
1152.117676 40.0 
1152.146851 31.0 
1152.176025 30.0 
1152.185791 30.0 
1152.2052 41.0 
1152.253784 34.0 
1152.273193 27.0 
1152.321899 33.0 
1152.370483 38.0 
1152.428833 33.0 
1152.458008 19.0 
1152.487183 30.0 
1152.516357 46.0 
1152.574707 23.0 
1152.613525 43.0 
1152.671875 41.0 
1152.70105 26.0 
1152.749756 43.0 
1152.778931 35.0 
1152.79834 48.0 
1152.876099 23.0 
1152.915039 49.0 
1152.983154 63.0 
1153.002563 49.0 
1153.031738 37.0 
1153.05127 54.0 
1153.099854 44.0 
1153.138794 29.0 
1153.167969 33.0 
1153.197144 49.0 
1153.245728 44.0 
1153.284668 30.0 
1153.313843 31.0 
1153.333252 27.0 
1153.381958 32.0 
1153.411133 30.0 
1153.488892 47.0 
1153.537598 47.0 
1153.586182 22.0 
1153.625122 31.0 
1153.673828 26.0 
1153.712646 43.0 
1153.761353 34.0 
1153.810059 40.0 
1153.858643 54.0 
1153.897583 53.0 
1153.926758 36.0 
1153.946167 40.0 
1154.024048 41.0 
1154.072754 32.0 
1154.111694 43.0 
1154.170044 34.0 
1154.199219 38.0 
1154.238159 64.0 
1154.267334 48.0 
1154.306274 42.0 
1154.37439 34.0 
1154.393799 23.0 
1154.432739 36.0 
1154.481445 34.0 
1154.491211 34.0 
1154.520386 34.0 
1154.56897 49.0 
1154.627441 30.0 
1154.656616 22.0 
1154.676147 20.0 
1154.695557 23.0 
1154.714966 23.0 
1154.753906 33.0 
1154.792847 57.0 
1154.851318 42.0 
1154.870728 19.0 
1154.900024 33.0 
1154.919434 16.0 
1154.948608 30.0 
1154.958374 30.0 
1155.00708 23.0 
1155.06543 58.0 
1155.094604 36.0 
1155.123901 39.0 
1155.172485 35.0 
1155.201782 29.0 
1155.221191 38.0 
1155.269897 38.0 
1155.318604 25.0 
1155.347778 26.0 
1155.36731 24.0 
1155.415894 58.0 
1155.454834 126.0 
1155.493774 25.0 
1155.523071 136.0 
1155.562012 51.0 
1155.581421 78.0 
1155.620361 39.0 
1155.639893 31.0 
1155.659302 32.0 
1155.678833 21.0 
1155.698242 19.0 
1155.737305 36.0 
1155.756714 40.0 
1155.80542 43.0 
1155.824951 46.0 
1155.873535 34.0 
1155.912476 38.0 
1155.941772 27.0 
1155.970947 33.0 
1155.990479 30.0 
1156.000122 30.0 
1156.029419 28.0 
1156.078125 31.0 
1156.117065 29.0 
1156.126831 29.0 
1156.14624 26.0 
1156.175537 42.0 
1156.204712 27.0 
1156.224243 35.0 
1156.243652 28.0 
1156.272827 31.0 
1156.292358 39.0 
1156.31189 31.0 
1156.360596 43.0 
1156.389771 44.0 
1156.409302 43.0 
1156.467651 46.0 
1156.506714 22.0 
1156.535889 21.0 
1156.565063 33.0 
1156.662476 38.0 
1156.701538 25.0 
1156.720947 28.0 
1156.769653 31.0 
1156.837891 33.0 
1156.876831 43.0 
1156.925537 26.0 
1156.935303 26.0 
1156.974243 36.0 
1157.00354 33.0 
1157.032715 37.0 
1157.071655 43.0 
1157.091187 44.0 
1157.139893 48.0 
1157.178833 28.0 
1157.227539 25.0 
1157.24707 27.0 
1157.276367 31.0 
1157.315308 30.0 
1157.364014 30.0 
1157.383545 25.0 
1157.432251 28.0 
1157.471191 36.0 
1157.490723 33.0 
1157.529663 33.0 
1157.55896 45.0 
1157.578369 43.0 
1157.617432 34.0 
1157.636841 39.0 
1157.695312 36.0 
1157.734375 49.0 
1157.76355 47.0 
1157.792847 39.0 
1157.822021 40.0 
1157.861084 33.0 
1157.890259 27.0 
1157.919556 37.0 
1157.938965 39.0 
1157.978027 29.0 
1158.007202 25.0 
1158.046265 25.0 
1158.075439 26.0 
1158.114502 25.0 
1158.143677 14.0 
1158.202148 41.0 
1158.241211 31.0 
1158.270386 15.0 
1158.319214 27.0 
1158.358154 50.0 
1158.377686 38.0 
1158.465454 39.0 
1158.51416 31.0 
1158.562866 41.0 
1158.601929 24.0 
1158.6604 36.0 
1158.689697 31.0 
1158.718872 29.0 
1158.738403 40.0 
1158.796875 31.0 
1158.855347 25.0 
1158.904175 34.0 
1158.923706 29.0 
1158.93335 29.0 
1158.962646 30.0 
1158.982178 28.0 
1159.030884 41.0 
1159.050415 31.0 
1159.079712 48.0 
1159.089478 48.0 
1159.128418 44.0 
1159.16748 28.0 
1159.216187 31.0 
1159.235718 32.0 
1159.265015 33.0 
1159.284424 31.0 
1159.313721 18.0 
1159.333252 23.0 
1159.372192 34.0 
1159.430786 36.0 
1159.460083 22.0 
1159.508789 23.0 
1159.538086 45.0 
1159.567261 35.0 
1159.577026 35.0 
1159.606323 50.0 
1159.655151 36.0 
1159.674561 37.0 
1159.713623 28.0 
1159.74292 22.0 
1159.772217 16.0 
1159.791626 22.0 
1159.820923 35.0 
1159.840454 39.0 
1159.879517 60.0 
1159.908691 56.0 
1159.947754 35.0 
1159.977051 26.0 
1159.996582 24.0 
1160.025757 36.0 
1160.064819 25.0 
1160.084351 28.0 
1160.103882 32.0 
1160.123291 30.0 
1160.181885 31.0 
1160.19165 31.0 
1160.220947 40.0 
1160.250122 22.0 
1160.269653 30.0 
1160.29895 25.0 
1160.328247 38.0 
1160.386841 44.0 
1160.445312 33.0 
1160.474609 26.0 
1160.513672 30.0 
1160.552612 38.0 
1160.591675 34.0 
1160.611206 33.0 
1160.640503 38.0 
1160.660034 37.0 
1160.679565 40.0 
1160.698975 32.0 
1160.757568 70.0 
1160.806396 43.0 
1160.825928 37.0 
1160.86499 34.0 
1160.894165 25.0 
1160.923462 27.0 
1160.962524 55.0 
1161.001587 24.0 
1161.040649 29.0 
1161.07959 40.0 
1161.099121 41.0 
1161.138184 51.0 
1161.206543 61.0 
1161.245605 25.0 
1161.274902 43.0 
1161.304199 36.0 
1161.333374 25.0 
1161.352905 22.0 
1161.362671 22.0 
1161.382202 26.0 
1161.421265 43.0 
1161.440796 32.0 
1161.479858 51.0 
1161.528687 32.0 
1161.567749 39.0 
1161.606812 43.0 
1161.635986 29.0 
1161.665283 35.0 
1161.69458 25.0 
1161.723877 30.0 
1161.743408 27.0 
1161.762939 25.0 
1161.782471 24.0 
1161.821533 32.0 
1161.841064 35.0 
1161.880127 52.0 
1161.909424 31.0 
1161.928955 25.0 
1161.938721 25.0 
1161.968018 43.0 
1162.016846 36.0 
1162.036377 44.0 
1162.104736 44.0 
1162.143799 36.0 
1162.173096 30.0 
1162.231567 30.0 
1162.27063 31.0 
1162.299927 35.0 
1162.338989 31.0 
1162.368286 25.0 
1162.397583 28.0 
1162.436646 50.0 
1162.505005 41.0 
1162.553955 18.0 
1162.593018 45.0 
1162.602783 45.0 
1162.63208 24.0 
1162.651611 36.0 
1162.671143 33.0 
1162.739502 29.0 
1162.768799 22.0 
1162.778564 22.0 
1162.798096 19.0 
1162.846924 37.0 
1162.876221 35.0 
1162.905518 35.0 
1162.934814 35.0 
1162.964111 35.0 
1162.993408 33.0 
1163.022705 19.0 
1163.061768 29.0 
1163.120361 39.0 
1163.159546 36.0 
1163.208374 54.0 
1163.227905 55.0 
1163.247437 30.0 
1163.276733 54.0 
1163.315796 28.0 
1163.345093 30.0 
1163.37439 23.0 
1163.413452 21.0 
1163.452515 26.0 
1163.501465 35.0 
1163.540527 45.0 
1163.569824 21.0 
1163.599121 51.0 
1163.687012 51.0 
1163.726196 35.0 
1163.745728 48.0 
1163.78479 57.0 
1163.833618 32.0 
1163.862915 30.0 
1163.892212 40.0 
1163.950928 34.0 
1163.980225 22.0 
1163.999756 31.0 
1164.029053 29.0 
1164.068115 16.0 
1164.097534 36.0 
1164.136597 35.0 
1164.165894 36.0 
1164.185425 47.0 
1164.204956 39.0 
1164.253906 28.0 
1164.302734 33.0 
1164.341797 29.0 
1164.380859 30.0 
1164.410278 46.0 
1164.459106 30.0 
1164.498169 40.0 
1164.5177 36.0 
1164.56665 29.0 
1164.586182 36.0 
1164.63501 37.0 
1164.664429 43.0 
1164.703491 46.0 
1164.781738 64.0 
1164.820801 36.0 
1164.840332 36.0 
1164.869629 27.0 
1164.918579 49.0 
1164.957642 18.0 
1164.977173 19.0 
1165.006592 37.0 
1165.05542 29.0 
1165.074951 39.0 
1165.084717 39.0 
1165.133667 46.0 
1165.172729 37.0 
1165.192261 32.0 
1165.231445 43.0 
1165.280273 54.0 
1165.299805 57.0 
1165.368286 40.0 
1165.427002 21.0 
1165.456299 40.0 
1165.485596 35.0 
1165.515015 35.0 
1165.544312 40.0 
1165.563843 46.0 
1165.622559 44.0 
1165.681274 57.0 
1165.749634 29.0 
1165.779053 37.0 
1165.798584 31.0 
1165.847534 21.0 
1165.867065 25.0 
1165.896362 32.0 
1165.955078 24.0 
1165.984375 44.0 
1166.052856 31.0 
1166.072388 40.0 
1166.101807 24.0 
1166.131104 33.0 
1166.189819 34.0 
1166.219116 19.0 
1166.258301 29.0 
1166.287598 34.0 
1166.317017 28.0 
1166.346313 40.0 
1166.385498 41.0 
1166.444092 37.0 
1166.463745 40.0 
1166.502808 47.0 
1166.532227 39.0 
1166.551758 43.0 
1166.590942 19.0 
1166.649536 44.0 
1166.688721 26.0 
1166.718018 32.0 
1166.747437 51.0 
1166.815918 37.0 
1166.835449 31.0 
1166.864868 35.0 
1166.923584 49.0 
1166.943115 35.0 
1166.992065 33.0 
1167.011597 34.0 
1167.041016 16.0 
1167.080078 32.0 
1167.129028 36.0 
1167.158447 35.0 
1167.187744 31.0 
1167.24646 30.0 
1167.285645 26.0 
1167.314941 40.0 
1167.34436 31.0 
1167.354126 31.0 
1167.383423 51.0 
1167.412842 44.0 
1167.432373 30.0 
1167.481323 47.0 
1167.491089 47.0 
1167.540039 32.0 
1167.559692 33.0 
1167.579224 34.0 
1167.608521 35.0 
1167.647705 26.0 
1167.667236 38.0 
1167.716187 59.0 
1167.755371 34.0 
1167.78479 35.0 
1167.814087 48.0 
1167.853271 44.0 
1167.88269 39.0 
1167.951172 53.0 
1167.980469 22.0 
1168.000122 32.0 
1168.029419 43.0 
1168.068604 42.0 
1168.098022 27.0 
1168.117554 26.0 
1168.146973 55.0 
1168.186157 31.0 
1168.205688 47.0 
1168.264404 38.0 
1168.32312 35.0 
1168.352539 27.0 
1168.381958 30.0 
1168.421021 33.0 
1168.440674 29.0 
1168.470093 34.0 
1168.479858 34.0 
1168.509155 50.0 
1168.567993 34.0 
1168.607056 26.0 
1168.636475 50.0 
1168.656128 34.0 
1168.675659 39.0 
1168.69519 37.0 
1168.734375 32.0 
1168.763794 42.0 
1168.82251 32.0 
1168.87146 51.0 
1168.92041 37.0 
1168.930298 37.0 
1168.969482 42.0 
1169.008667 30.0 
1169.037964 39.0 
1169.086914 37.0 
1169.106567 30.0 
1169.135864 45.0 
1169.155518 33.0 
1169.204468 54.0 
1169.224121 56.0 
1169.273071 29.0 
1169.292603 34.0 
1169.331787 46.0 
1169.35144 40.0 
1169.380737 39.0 
1169.439575 35.0 
1169.47876 18.0 
1169.508179 33.0 
1169.52771 21.0 
1169.547363 30.0 
1169.586548 19.0 
1169.625732 29.0 
1169.655029 29.0 
1169.674683 32.0 
1169.704102 44.0 
1169.723633 42.0 
1169.772583 33.0 
1169.811768 41.0 
1169.86084 29.0 
1169.880371 36.0 
1169.90979 48.0 
1169.939209 24.0 
1169.988159 43.0 
1170.027344 43.0 
1170.056763 55.0 
1170.086182 33.0 
1170.125366 43.0 
1170.174316 31.0 
1170.233154 45.0 
1170.272339 32.0 
1170.301636 26.0 
1170.340942 42.0 
1170.389893 38.0 
1170.409424 47.0 
1170.429077 25.0 
1170.44873 25.0 
1170.487915 25.0 
1170.5271 35.0 
1170.566284 36.0 
1170.615234 16.0 
1170.634888 26.0 
1170.664307 23.0 
1170.703491 37.0 
1170.752441 24.0 
1170.772095 29.0 
1170.811279 44.0 
1170.821045 44.0 
1170.850464 37.0 
1170.889648 29.0 
1170.919067 40.0 
1170.948486 38.0 
1170.987671 42.0 
1171.007324 30.0 
1171.046509 51.0 
1171.066162 40.0 
1171.085693 32.0 
1171.144531 52.0 
1171.17395 34.0 
1171.213135 48.0 
1171.242554 39.0 
1171.262207 38.0 
1171.301392 17.0 
1171.321045 18.0 
1171.350342 34.0 
1171.389648 39.0 
1171.438599 36.0 
1171.468018 26.0 
1171.507202 33.0 
1171.556274 48.0 
1171.615112 33.0 
1171.634766 30.0 
1171.654297 29.0 
1171.693481 32.0 
1171.752319 56.0 
1171.781738 26.0 
1171.801392 32.0 
1171.830811 35.0 
1171.899414 42.0 
1171.987671 45.0 
1172.01709 38.0 
1172.075928 44.0 
1172.125 48.0 
1172.164185 27.0 
1172.193604 18.0 
1172.242676 27.0 
1172.272095 29.0 
1172.28186 29.0 
1172.301514 18.0 
1172.321167 19.0 
1172.350586 24.0 
1172.370117 28.0 
1172.428955 24.0 
1172.448608 34.0 
1172.507446 17.0 
1172.536865 29.0 
1172.595703 20.0 
1172.625122 25.0 
1172.674194 22.0 
1172.713501 17.0 
1172.74292 24.0 
1172.772339 31.0 
1172.831177 30.0 
1172.870361 47.0 
1172.909668 43.0 
1172.968506 34.0 
1173.00769 35.0 
1173.027344 31.0 
1173.056763 37.0 
1173.086182 42.0 
1173.125488 35.0 
1173.14502 33.0 
1173.184326 25.0 
1173.233398 26.0 
1173.262817 33.0 
1173.31189 43.0 
1173.370728 53.0 
1173.429565 34.0 
1173.458984 36.0 
1173.478638 42.0 
1173.498291 40.0 
1173.52771 45.0 
1173.596436 11.0 
1173.63562 22.0 
1173.655273 23.0 
1173.69458 35.0 
1173.704346 35.0 
1173.753418 55.0 
1173.792725 20.0 
1173.812256 11.0 
1173.841797 22.0 
1173.861328 27.0 
1173.890869 37.0 
1173.949707 27.0 
1173.979126 41.0 
1173.998779 37.0 
1174.037964 16.0 
1174.057617 18.0 
1174.077271 23.0 
1174.096924 19.0 
1174.136108 41.0 
1174.165649 26.0 
1174.214722 40.0 
1174.234375 33.0 
1174.27356 25.0 
1174.312866 31.0 
1174.33252 28.0 
1174.361938 15.0 
1174.401245 33.0 
1174.420776 29.0 
1174.469849 23.0 
1174.479736 23.0 
1174.528809 42.0 
1174.577881 46.0 
1174.626953 42.0 
1174.66626 34.0 
1174.734985 58.0 
1174.793823 42.0 
1174.813477 30.0 
1174.83313 34.0 
1174.862549 40.0 
1174.89209 33.0 
1174.921509 28.0 
1174.941162 28.0 
1174.960815 24.0 
1174.980347 29.0 
1175.029541 53.0 
1175.078613 34.0 
1175.088379 34.0 
1175.127686 48.0 
1175.147339 26.0 
1175.196411 27.0 
1175.216064 29.0 
1175.245483 31.0 
1175.275024 36.0 
1175.34375 41.0 
1175.373169 23.0 
1175.382935 23.0 
1175.412476 38.0 
1175.451782 14.0 
1175.481201 28.0 
1175.500854 42.0 
1175.530273 25.0 
1175.559814 39.0 
1175.589233 31.0 
1175.608887 39.0 
1175.62854 44.0 
1175.667725 31.0 
1175.677612 31.0 
1175.697266 30.0 
1175.716919 37.0 
1175.736572 47.0 
1175.765991 32.0 
1175.785645 44.0 
1175.815063 40.0 
1175.874023 57.0 
1175.903564 48.0 
1175.952637 32.0 
1175.962402 32.0 
1175.982056 36.0 
1176.021362 38.0 
1176.050903 28.0 
1176.070435 28.0 
1176.119629 28.0 
1176.139282 33.0 
1176.198242 35.0 
1176.247314 27.0 
1176.276733 23.0 
1176.325928 31.0 
1176.375 41.0 
1176.424194 49.0 
1176.453613 26.0 
1176.49292 45.0 
1176.512573 31.0 
1176.561646 41.0 
1176.600952 44.0 
1176.650146 36.0 
1176.6698 29.0 
1176.689453 46.0 
1176.718872 43.0 
1176.768066 23.0 
1176.777832 23.0 
1176.817139 31.0 
1176.84668 43.0 
1176.885986 35.0 
1176.90564 35.0 
1176.935059 39.0 
1176.944946 39.0 
1176.994019 35.0 
1177.052979 34.0 
1177.092285 43.0 
1177.111938 42.0 
1177.161133 44.0 
1177.200439 38.0 
1177.220093 38.0 
1177.249512 25.0 
1177.279053 23.0 
1177.288818 23.0 
1177.318359 42.0 
1177.347778 27.0 
1177.387085 36.0 
1177.406738 58.0 
1177.446045 49.0 
1177.475586 24.0 
1177.505127 37.0 
1177.534546 21.0 
1177.554199 25.0 
1177.58374 22.0 
1177.603394 30.0 
1177.652466 32.0 
1177.70166 22.0 
1177.76062 44.0 
1177.790161 31.0 
1177.829468 38.0 
1177.858887 38.0 
1177.878662 37.0 
1177.917969 18.0 
1177.937622 27.0 
1177.976929 29.0 
1178.016235 40.0 
1178.035889 45.0 
1178.06543 32.0 
1178.104736 43.0 
1178.12439 48.0 
1178.144043 30.0 
1178.173584 35.0 
1178.203003 50.0 
1178.24231 43.0 
1178.281738 22.0 
1178.301392 36.0 
1178.340698 33.0 
1178.370239 33.0 
1178.429199 31.0 
1178.448853 28.0 
1178.458618 28.0 
1178.478394 25.0 
1178.507812 17.0 
1178.5177 17.0 
1178.547119 34.0 
1178.586548 44.0 
1178.596313 44.0 
1178.645508 35.0 
1178.704468 30.0 
1178.724121 31.0 
1178.734009 31.0 
1178.783203 38.0 
1178.812744 30.0 
1178.82251 30.0 
1178.842163 31.0 
1178.88147 35.0 
1178.940552 47.0 
1178.960205 39.0 
1178.979858 33.0 
1179.019165 26.0 
1179.048706 41.0 
1179.088013 31.0 
1179.117554 28.0 
1179.147095 20.0 
1179.176636 30.0 
1179.196289 31.0 
1179.255249 29.0 
1179.28479 47.0 
1179.314331 26.0 
1179.353638 48.0 
1179.383179 60.0 
1179.422485 28.0 
1179.442139 37.0 
1179.510986 29.0 
1179.530762 26.0 
1179.550415 23.0 
1179.589722 32.0 
1179.638916 29.0 
1179.658569 30.0 
1179.697998 44.0 
1179.756958 52.0 
1179.835693 36.0 
1179.894775 27.0 
1179.924194 28.0 
1179.953735 34.0 
1179.983276 22.0 
1180.00293 17.0 
1180.032471 18.0 
1180.052124 16.0 
1180.071777 14.0 
1180.130859 31.0 
1180.180054 30.0 
1180.209595 24.0 
1180.239136 32.0 
1180.278442 31.0 
1180.307983 26.0 
1180.34729 29.0 
1180.367065 21.0 
1180.386719 28.0 
1180.455566 41.0 
1180.524536 29.0 
1180.563843 33.0 
1180.593384 33.0 
1180.613037 32.0 
1180.662231 60.0 
1180.711548 59.0 
1180.790283 43.0 
1180.82959 37.0 
1180.849243 35.0 
1180.888672 48.0 
1180.947754 48.0 
1180.987061 44.0 
1181.006836 32.0 
1181.046143 68.0 
1181.085571 32.0 
1181.144531 65.0 
1181.174072 36.0 
1181.203613 33.0 
1181.243042 27.0 
1181.272583 26.0 
1181.292236 38.0 
1181.361206 67.0 
1181.380859 35.0 
1181.420288 46.0 
1181.449829 57.0 
1181.47937 39.0 
1181.499023 37.0 
1181.567871 41.0 
1181.6073 18.0 
1181.636841 28.0 
1181.666382 47.0 
1181.705811 35.0 
1181.745117 49.0 
1181.764893 36.0 
1181.814087 36.0 
1181.843628 41.0 
1181.863281 46.0 
1181.932251 55.0 
1181.97168 35.0 
1182.001221 36.0 
1182.020874 36.0 
1182.070068 29.0 
1182.089844 33.0 
1182.12915 49.0 
1182.168579 58.0 
1182.227661 34.0 
1182.26709 42.0 
1182.296631 23.0 
1182.33606 27.0 
1182.355713 39.0 
1182.414795 24.0 
1182.444336 24.0 
1182.464111 27.0 
1182.483765 28.0 
1182.513306 12.0 
1182.542847 21.0 
1182.582275 24.0 
1182.621704 20.0 
1182.641357 29.0 
1182.670898 38.0 
1182.710327 24.0 
1182.72998 18.0 
1182.769409 27.0 
1182.79895 20.0 
1182.828491 35.0 
1182.848267 22.0 
1182.877808 40.0 
1182.897461 37.0 
1182.927002 39.0 
1182.976318 24.0 
1183.005859 34.0 
1183.064941 21.0 
1183.084717 22.0 
1183.114258 28.0 
1183.133911 26.0 
1183.17334 51.0 
1183.202881 42.0 
1183.24231 38.0 
1183.261963 44.0 
1183.301392 29.0 
1183.311279 29.0 
1183.330933 25.0 
1183.370361 46.0 
1183.459106 34.0 
1183.488647 34.0 
1183.547729 55.0 
1183.616699 36.0 
1183.636475 39.0 
1183.675903 27.0 
1183.725098 27.0 
1183.744873 27.0 
1183.774414 32.0 
1183.833618 27.0 
1183.853271 25.0 
1183.872925 19.0 
1183.8927 24.0 
1183.932129 30.0 
1183.96167 40.0 
1184.020874 37.0 
1184.050415 37.0 
1184.070068 44.0 
1184.099609 39.0 
1184.139038 59.0 
1184.178467 40.0 
1184.247559 45.0 
1184.267212 27.0 
1184.306641 34.0 
1184.336182 34.0 
1184.365845 25.0 
1184.395386 38.0 
1184.424927 26.0 
1184.454468 36.0 
1184.513672 49.0 
1184.543213 33.0 
1184.562988 39.0 
1184.602417 43.0 
1184.661499 47.0 
1184.700928 20.0 
1184.730591 43.0 
1184.789673 35.0 
1184.819336 42.0 
1184.848877 27.0 
1184.888306 38.0 
1184.898193 38.0 
1184.927734 26.0 
1184.957275 29.0 
1185.006592 46.0 
1185.055908 36.0 
1185.075684 28.0 
1185.095337 39.0 
1185.174316 37.0 
1185.19397 35.0 
1185.233398 42.0 
1185.263062 26.0 
1185.30249 40.0 
1185.322144 39.0 
1185.341919 33.0 
1185.391235 35.0 
1185.450439 22.0 
1185.47998 21.0 
1185.499634 22.0 
1185.519409 31.0 
1185.54895 36.0 
1185.608154 40.0 
1185.647583 43.0 
1185.716675 52.0 
1185.775879 31.0 
1185.825195 32.0 
1185.854736 38.0 
1185.91394 88.0 
1185.973145 30.0 
1186.012573 64.0 
1186.052002 37.0 
1186.091553 32.0 
1186.150635 43.0 
1186.180298 65.0 
1186.229614 56.0 
1186.269043 46.0 
1186.298706 52.0 
1186.318359 30.0 
1186.387451 49.0 
1186.407227 23.0 
1186.446655 32.0 
1186.476196 32.0 
1186.505859 32.0 
1186.545288 27.0 
1186.594604 18.0 
1186.624268 25.0 
1186.663696 38.0 
1186.693359 33.0 
1186.7229 19.0 
1186.762451 27.0 
1186.80188 35.0 
1186.851196 31.0 
1186.900513 27.0 
1186.949829 23.0 
1186.969604 21.0 
1186.999268 36.0 
1187.048584 33.0 
1187.068359 33.0 
1187.107788 42.0 
1187.137329 30.0 
1187.186768 49.0 
1187.255859 48.0 
1187.275513 58.0 
1187.295288 41.0 
1187.305176 41.0 
1187.344604 48.0 
1187.374268 30.0 
1187.403809 54.0 
1187.443359 18.0 
1187.4729 41.0 
1187.502563 28.0 
1187.541992 31.0 
1187.571655 27.0 
1187.601318 22.0 
1187.620972 21.0 
1187.640747 30.0 
1187.680298 33.0 
1187.709839 45.0 
1187.739502 24.0 
1187.769043 65.0 
1187.818481 19.0 
1187.85791 43.0 
1187.877686 51.0 
1187.907349 38.0 
1187.97644 42.0 
1188.005981 25.0 
1188.065308 47.0 
1188.104736 42.0 
1188.134399 35.0 
1188.173828 39.0 
1188.223267 31.0 
1188.272583 32.0 
1188.302246 24.0 
1188.312134 24.0 
1188.331787 23.0 
1188.36145 34.0 
1188.391113 44.0 
1188.430542 48.0 
1188.450317 41.0 
1188.47998 37.0 
1188.509521 31.0 
1188.549072 51.0 
1188.55896 51.0 
1188.608276 49.0 
1188.657715 35.0 
1188.687378 25.0 
1188.716919 46.0 
1188.746582 31.0 
1188.786133 28.0 
1188.805786 29.0 
1188.835449 44.0 
1188.875 53.0 
1188.914429 30.0 
1188.944092 33.0 
1188.973755 42.0 
1189.013306 35.0 
1189.052734 35.0 
1189.07251 36.0 
1189.102173 39.0 
1189.121948 30.0 
1189.151489 47.0 
1189.210815 32.0 
1189.240479 26.0 
1189.260132 43.0 
1189.319458 53.0 
1189.359009 39.0 
1189.418213 28.0 
1189.447876 19.0 
1189.477539 33.0 
1189.516968 18.0 
1189.546631 37.0 
1189.576294 29.0 
1189.605957 32.0 
1189.645508 22.0 
1189.675049 40.0 
1189.694824 42.0 
1189.724487 25.0 
1189.764038 32.0 
1189.783813 33.0 
1189.83313 27.0 
1189.852905 31.0 
1189.872681 34.0 
1189.902344 36.0 
1189.941895 28.0 
1189.96167 31.0 
1190.001099 39.0 
1190.030762 43.0 
1190.060425 46.0 
1190.099976 45.0 
1190.119751 33.0 
1190.149414 21.0 
1190.188843 27.0 
1190.208618 26.0 
1190.238281 37.0 
1190.267944 27.0 
1190.277832 27.0 
1190.297607 37.0 
1190.376587 41.0 
1190.426025 52.0 
1190.465576 29.0 
1190.485352 34.0 
1190.524902 37.0 
1190.564453 23.0 
1190.594116 20.0 
1190.623657 26.0 
1190.633545 26.0 
1190.663208 50.0 
1190.712646 71.0 
1190.771973 66.0 
1190.821411 30.0 
1190.860962 44.0 
1190.880737 41.0 
1190.920288 37.0 
1190.940063 25.0 
1190.959839 18.0 
1190.98938 35.0 
1191.019043 39.0 
1191.058594 39.0 
1191.088257 32.0 
1191.108032 30.0 
1191.127808 37.0 
1191.167358 32.0 
1191.197021 50.0 
1191.256348 41.0 
1191.286011 44.0 
1191.305786 39.0 
1191.315674 39.0 
1191.345337 44.0 
1191.375 40.0 
1191.404663 22.0 
1191.444214 39.0 
1191.473877 23.0 
1191.493652 37.0 
1191.533203 28.0 
1191.562866 28.0 
1191.602417 29.0 
1191.63208 29.0 
1191.661743 56.0 
1191.691406 18.0 
1191.711182 28.0 
1191.740845 24.0 
1191.76062 49.0 
1191.810059 20.0 
1191.869385 30.0 
1191.88916 40.0 
1191.988037 113.0 
1192.007812 22.0 
1192.027588 53.0 
1192.077026 127.0 
1192.126465 37.0 
1192.156128 33.0 
1192.175903 33.0 
1192.205566 42.0 
1192.235229 32.0 
1192.255005 23.0 
1192.27478 41.0 
1192.334229 37.0 
1192.354004 25.0 
1192.393555 27.0 
1192.433105 34.0 
1192.452881 34.0 
1192.482544 33.0 
1192.512207 39.0 
1192.551758 16.0 
1192.581421 35.0 
1192.620972 34.0 
1192.68042 30.0 
1192.719971 34.0 
1192.789185 36.0 
1192.80896 24.0 
1192.838623 63.0 
1192.878174 9.0 
1192.907959 36.0 
1192.927734 41.0 
1192.977173 52.0 
1192.996948 40.0 
1193.036499 49.0 
1193.07605 58.0 
1193.105713 35.0 
1193.145386 56.0 
1193.175049 37.0 
1193.204712 44.0 
1193.25415 22.0 
1193.283813 50.0 
1193.303711 38.0 
1193.323486 36.0 
1193.343262 54.0 
1193.372925 37.0 
1193.412476 46.0 
1193.442139 25.0 
1193.462036 35.0 
1193.481812 38.0 
1193.521362 31.0 
1193.551025 24.0 
1193.590576 27.0 
1193.620361 41.0 
1193.650024 36.0 
1193.729126 51.0 
1193.768799 41.0 
1193.788574 41.0 
1193.828125 38.0 
1193.8479 39.0 
1193.887573 23.0 
1193.917236 47.0 
1193.946899 31.0 
1193.976562 25.0 
1193.996338 42.0 
1194.026123 39.0 
1194.065674 42.0 
1194.125 50.0 
1194.154785 27.0 
1194.194336 22.0 
1194.243774 37.0 
1194.283447 31.0 
1194.31311 40.0 
1194.342773 23.0 
1194.362671 29.0 
1194.392334 37.0 
1194.471558 25.0 
1194.491333 27.0 
1194.511108 32.0 
1194.530884 28.0 
1194.580444 31.0 
1194.619995 17.0 
1194.639771 21.0 
1194.689331 22.0 
1194.709106 28.0 
1194.728882 39.0 
1194.748657 33.0 
1194.768555 19.0 
1194.78833 19.0 
1194.817993 32.0 
1194.847778 27.0 
1194.887329 27.0 
1194.97644 35.0 
1194.996216 38.0 
1195.045776 46.0 
1195.065552 37.0 
1195.105103 28.0 
1195.134888 29.0 
1195.184326 36.0 
1195.233887 24.0 
1195.27356 36.0 
1195.31311 31.0 
1195.332886 31.0 
1195.352783 26.0 
1195.382446 31.0 
1195.432007 34.0 
1195.491333 47.0 
1195.540894 47.0 
1195.570557 35.0 
1195.590454 32.0 
1195.669678 32.0 
1195.709229 29.0 
1195.729126 31.0 
1195.778564 30.0 
1195.798462 38.0 
1195.818237 22.0 
1195.857788 33.0 
1195.927124 49.0 
1195.956909 34.0 
1195.986572 39.0 
1196.00647 44.0 
1196.026245 37.0 
1196.055908 33.0 
1196.095581 35.0 
1196.125244 16.0 
1196.164917 37.0 
1196.214478 21.0 
1196.234253 22.0 
1196.264038 29.0 
1196.283813 38.0 
1196.303589 39.0 
1196.372925 45.0 
1196.392822 26.0 
1196.412598 32.0 
1196.442261 39.0 
1196.462158 41.0 
1196.481934 49.0 
1196.541382 23.0 
1196.581055 27.0 
1196.610718 18.0 
1196.650391 41.0 
1196.680176 9.0 
1196.719727 41.0 
1196.769287 39.0 
1196.828735 44.0 
1196.868408 21.0 
1196.908081 30.0 
1197.00708 52.0 
1197.046753 40.0 
1197.076538 21.0 
1197.106201 40.0 
1197.175659 33.0 
1197.195435 33.0 
1197.225098 35.0 
1197.254883 24.0 
1197.294556 32.0 
1197.324219 32.0 
1197.354004 35.0 
1197.413452 56.0 
1197.4729 24.0 
1197.522461 41.0 
1197.552246 42.0 
1197.601807 51.0 
1197.621582 47.0 
1197.641479 31.0 
1197.671143 44.0 
1197.700928 56.0 
1197.740601 28.0 
1197.780273 30.0 
1197.809937 29.0 
1197.859497 29.0 
1197.879395 34.0 
1197.94873 35.0 
1197.968628 40.0 
1197.998291 48.0 
1198.037964 32.0 
1198.057861 32.0 
1198.087524 37.0 
1198.127197 26.0 
1198.176758 29.0 
1198.196655 37.0 
1198.216431 54.0 
1198.256104 58.0 
1198.325562 35.0 
1198.355225 47.0 
1198.375122 46.0 
1198.414795 36.0 
1198.43457 46.0 
1198.504028 25.0 
1198.533691 38.0 
1198.573364 40.0 
1198.623047 41.0 
1198.66272 41.0 
1198.692383 26.0 
1198.722168 47.0 
1198.771729 43.0 
1198.821289 31.0 
1198.841187 33.0 
1198.860962 26.0 
1198.890747 47.0 
1198.950317 37.0 
1198.999878 31.0 
1199.019653 40.0 
1199.069336 35.0 
1199.128784 15.0 
1199.138672 15.0 
1199.178345 23.0 
1199.188354 23.0 
1199.20813 32.0 
1199.25769 36.0 
1199.297363 28.0 
1199.317261 29.0 
1199.356934 31.0 
1199.406494 39.0 
1199.456177 23.0 
1199.475952 29.0 
1199.515625 37.0 
1199.54541 40.0 
1199.624756 40.0 
1199.654541 35.0 
1199.674438 37.0 
1199.723999 35.0 
1199.753784 31.0 
1199.783569 42.0 
1199.813232 46.0 
1199.853027 41.0 
1199.872803 38.0 
1199.932373 38.0 
1199.972046 68.0 
1200.041504 48.0 
1200.071289 30.0 
1200.12085 38.0 
1200.18042 27.0 
1200.23999 31.0 
1200.259766 30.0 
1200.309448 37.0 
1200.349121 26.0 
1200.408691 31.0 
1200.458252 51.0 
1200.488037 27.0 
1200.52771 29.0 
1200.58728 38.0 
1200.617065 42.0 
1200.646851 17.0 
1200.676636 24.0 
1200.706421 32.0 
1200.755981 45.0 
1200.815552 41.0 
1200.855225 34.0 
1200.89502 35.0 
1200.924805 19.0 
1200.95459 24.0 
1200.994263 28.0 
1201.063721 55.0 
1201.113403 29.0 
1201.133179 26.0 
1201.162964 30.0 
1201.182861 32.0 
1201.222534 26.0 
1201.242432 27.0 
1201.321899 46.0 
1201.391357 36.0 
1201.450928 25.0 
1201.480713 37.0 
1201.520386 37.0 
1201.540283 33.0 
1201.570068 27.0 
1201.589966 32.0 
1201.609741 24.0 
1201.639526 52.0 
1201.669312 31.0 
1201.679321 31.0 
1201.728882 46.0 
1201.758667 19.0 
1201.778564 20.0 
1201.798462 21.0 
1201.858032 27.0 
1201.887817 48.0 
1201.917603 46.0 
1201.947388 49.0 
1201.977173 40.0 
1202.016846 65.0 
1202.046631 28.0 
1202.076538 42.0 
1202.106323 38.0 
1202.136108 17.0 
1202.175781 26.0 
1202.205566 48.0 
1202.275146 36.0 
1202.304932 34.0 
1202.334717 12.0 
1202.37439 29.0 
1202.414185 35.0 
1202.43396 41.0 
1202.483643 24.0 
1202.533325 31.0 
1202.56311 39.0 
1202.592896 42.0 
1202.63269 50.0 
1202.692261 48.0 
1202.722046 23.0 
1202.761841 29.0 
1202.781738 36.0 
1202.811523 43.0 
1202.871094 41.0 
1202.880981 41.0 
1202.910767 29.0 
1202.920776 29.0 
1202.940674 32.0 
1202.990356 31.0 
1203.010132 30.0 
1203.059814 42.0 
1203.109497 48.0 
1203.149292 37.0 
1203.179077 57.0 
1203.198975 41.0 
1203.21875 47.0 
1203.28833 50.0 
1203.328125 28.0 
1203.35791 23.0 
1203.387695 47.0 
1203.447388 62.0 
1203.506958 62.0 
1203.566528 29.0 
1203.606323 33.0 
1203.626221 37.0 
1203.656006 17.0 
1203.685791 59.0 
1203.715698 32.0 
1203.755371 38.0 
1203.795166 50.0 
1203.844849 39.0 
1203.864746 36.0 
1203.884644 39.0 
1203.904419 33.0 
1203.954102 35.0 
1204.013794 34.0 
1204.043579 29.0 
1204.083374 14.0 
1204.103271 16.0 
1204.123169 31.0 
1204.142944 28.0 
1204.192749 24.0 
1204.222534 23.0 
1204.262329 36.0 
1204.282104 35.0 
1204.321899 39.0 
1204.351685 40.0 
1204.371582 30.0 
1204.411377 35.0 
1204.441162 23.0 
1204.480957 21.0 
1204.520752 29.0 
1204.550537 22.0 
1204.580322 43.0 
1204.60022 38.0 
1204.620117 27.0 
1204.650024 30.0 
1204.709595 32.0 
1204.739502 33.0 
1204.769287 62.0 
1204.809082 22.0 
1204.838867 37.0 
1204.868652 43.0 
1204.88855 46.0 
1204.95813 43.0 
1205.007935 29.0 
1205.03772 34.0 
1205.057617 43.0 
1205.097412 43.0 
1205.137207 45.0 
1205.17688 49.0 
1205.206787 46.0 
1205.236572 34.0 
1205.25647 35.0 
1205.276367 35.0 
1205.316162 35.0 
1205.345947 38.0 
1205.375854 43.0 
1205.435425 30.0 
1205.47522 34.0 
1205.534912 41.0 
1205.594604 54.0 
1205.644287 25.0 
1205.664185 23.0 
1205.723877 55.0 
1205.743774 48.0 
1205.783569 36.0 
1205.813354 39.0 
1205.843262 38.0 
1205.853149 38.0 
1205.892944 42.0 
1205.912842 34.0 
1205.932739 21.0 
1205.962646 39.0 
1206.002441 39.0 
1206.052124 24.0 
1206.091919 38.0 
1206.141724 46.0 
1206.201294 27.0 
1206.231201 39.0 
1206.260986 26.0 
1206.290894 37.0 
1206.350586 55.0 
1206.420166 44.0 
1206.450073 44.0 
1206.499756 38.0 
1206.519653 22.0 
1206.539551 25.0 
1206.589355 49.0 
1206.63916 49.0 
1206.649048 49.0 
1206.678955 25.0 
1206.698853 28.0 
1206.738647 28.0 
1206.768433 48.0 
1206.79834 34.0 
1206.828125 33.0 
1206.848022 33.0 
1206.87793 37.0 
1206.897827 24.0 
1206.917725 24.0 
1206.937622 19.0 
1206.987427 34.0 
1207.037109 23.0 
1207.057007 31.0 
1207.086914 32.0 
1207.116699 24.0 
1207.176514 51.0 
1207.236206 47.0 
1207.256104 37.0 
1207.285889 24.0 
1207.305786 15.0 
1207.325684 35.0 
1207.355591 43.0 
1207.425293 39.0 
1207.465088 20.0 
1207.484985 26.0 
1207.514893 39.0 
1207.53479 37.0 
1207.554688 37.0 
1207.584473 33.0 
1207.62439 22.0 
1207.654175 45.0 
1207.69397 26.0 
1207.743774 46.0 
1207.793579 25.0 
1207.813477 37.0 
1207.863281 51.0 
1207.903076 30.0 
1207.942871 38.0 
1208.002563 29.0 
1208.032471 34.0 
1208.072266 53.0 
1208.141968 51.0 
1208.171875 39.0 
1208.21167 39.0 
1208.22168 39.0 
1208.231567 39.0 
1208.261475 33.0 
1208.281372 31.0 
1208.321167 39.0 
1208.351074 37.0 
1208.380981 44.0 
1208.400879 33.0 
1208.410767 33.0 
1208.440674 34.0 
1208.470581 28.0 
1208.500488 47.0 
1208.530273 29.0 
1208.57019 40.0 
1208.619873 26.0 
1208.629883 26.0 
1208.65979 27.0 
1208.679688 40.0 
1208.699585 29.0 
1208.729492 53.0 
1208.73938 53.0 
1208.789185 59.0 
1208.809082 36.0 
1208.838989 47.0 
1208.888794 33.0 
1208.918701 22.0 
1208.938599 21.0 
1208.968506 41.0 
1208.998413 23.0 
1209.028198 33.0 
1209.0979 35.0 
1209.137817 31.0 
1209.157715 33.0 
1209.177612 32.0 
1209.19751 36.0 
1209.217529 35.0 
1209.237427 31.0 
1209.267334 42.0 
1209.297119 28.0 
1209.327026 42.0 
1209.406738 45.0 
1209.446533 40.0 
1209.47644 26.0 
1209.496338 32.0 
1209.516357 36.0 
1209.546143 23.0 
1209.566162 31.0 
1209.57605 31.0 
1209.625854 30.0 
1209.655762 30.0 
1209.705566 34.0 
1209.745483 30.0 
1209.765381 28.0 
1209.815186 51.0 
1209.85498 21.0 
1209.884888 56.0 
1209.944702 61.0 
1209.9646 40.0 
1210.014404 27.0 
1210.044312 43.0 
1210.104126 25.0 
1210.143921 31.0 
1210.173828 33.0 
1210.203735 50.0 
1210.25354 39.0 
1210.303345 41.0 
1210.343262 38.0 
1210.393066 44.0 
1210.432983 27.0 
1210.492798 50.0 
1210.532593 28.0 
1210.57251 34.0 
1210.582397 34.0 
1210.632202 13.0 
1210.662109 25.0 
1210.682129 29.0 
1210.702026 26.0 
1210.741943 35.0 
1210.801636 27.0 
1210.821655 21.0 
1210.851562 24.0 
1210.88147 33.0 
1210.891357 33.0 
1210.951172 31.0 
1210.991089 34.0 
1211.020996 19.0 
1211.060791 44.0 
1211.100708 37.0 
1211.120605 33.0 
1211.160522 38.0 
1211.19043 32.0 
1211.220337 50.0 
1211.270142 40.0 
1211.339966 32.0 
1211.369873 33.0 
1211.439697 34.0 
1211.469604 26.0 
1211.489502 24.0 
1211.529419 44.0 
1211.539307 44.0 
1211.569214 31.0 
1211.589233 26.0 
1211.619141 29.0 
1211.649048 27.0 
1211.659058 27.0 
1211.688965 53.0 
1211.758667 48.0 
1211.808594 38.0 
1211.848389 57.0 
1211.908325 48.0 
1211.938232 43.0 
1211.95813 43.0 
1211.978027 26.0 
1212.017944 17.0 
1212.057861 29.0 
1212.097778 36.0 
1212.127686 35.0 
1212.17749 43.0 
1212.207397 23.0 
1212.217407 23.0 
1212.247314 27.0 
1212.307129 32.0 
1212.327148 53.0 
1212.367065 32.0 
1212.396973 38.0 
1212.436768 37.0 
1212.456787 36.0 
1212.476685 62.0 
1212.516602 22.0 
1212.536499 25.0 
1212.576416 34.0 
1212.616333 50.0 
1212.66626 34.0 
1212.696167 29.0 
1212.716064 29.0 
1212.776001 30.0 
1212.825806 31.0 
1212.845825 30.0 
1212.89563 29.0 
1212.925537 21.0 
1212.965454 28.0 
1213.025391 42.0 
1213.045288 29.0 
1213.115112 47.0 
1213.125122 47.0 
1213.165039 34.0 
1213.194946 22.0 
1213.234863 27.0 
1213.254761 29.0 
1213.304688 35.0 
1213.344604 43.0 
1213.404419 44.0 
1213.434448 29.0 
1213.474243 36.0 
1213.504272 39.0 
1213.52417 30.0 
1213.564087 28.0 
1213.633911 42.0 
1213.653931 44.0 
1213.673828 31.0 
1213.693848 32.0 
1213.743774 42.0 
1213.793579 36.0 
1213.823608 30.0 
1213.863525 34.0 
1213.893433 39.0 
1213.92334 29.0 
1213.943359 48.0 
1213.963257 43.0 
1213.983276 12.0 
1214.023193 35.0 
1214.112915 23.0 
1214.152954 31.0 
1214.172852 26.0 
1214.192871 22.0 
1214.212769 30.0 
1214.242676 59.0 
1214.282593 41.0 
1214.33252 45.0 
1214.362549 50.0 
1214.382446 52.0 
1214.432373 46.0 
1214.46228 35.0 
1214.4823 38.0 
1214.512207 33.0 
1214.532227 35.0 
1214.582153 14.0 
1214.612061 35.0 
1214.641968 31.0 
1214.651978 31.0 
1214.671997 27.0 
1214.711914 32.0 
1214.741821 40.0 
1214.751831 40.0 
1214.771729 38.0 
1214.821655 47.0 
1214.841675 40.0 
1214.861572 42.0 
1214.891602 26.0 
1214.921509 25.0 
1214.961426 23.0 
1214.991455 29.0 
1215.031372 30.0 
1215.05127 30.0 
1215.111206 46.0 
1215.141235 26.0 
1215.161133 42.0 
1215.231079 36.0 
1215.270996 26.0 
1215.330933 39.0 
1215.36084 33.0 
1215.380859 23.0 
1215.420776 41.0 
1215.470703 29.0 
1215.490723 20.0 
1215.51062 33.0 
1215.540649 24.0 
1215.590576 32.0 
1215.610474 47.0 
1215.640503 22.0 
1215.6604 30.0 
1215.68042 35.0 
1215.700439 33.0 
1215.730347 28.0 
1215.790283 51.0 
1215.860229 31.0 
1215.880127 45.0 
1215.920166 18.0 
1215.950073 28.0 
1215.980103 44.0 
1216.0 35.0 
1216.040039 26.0 
1216.059937 23.0 
1216.099854 37.0 
1216.139893 19.0 
1216.1698 26.0 
1216.199829 35.0 
1216.229736 28.0 
1216.269775 23.0 
1216.319702 46.0 
1216.369629 32.0 
1216.389648 43.0 
1216.419556 29.0 
1216.449585 40.0 
1216.479492 15.0 
1216.519531 38.0 
1216.529419 38.0 
1216.569458 51.0 
1216.609375 36.0 
1216.629395 25.0 
1216.659302 34.0 
1216.689331 34.0 
1216.729248 29.0 
1216.759277 42.0 
1216.789185 28.0 
1216.829224 30.0 
1216.839233 30.0 
1216.859131 31.0 
1216.88916 41.0 
1216.939087 36.0 
1216.969116 16.0 
1216.999023 33.0 
1217.019043 33.0 
1217.088989 42.0 
1217.158936 45.0 
1217.198975 37.0 
1217.218872 46.0 
1217.258911 34.0 
1217.288818 26.0 
1217.308838 26.0 
1217.358765 39.0 
1217.388794 29.0 
1217.418823 39.0 
1217.45874 24.0 
1217.47876 42.0 
1217.538696 31.0 
1217.588623 50.0 
1217.618652 30.0 
1217.638672 38.0 
1217.678589 48.0 
1217.738647 43.0 
1217.768555 24.0 
1217.808594 24.0 
1217.828613 23.0 
1217.86853 54.0 
1217.928589 29.0 
1217.978516 27.0 
1218.028442 47.0 
1218.088501 51.0 
1218.108521 37.0 
1218.128418 44.0 
1218.178467 29.0 
1218.198486 25.0 
1218.238403 30.0 
1218.258423 20.0 
1218.278442 23.0 
1218.308472 33.0 
1218.348389 39.0 
1218.388428 30.0 
1218.458374 33.0 
1218.498413 37.0 
1218.53833 25.0 
1218.598389 51.0 
1218.628418 18.0 
1218.668335 25.0 
1218.698364 56.0 
1218.758301 38.0 
1218.79834 34.0 
1218.828369 26.0 
1218.868408 32.0 
1218.908325 31.0 
1218.948364 37.0 
1218.958374 37.0 
1218.978394 25.0 
1218.998413 29.0 
1219.04834 40.0 
1219.098389 37.0 
1219.158325 40.0 
1219.178345 24.0 
1219.218384 38.0 
1219.288452 41.0 
1219.318359 37.0 
1219.338379 36.0 
1219.398438 44.0 
1219.408447 44.0 
1219.438477 33.0 
1219.458374 42.0 
1219.488403 30.0 
1219.508423 28.0 
1219.528442 41.0 
1219.558472 36.0 
1219.598511 39.0 
1219.61853 43.0 
1219.648438 49.0 
1219.678467 41.0 
1219.728516 31.0 
1219.758545 45.0 
1219.818604 44.0 
1219.848511 35.0 
1219.87854 24.0 
1219.908569 27.0 
1219.948608 30.0 
1219.968628 31.0 
1220.008667 31.0 
1220.028687 46.0 
1220.058594 32.0 
1220.088623 42.0 
1220.098633 42.0 
1220.158691 28.0 
1220.178711 38.0 
1220.21875 21.0 
1220.23877 20.0 
1220.258789 26.0 
1220.288818 31.0 
1220.308838 20.0 
1220.338867 24.0 
1220.378784 36.0 
1220.438843 22.0 
1220.468872 22.0 
1220.518921 35.0 
1220.578979 40.0 
1220.639038 35.0 
1220.659058 23.0 
1220.689087 42.0 
1220.739136 42.0 
1220.779175 35.0 
1220.799072 47.0 
1220.88916 39.0 
1220.929199 21.0 
1220.959229 26.0 
1220.969238 26.0 
1221.009277 27.0 
1221.029297 28.0 
1221.059326 35.0 
1221.109375 27.0 
1221.159424 30.0 
1221.209473 32.0 
1221.219482 32.0 
1221.239502 33.0 
1221.269531 25.0 
1221.30957 40.0 
1221.32959 46.0 
1221.369629 47.0 
1221.409668 54.0 
1221.439697 35.0 
1221.499756 43.0 
1221.549805 35.0 
1221.569824 33.0 
1221.609863 28.0 
1221.639893 26.0 
1221.669922 30.0 
1221.690063 25.0 
1221.720093 23.0 
1221.760132 39.0 
1221.800171 15.0 
1221.8302 27.0 
1221.85022 26.0 
1221.880249 29.0 
1221.920288 15.0 
1221.950317 22.0 
1221.970337 33.0 
1222.000366 28.0 
1222.040405 27.0 
1222.070435 55.0 
1222.090454 49.0 
1222.160645 58.0 
1222.190674 16.0 
1222.230713 37.0 
1222.310791 32.0 
1222.330811 25.0 
1222.37085 26.0 
1222.390869 48.0 
1222.43103 31.0 
1222.46106 36.0 
1222.481079 35.0 
1222.511108 38.0 
1222.581177 70.0 
1222.651367 54.0 
1222.701416 28.0 
1222.721436 32.0 
1222.741455 22.0 
1222.761475 31.0 
1222.801514 36.0 
1222.831543 44.0 
1222.871704 35.0 
1222.891724 29.0 
1222.941772 38.0 
1222.971802 19.0 
1222.991821 31.0 
1223.011841 27.0 
1223.021973 27.0 
1223.041992 33.0 
1223.072021 36.0 
1223.13208 41.0 
1223.172119 46.0 
1223.24231 44.0 
1223.312378 20.0 
1223.342529 39.0 
1223.402588 61.0 
1223.462646 41.0 
1223.492798 35.0 
1223.542847 18.0 
1223.562866 26.0 
1223.582886 24.0 
1223.623047 44.0 
1223.653076 29.0 
1223.673096 34.0 
1223.693115 20.0 
1223.743286 38.0 
1223.773315 51.0 
1223.793335 48.0 
1223.833374 35.0 
1223.863525 40.0 
1223.873535 40.0 
1223.883545 40.0 
1223.933594 34.0 
1223.993774 47.0 
1224.013794 25.0 
1224.063965 28.0 
1224.104004 50.0 
1224.154053 39.0 
1224.194214 41.0 
1224.224243 46.0 
1224.244263 27.0 
1224.284424 34.0 
1224.314453 29.0 
1224.324463 29.0 
1224.344482 30.0 
1224.384644 34.0 
1224.464844 35.0 
1224.504883 56.0 
1224.524902 55.0 
1224.545044 53.0 
1224.565063 59.0 
1224.605103 55.0 
1224.665283 37.0 
1224.695312 42.0 
1224.715332 40.0 
1224.785522 63.0 
1224.805664 48.0 
1224.835693 14.0 
1224.885742 37.0 
1224.935913 45.0 
1225.006104 42.0 
1225.036133 25.0 
1225.076294 41.0 
1225.126465 29.0 
1225.166504 38.0 
1225.226685 31.0 
1225.256714 43.0 
1225.286865 25.0 
1225.306885 28.0 
1225.346924 27.0 
1225.367065 27.0 
1225.397095 24.0 
1225.417114 45.0 
1225.487305 36.0 
1225.517456 53.0 
1225.537476 54.0 
1225.587646 60.0 
1225.617676 33.0 
1225.667847 72.0 
1225.718018 44.0 
1225.758057 43.0 
1225.808228 44.0 
1225.868408 59.0 
1225.908569 23.0 
1225.95874 34.0 
1225.97876 27.0 
1226.008789 38.0 
1226.04895 25.0 
1226.078979 21.0 
1226.099121 38.0 
1226.13916 28.0 
1226.169312 52.0 
1226.209473 49.0 
1226.229492 62.0 
1226.269653 20.0 
1226.279663 20.0 
1226.319702 40.0 
1226.359863 31.0 
1226.390015 25.0 
1226.410034 52.0 
1226.460205 57.0 
1226.520386 20.0 
1226.550415 41.0 
1226.590576 35.0 
1226.620728 45.0 
1226.650757 26.0 
1226.690918 41.0 
1226.731079 41.0 
1226.78125 55.0 
1226.85144 45.0 
1226.901611 27.0 
1226.921631 33.0 
1226.961792 33.0 
1226.991943 50.0 
1227.052124 53.0 
1227.102295 34.0 
1227.172485 45.0 
1227.202637 33.0 
1227.222656 41.0 
1227.252808 44.0 
1227.312988 35.0 
1227.333008 33.0 
1227.393311 34.0 
1227.443481 39.0 
1227.483521 16.0 
1227.493652 16.0 
1227.533813 41.0 
1227.573853 37.0 
1227.593994 29.0 
1227.634155 45.0 
1227.664185 45.0 
1227.724487 29.0 
1227.764526 30.0 
1227.794678 30.0 
1227.814819 34.0 
1227.834839 27.0 
1227.915161 43.0 
1227.975342 39.0 
1228.035645 34.0 
1228.045654 34.0 
1228.075684 40.0 
1228.105835 19.0 
1228.135986 39.0 
1228.176147 45.0 
1228.246338 32.0 
1228.286499 52.0 
1228.32666 31.0 
1228.346802 37.0 
1228.386963 30.0 
1228.416992 52.0 
1228.437134 45.0 
1228.477295 35.0 
1228.527466 36.0 
1228.597778 44.0 
1228.657959 27.0 
1228.69812 39.0 
1228.728271 37.0 
1228.738281 37.0 
1228.768433 49.0 
1228.818604 58.0 
1228.878906 35.0 
1228.909058 44.0 
1228.929077 38.0 
1228.969238 50.0 
1229.019409 30.0 
1229.049561 41.0 
1229.099854 44.0 
1229.160034 45.0 
1229.200195 25.0 
1229.220337 23.0 
1229.270508 46.0 
1229.310669 53.0 
1229.360962 48.0 
1229.401123 46.0 
1229.411133 46.0 
1229.471436 40.0 
1229.511597 28.0 
1229.541626 29.0 
1229.561768 31.0 
1229.601929 36.0 
1229.63208 33.0 
1229.652222 28.0 
1229.722534 44.0 
1229.752563 36.0 
1229.802856 25.0 
1229.853027 50.0 
1229.893188 25.0 
1229.92334 39.0 
1229.933472 39.0 
1229.953491 32.0 
1229.993652 44.0 
1230.013794 46.0 
1230.063965 41.0 
1230.084106 27.0 
1230.104248 29.0 
1230.134399 23.0 
1230.164429 41.0 
1230.214722 25.0 
1230.234863 35.0 
1230.275024 18.0 
1230.315186 22.0 
1230.335327 22.0 
1230.365356 31.0 
1230.415649 38.0 
1230.445801 42.0 
1230.465942 55.0 
1230.485962 57.0 
1230.536255 42.0 
1230.566406 35.0 
1230.596558 48.0 
1230.606567 48.0 
1230.656738 32.0 
1230.68689 19.0 
1230.717041 25.0 
1230.747192 37.0 
1230.797485 40.0 
1230.837646 26.0 
1230.857788 28.0 
1230.887939 29.0 
1230.918091 36.0 
1230.93811 43.0 
1230.948242 43.0 
1230.978394 39.0 
1231.038696 38.0 
1231.078857 27.0 
1231.109009 25.0 
1231.12915 31.0 
1231.13916 31.0 
1231.179321 42.0 
1231.249756 42.0 
1231.269775 21.0 
1231.289917 15.0 
1231.310059 31.0 
1231.34021 36.0 
1231.380371 29.0 
1231.400513 48.0 
1231.430664 34.0 
1231.470825 47.0 
1231.500977 27.0 
1231.531128 49.0 
1231.561279 44.0 
1231.581421 41.0 
1231.611572 48.0 
1231.641724 36.0 
1231.661865 33.0 
1231.681885 37.0 
1231.732178 26.0 
1231.752319 35.0 
1231.782471 35.0 
1231.862915 48.0 
1231.903076 38.0 
1231.943359 46.0 
1231.963379 32.0 
1232.013672 41.0 
1232.033813 54.0 
1232.084106 43.0 
1232.124268 28.0 
1232.144409 19.0 
1232.174561 14.0 
1232.214722 33.0 
1232.234863 50.0 
1232.295166 32.0 
1232.325439 32.0 
1232.365601 39.0 
1232.385742 33.0 
1232.415894 31.0 
1232.476196 30.0 
1232.516479 35.0 
1232.546631 26.0 
1232.576782 21.0 
1232.616943 44.0 
1232.657227 36.0 
1232.697388 22.0 
1232.737671 20.0 
1232.757812 14.0 
1232.787964 13.0 
1232.808105 20.0 
1232.848267 21.0 
1232.868408 19.0 
1232.928711 36.0 
1232.968994 21.0 
1232.989136 32.0 
1233.009277 22.0 
1233.039429 17.0 
1233.05957 32.0 
1233.07959 37.0 
1233.119873 37.0 
1233.140015 46.0 
1233.210449 47.0 
1233.25061 55.0 
1233.300903 41.0 
1233.361328 26.0 
1233.381348 36.0 
1233.401489 32.0 
1233.411621 32.0 
1233.471924 48.0 
1233.522217 38.0 
1233.552368 33.0 
1233.57251 37.0 
1233.592651 33.0 
1233.612793 27.0 
1233.652954 43.0 
1233.683228 34.0 
1233.713379 43.0 
1233.753662 28.0 
1233.813965 48.0 
1233.834106 27.0 
1233.854248 24.0 
1233.924683 50.0 
1233.954834 36.0 
1233.984985 39.0 
1234.0354 34.0 
1234.065552 34.0 
1234.095703 43.0 
1234.115845 46.0 
1234.166138 33.0 
1234.186279 33.0 
1234.216431 31.0 
1234.236572 17.0 
1234.266724 19.0 
1234.286865 25.0 
1234.327148 24.0 
1234.3573 37.0 
1234.417725 38.0 
1234.468018 31.0 
1234.488159 40.0 
1234.498291 40.0 
1234.518311 42.0 
1234.558594 41.0 
1234.608887 32.0 
1234.63916 15.0 
1234.679443 34.0 
1234.709595 25.0 
1234.739746 28.0 
1234.77002 34.0 
1234.850464 33.0 
1234.880737 26.0 
1234.910889 21.0 
1234.93103 20.0 
1234.971313 30.0 
1234.991455 27.0 
1235.011597 19.0 
1235.031738 21.0 
1235.082031 29.0 
1235.172607 30.0 
1235.233032 46.0 
1235.263184 24.0 
1235.313599 33.0 
1235.33374 32.0 
1235.353882 31.0 
1235.373901 38.0 
1235.444458 30.0 
1235.4646 36.0 
1235.545166 46.0 
1235.575317 32.0 
1235.595459 28.0 
1235.615601 36.0 
1235.635742 35.0 
1235.645752 35.0 
1235.676025 23.0 
1235.706177 45.0 
1235.756592 39.0 
1235.776733 21.0 
1235.827026 48.0 
1235.8573 37.0 
1235.897583 29.0 
1235.927734 28.0 
1235.958008 32.0 
1235.988159 26.0 
1236.038452 44.0 
1236.12915 48.0 
1236.179443 36.0 
1236.219727 52.0 
1236.270142 29.0 
1236.280151 29.0 
1236.290283 29.0 
1236.310425 36.0 
1236.350708 37.0 
1236.390991 21.0 
1236.441406 33.0 
1236.491699 25.0 
1236.521973 41.0 
1236.552124 44.0 
1236.572266 39.0 
1236.63269 37.0 
1236.672974 36.0 
1236.703247 22.0 
1236.733398 29.0 
1236.773804 46.0 
1236.834229 20.0 
1236.884521 45.0 
1236.914795 21.0 
1236.944946 32.0 
1236.97522 33.0 
1237.015503 36.0 
1237.045776 33.0 
1237.08606 33.0 
1237.136353 30.0 
1237.186768 41.0 
1237.217041 21.0 
1237.237183 21.0 
1237.257324 26.0 
1237.277466 20.0 
1237.297607 23.0 
1237.327881 35.0 
1237.337891 35.0 
1237.368164 18.0 
1237.398315 31.0 
1237.438721 36.0 
1237.489014 43.0 
1237.539429 21.0 
1237.569702 44.0 
1237.589844 43.0 
1237.609985 40.0 
1237.640137 61.0 
1237.67041 50.0 
1237.710693 36.0 
1237.751099 24.0 
1237.78125 40.0 
1237.801392 31.0 
1237.841797 28.0 
1237.871948 50.0 
1237.902222 50.0 
1237.932495 36.0 
1237.972778 29.0 
1238.00293 18.0 
1238.033203 24.0 
1238.053345 23.0 
1238.10376 38.0 
1238.154175 28.0 
1238.2146 30.0 
1238.234741 28.0 
1238.255005 32.0 
1238.305298 24.0 
1238.335571 21.0 
1238.375854 29.0 
1238.406128 32.0 
1238.436401 47.0 
1238.466675 44.0 
1238.496826 41.0 
1238.557373 17.0 
1238.577515 41.0 
1238.648071 45.0 
1238.688354 38.0 
1238.708618 46.0 
1238.769043 27.0 
1238.799316 25.0 
1238.8396 23.0 
1238.880005 33.0 
1238.910156 26.0 
1238.93042 22.0 
1238.980713 33.0 
1239.000977 29.0 
1239.051392 16.0 
1239.081543 19.0 
1239.121948 39.0 
1239.131958 39.0 
1239.172363 31.0 
1239.192505 39.0 
1239.232788 43.0 
1239.263062 43.0 
1239.293335 19.0 
1239.303467 19.0 
1239.34375 36.0 
1239.394165 34.0 
1239.44458 47.0 
1239.484985 52.0 
1239.5354 24.0 
1239.575684 18.0 
1239.595825 37.0 
1239.605957 37.0 
1239.656372 44.0 
1239.696655 40.0 
1239.716919 33.0 
1239.737061 18.0 
1239.777344 30.0 
1239.827881 32.0 
1239.878296 40.0 
1239.928711 39.0 
1239.989258 23.0 
1240.019409 28.0 
1240.049683 19.0 
1240.090088 49.0 
1240.160645 26.0 
1240.190918 38.0 
1240.21106 37.0 
1240.261597 50.0 
1240.30188 28.0 
1240.342285 34.0 
1240.362427 37.0 
1240.412842 32.0 
1240.422974 32.0 
1240.432983 32.0 
1240.453247 36.0 
1240.503662 20.0 
1240.523804 20.0 
1240.554077 22.0 
1240.614624 34.0 
1240.675171 54.0 
1240.705444 44.0 
1240.745728 47.0 
1240.776001 40.0 
1240.806274 40.0 
1240.876953 43.0 
1240.927368 43.0 
1240.947632 28.0 
1240.987915 62.0 
1241.018188 25.0 
1241.068726 27.0 
1241.098999 25.0 
1241.129272 23.0 
1241.159546 34.0 
1241.189819 29.0 
1241.240234 10.0 
1241.270508 33.0 
1241.341187 48.0 
1241.391602 20.0 
1241.411743 23.0 
1241.452148 29.0 
1241.482422 24.0 
1241.512695 30.0 
1241.532837 23.0 
1241.56311 29.0 
1241.603516 26.0 
1241.633789 38.0 
1241.674194 39.0 
1241.694336 29.0 
1241.734741 36.0 
1241.775146 24.0 
1241.825562 38.0 
1241.865967 50.0 
1241.916382 28.0 
1241.946777 31.0 
1241.966919 35.0 
1242.047607 43.0 
1242.098145 33.0 
1242.118286 40.0 
1242.158691 43.0 
1242.188965 36.0 
1242.249512 60.0 
1242.310181 43.0 
1242.350464 40.0 
1242.421143 43.0 
1242.451538 32.0 
1242.481812 59.0 
1242.512085 34.0 
1242.55249 71.0 
1242.582764 32.0 
1242.613037 51.0 
1242.653442 44.0 
1242.754395 47.0 
1242.825073 44.0 
1242.845215 42.0 
1242.895752 41.0 
1242.916016 46.0 
1242.936157 38.0 
1242.956299 31.0 
1243.047241 55.0 
1243.087646 29.0 
1243.148193 31.0 
1243.178467 26.0 
1243.249268 35.0 
1243.279541 31.0 
1243.299683 35.0 
1243.330078 27.0 
1243.370361 18.0 
1243.390625 24.0 
1243.43103 29.0 
1243.461304 38.0 
1243.491577 32.0 
1243.521973 25.0 
1243.562378 52.0 
1243.633057 51.0 
1243.66333 43.0 
1243.693604 50.0 
1243.734009 44.0 
1243.774414 61.0 
1243.824951 35.0 
1243.845215 50.0 
1243.905762 38.0 
1243.986572 41.0 
1244.026978 25.0 
1244.067383 30.0 
1244.107788 10.0 
1244.138184 42.0 
1244.19873 21.0 
1244.229126 33.0 
1244.279541 37.0 
1244.299805 42.0 
1244.370483 37.0 
1244.390747 40.0 
1244.441284 38.0 
1244.471558 47.0 
1244.511963 50.0 
1244.532227 29.0 
1244.5625 30.0 
1244.582764 21.0 
1244.613037 54.0 
1244.653442 22.0 
1244.714111 24.0 
1244.734253 19.0 
1244.764648 22.0 
1244.794922 55.0 
1244.855591 40.0 
1244.895996 48.0 
1244.906128 48.0 
1244.956665 21.0 
1244.99707 37.0 
1245.037476 21.0 
1245.077881 51.0 
1245.148682 38.0 
1245.168823 41.0 
1245.189087 33.0 
1245.249756 43.0 
1245.269897 44.0 
1245.280029 44.0 
1245.340698 42.0 
1245.35083 42.0 
1245.401367 47.0 
1245.421631 33.0 
1245.462036 34.0 
1245.502441 46.0 
1245.552979 37.0 
1245.573242 43.0 
1245.603516 38.0 
1245.654053 31.0 
1245.674316 30.0 
1245.724854 24.0 
1245.745117 26.0 
1245.775391 18.0 
1245.805786 27.0 
1245.815796 27.0 
1245.83606 32.0 
1245.876465 30.0 
1245.896729 37.0 
1245.927002 37.0 
1245.937134 37.0 
1245.987671 41.0 
1246.038208 52.0 
1246.088867 42.0 
1246.129272 30.0 
1246.200073 20.0 
1246.230347 25.0 
1246.25061 28.0 
1246.270874 38.0 
1246.321411 32.0 
1246.361816 26.0 
1246.392212 39.0 
1246.412354 29.0 
1246.432617 29.0 
1246.483154 52.0 
1246.533691 28.0 
1246.553955 33.0 
1246.574219 34.0 
1246.604492 38.0 
1246.64502 44.0 
1246.665283 64.0 
1246.685425 51.0 
1246.756226 44.0 
1246.796753 24.0 
1246.857422 58.0 
1246.907959 51.0 
1246.948364 34.0 
1246.958496 34.0 
1246.97876 32.0 
1247.009155 20.0 
1247.049561 26.0 
1247.069824 31.0 
1247.110229 24.0 
1247.140625 34.0 
1247.170898 29.0 
1247.201294 30.0 
1247.261963 48.0 
1247.282227 36.0 
1247.292358 36.0 
1247.353027 46.0 
1247.383423 39.0 
1247.413696 18.0 
1247.444092 22.0 
1247.484497 55.0 
1247.514893 47.0 
1247.535156 33.0 
1247.575562 26.0 
1247.605957 29.0 
1247.646362 95.0 
1247.676758 30.0 
1247.717285 68.0 
1247.747559 42.0 
1247.788086 41.0 
1247.80835 32.0 
1247.818481 32.0 
1247.838623 26.0 
1247.889282 55.0 
1247.919556 56.0 
1247.949951 47.0 
1247.990479 43.0 
1248.020752 28.0 
1248.051147 38.0 
1248.091675 25.0 
1248.111816 29.0 
1248.13208 30.0 
1248.142212 30.0 
1248.172607 21.0 
1248.192871 29.0 
1248.213013 40.0 
1248.263672 38.0 
1248.294067 49.0 
1248.324341 31.0 
1248.364868 63.0 
1248.395264 46.0 
1248.415405 46.0 
1248.435669 27.0 
1248.466064 29.0 
1248.506592 26.0 
1248.526733 25.0 
1248.546997 20.0 
1248.567261 18.0 
1248.607788 31.0 
1248.668457 38.0 
1248.698853 28.0 
1248.708984 28.0 
1248.73938 30.0 
1248.759644 37.0 
1248.779785 44.0 
1248.820312 32.0 
1248.840576 42.0 
1248.86084 34.0 
1248.901245 28.0 
1248.931641 37.0 
1248.951904 38.0 
1248.9823 35.0 
1249.032837 51.0 
1249.053101 47.0 
1249.093628 51.0 
1249.134155 58.0 
1249.184692 27.0 
1249.204956 32.0 
1249.255615 40.0 
1249.275879 48.0 
1249.306274 42.0 
1249.326538 26.0 
1249.34668 35.0 
1249.366943 43.0 
1249.407471 26.0 
1249.468262 65.0 
1249.559326 31.0 
1249.57959 35.0 
1249.620117 42.0 
1249.670776 48.0 
1249.731445 31.0 
1249.782104 34.0 
1249.842896 46.0 
1249.883423 38.0 
1249.903564 45.0 
1249.964355 15.0 
1250.004883 24.0 
1250.025146 23.0 
1250.04541 23.0 
1250.106201 44.0 
1250.16687 55.0 
1250.197266 40.0 
1250.237793 35.0 
1250.268188 34.0 
1250.288452 40.0 
1250.339111 32.0 
1250.379639 30.0 
1250.430298 52.0 
1250.491089 48.0 
1250.521362 24.0 
1250.541626 28.0 
1250.572021 57.0 
1250.592285 35.0 
1250.622681 31.0 
1250.663208 19.0 
1250.713867 38.0 
1250.744263 47.0 
1250.805054 33.0 
1250.815186 33.0 
1250.845581 40.0 
1250.886108 36.0 
1250.946899 60.0 
1250.987427 32.0 
1251.048218 60.0 
1251.088745 21.0 
1251.129272 43.0 
1251.159668 45.0 
1251.190063 25.0 
1251.210327 26.0 
1251.260986 39.0 
1251.352173 135.0 
1251.382568 39.0 
1251.412964 92.0 
1251.443359 32.0 
1251.453491 32.0 
1251.473755 65.0 
1251.534546 40.0 
1251.585205 45.0 
1251.625732 48.0 
1251.686523 27.0 
1251.727051 30.0 
1251.757446 24.0 
1251.767578 24.0 
1251.787842 20.0 
1251.808105 23.0 
1251.828369 22.0 
1251.858765 43.0 
1251.88916 25.0 
1251.919678 37.0 
1251.970337 36.0 
1251.990601 30.0 
1252.031128 30.0 
1252.071655 34.0 
1252.091919 27.0 
1252.132446 43.0 
1252.162842 61.0 
1252.193237 39.0 
1252.233765 31.0 
1252.264282 31.0 
1252.325073 52.0 
1252.365601 34.0 
1252.426392 48.0 
1252.456787 20.0 
1252.477051 27.0 
1252.527832 37.0 
1252.588623 46.0 
1252.619019 24.0 
1252.649414 42.0 
1252.689941 54.0 
1252.740723 42.0 
1252.791382 30.0 
1252.821777 56.0 
1252.8927 46.0 
1252.913086 37.0 
1252.93335 31.0 
1252.963745 24.0 
1253.004272 29.0 
1253.034668 22.0 
1253.075195 28.0 
1253.125977 53.0 
1253.14624 37.0 
1253.176636 24.0 
1253.217163 46.0 
1253.257812 45.0 
1253.288208 26.0 
1253.318604 15.0 
1253.348999 45.0 
1253.409912 43.0 
1253.450439 37.0 
1253.480835 35.0 
1253.501099 17.0 
1253.531616 32.0 
1253.55188 33.0 
1253.572144 40.0 
1253.643066 35.0 
1253.703979 28.0 
1253.754639 43.0 
1253.764771 43.0 
1253.785156 23.0 
1253.80542 27.0 
1253.835815 23.0 
1253.866211 27.0 
1253.876343 27.0 
1253.916992 34.0 
1253.987915 33.0 
1254.018433 43.0 
1254.05896 18.0 
1254.109741 36.0 
1254.119873 36.0 
1254.140137 21.0 
1254.170532 41.0 
1254.211182 24.0 
1254.231445 25.0 
1254.261841 37.0 
1254.292236 30.0 
1254.322754 17.0 
1254.353149 28.0 
1254.414062 53.0 
1254.444458 32.0 
1254.474854 33.0 
1254.515503 27.0 
1254.535767 32.0 
1254.576294 32.0 
1254.59668 30.0 
1254.627075 24.0 
1254.647339 23.0 
1254.687988 22.0 
1254.738647 50.0 
1254.769165 28.0 
1254.809692 41.0 
1254.829956 36.0 
1254.880737 36.0 
1254.94165 36.0 
1254.982178 19.0 
1255.012573 49.0 
1255.073486 44.0 
1255.134399 63.0 
1255.195312 52.0 
1255.23584 36.0 
1255.266357 38.0 
1255.286621 37.0 
1255.306885 35.0 
1255.357666 34.0 
1255.388062 17.0 
1255.428711 39.0 
1255.469238 39.0 
1255.530151 47.0 
1255.591064 40.0 
1255.651978 47.0 
1255.702759 50.0 
1255.763672 35.0 
1255.804199 28.0 
1255.844849 30.0 
1255.875244 29.0 
1255.915894 27.0 
1255.946289 34.0 
1255.976807 32.0 
1256.047852 22.0 
1256.088501 34.0 
1256.118896 35.0 
1256.149414 46.0 
1256.159546 46.0 
1256.200195 28.0 
1256.250854 44.0 
1256.311768 25.0 
1256.332153 33.0 
1256.362549 29.0 
1256.382935 29.0 
1256.403198 31.0 
1256.433594 39.0 
1256.453979 44.0 
1256.484375 32.0 
1256.525024 49.0 
1256.555542 50.0 
1256.596069 41.0 
1256.616455 48.0 
1256.6875 44.0 
1256.758545 45.0 
1256.809326 28.0 
1256.839844 30.0 
1256.880371 22.0 
1256.931152 37.0 
1256.951538 50.0 
1256.992065 41.0 
1257.022583 31.0 
1257.063232 38.0 
1257.093628 44.0 
1257.154663 15.0 
1257.205444 32.0 
1257.245972 27.0 
1257.276489 27.0 
1257.307007 27.0 
1257.357788 28.0 
1257.408569 20.0 
1257.428833 26.0 
1257.449097 29.0 
1257.469482 23.0 
1257.520264 30.0 
1257.611694 43.0 
1257.64209 26.0 
1257.672607 27.0 
1257.743774 43.0 
1257.764038 47.0 
1257.814819 20.0 
1257.855469 40.0 
1257.885986 26.0 
1257.916382 39.0 
1257.967163 54.0 
1258.028198 62.0 
1258.068848 36.0 
1258.129761 35.0 
1258.180542 42.0 
1258.241577 31.0 
1258.282104 42.0 
1258.34314 37.0 
1258.373657 25.0 
1258.404053 37.0 
1258.47522 45.0 
1258.526001 38.0 
1258.576782 28.0 
1258.6073 38.0 
1258.637817 26.0 
1258.678467 41.0 
1258.719116 44.0 
1258.780029 24.0 
1258.810547 31.0 
1258.851196 33.0 
1258.871582 42.0 
1258.922363 49.0 
1258.99353 40.0 
1259.054443 39.0 
1259.095093 42.0 
1259.115479 36.0 
1259.145996 22.0 
1259.16626 33.0 
1259.196777 42.0 
1259.217041 46.0 
1259.257812 27.0 
1259.298462 28.0 
1259.308594 28.0 
1259.349243 38.0 
1259.369629 27.0 
1259.410278 57.0 
1259.46106 49.0 
1259.522095 37.0 
1259.593262 35.0 
1259.674561 37.0 
1259.735474 27.0 
1259.796509 44.0 
1259.847412 30.0 
1259.918579 30.0 
1259.979492 50.0 
1259.999878 37.0 
1260.040527 42.0 
1260.071045 44.0 
1260.111694 36.0 
1260.13208 45.0 
1260.193115 33.0 
1260.223511 35.0 
1260.243896 27.0 
1260.254028 27.0 
1260.304932 45.0 
1260.345581 19.0 
1260.355713 19.0 
1260.376099 29.0 
1260.396484 40.0 
1260.416748 35.0 
1260.437134 33.0 
1260.467651 21.0 
1260.498169 24.0 
1260.538818 41.0 
1260.599854 22.0 
1260.620117 25.0 
1260.640503 30.0 
1260.691284 49.0 
1260.701538 49.0 
1260.732056 39.0 
1260.752319 28.0 
1260.803223 49.0 
1260.864258 53.0 
1260.915039 32.0 
1260.945557 35.0 
1260.965942 42.0 
1260.99646 33.0 
1261.077881 36.0 
1261.11853 38.0 
1261.138916 29.0 
1261.15918 36.0 
1261.189697 35.0 
1261.220215 23.0 
1261.250732 31.0 
1261.260986 31.0 
1261.28125 25.0 
1261.322021 35.0 
1261.352539 34.0 
1261.362671 34.0 
1261.393188 20.0 
1261.454224 31.0 
1261.474609 32.0 
1261.515259 35.0 
1261.576294 33.0 
1261.616943 59.0 
1261.667847 29.0 
1261.688232 36.0 
1261.708618 35.0 
1261.759399 41.0 
1261.810303 42.0 
1261.861206 49.0 
1261.922241 29.0 
1261.932373 29.0 
1261.983276 42.0 
1262.044312 43.0 
1262.085083 34.0 
1262.146118 39.0 
1262.166504 34.0 
1262.207153 51.0 
1262.237671 30.0 
1262.258057 29.0 
1262.298706 37.0 
1262.349609 23.0 
1262.359863 23.0 
1262.400513 27.0 
1262.420898 26.0 
1262.451416 26.0 
1262.492065 41.0 
1262.563354 60.0 
1262.62439 46.0 
1262.654907 38.0 
1262.665161 38.0 
1262.685547 27.0 
1262.726196 45.0 
1262.756714 36.0 
1262.807617 31.0 
1262.868652 45.0 
1262.899292 33.0 
1262.919556 25.0 
1262.950073 12.0 
1262.970459 24.0 
1263.000977 48.0 
1263.031616 28.0 
1263.08252 44.0 
1263.123169 28.0 
1263.143555 35.0 
1263.16394 24.0 
1263.20459 39.0 
1263.255493 25.0 
1263.275879 27.0 
1263.296265 34.0 
1263.347168 36.0 
1263.377686 26.0 
1263.398071 25.0 
1263.46936 26.0 
1263.499878 28.0 
1263.530396 34.0 
1263.550781 29.0 
1263.591553 37.0 
1263.62207 23.0 
1263.672974 35.0 
1263.703491 39.0 
1263.754395 28.0 
1263.795166 29.0 
1263.815552 20.0 
1263.856201 33.0 
1263.896973 23.0 
1263.92749 39.0 
1263.998779 44.0 
1264.039551 33.0 
1264.090454 43.0 
1264.100708 43.0 
1264.151611 28.0 
1264.192261 29.0 
1264.243286 40.0 
1264.283936 29.0 
1264.324707 35.0 
1264.355225 31.0 
1264.385864 26.0 
1264.426514 34.0 
1264.467285 32.0 
1264.497803 35.0 
1264.528442 31.0 
1264.569214 28.0 
1264.599731 34.0 
1264.630249 31.0 
1264.660889 32.0 
1264.691406 23.0 
1264.721924 30.0 
1264.783081 28.0 
1264.823853 35.0 
1264.844238 19.0 
1264.864624 20.0 
1264.884888 36.0 
1264.925659 35.0 
1264.996948 27.0 
1265.017334 34.0 
1265.047974 39.0 
1265.088745 33.0 
1265.129395 35.0 
1265.160034 27.0 
1265.190552 25.0 
1265.241455 48.0 
1265.261841 39.0 
1265.302612 22.0 
1265.333252 50.0 
1265.414673 30.0 
1265.445312 63.0 
1265.50647 56.0 
1265.526855 45.0 
1265.567505 32.0 
1265.598145 28.0 
1265.628662 20.0 
1265.638916 20.0 
1265.659302 38.0 
1265.669434 38.0 
1265.700073 38.0 
1265.720459 36.0 
1265.771362 26.0 
1265.83252 35.0 
1265.873291 32.0 
1265.903809 32.0 
1265.924194 33.0 
1265.94458 28.0 
1265.97522 27.0 
1266.015991 36.0 
1266.036377 28.0 
1266.077148 37.0 
1266.107666 28.0 
1266.148438 31.0 
1266.189209 16.0 
1266.209595 25.0 
1266.22998 30.0 
1266.301392 39.0 
1266.331909 34.0 
1266.352295 30.0 
1266.40332 41.0 
1266.444092 48.0 
1266.454224 48.0 
1266.505249 29.0 
1266.525635 33.0 
1266.576538 29.0 
1266.586792 29.0 
1266.607178 37.0 
1266.658081 42.0 
1266.698853 34.0 
1266.729492 41.0 
1266.770264 47.0 
1266.831421 37.0 
1266.882446 41.0 
1266.902832 34.0 
1266.923218 33.0 
1266.953735 32.0 
1267.004761 19.0 
1267.025146 17.0 
1267.055664 44.0 
1267.106689 33.0 
1267.137329 36.0 
1267.157715 61.0 
1267.198486 47.0 
1267.218872 45.0 
1267.290283 52.0 
1267.341187 47.0 
1267.371826 30.0 
1267.412598 29.0 
1267.432983 31.0 
1267.473755 32.0 
1267.484009 32.0 
1267.514526 31.0 
1267.565552 35.0 
1267.585938 36.0 
1267.626709 24.0 
1267.657349 51.0 
1267.687988 48.0 
1267.708374 30.0 
1267.72876 34.0 
1267.749146 53.0 
1267.789917 42.0 
1267.830688 33.0 
1267.861328 26.0 
1267.891968 81.0 
1267.953125 48.0 
1267.983643 37.0 
1268.024536 36.0 
1268.044922 35.0 
1268.085693 26.0 
1268.136719 41.0 
1268.187744 29.0 
1268.238647 32.0 
1268.269287 31.0 
1268.279541 31.0 
1268.340698 21.0 
1268.371338 39.0 
1268.401978 19.0 
1268.452881 53.0 
1268.463135 53.0 
1268.493774 25.0 
1268.554932 38.0 
1268.626343 45.0 
1268.667114 29.0 
1268.697754 35.0 
1268.728394 53.0 
1268.748779 44.0 
1268.769165 38.0 
1268.799805 47.0 
1268.85083 28.0 
1268.901855 38.0 
1268.922241 33.0 
1268.973267 37.0 
1269.054932 65.0 
1269.075317 40.0 
1269.116089 32.0 
1269.136475 26.0 
1269.156982 19.0 
1269.1875 23.0 
1269.228394 39.0 
1269.248779 38.0 
1269.330444 39.0 
1269.371216 22.0 
1269.401855 25.0 
1269.452881 25.0 
1269.483521 42.0 
1269.503906 38.0 
1269.534546 28.0 
1269.575317 31.0 
1269.636597 34.0 
1269.697754 44.0 
1269.738647 25.0 
1269.748779 25.0 
1269.769287 32.0 
1269.810059 30.0 
1269.840698 33.0 
1269.871338 36.0 
1269.901978 34.0 
1269.932617 32.0 
1269.953003 31.0 
1269.993774 30.0 
1270.024414 34.0 
1270.0448 39.0 
1270.095947 39.0 
1270.116333 42.0 
1270.136719 46.0 
1270.177612 23.0 
1270.20813 45.0 
1270.279663 31.0 
1270.310303 24.0 
1270.340942 20.0 
1270.361328 23.0 
1270.381714 40.0 
1270.432739 30.0 
1270.453247 24.0 
1270.483765 41.0 
1270.514404 33.0 
1270.534912 51.0 
1270.545044 51.0 
1270.585938 38.0 
1270.606323 32.0 
1270.657349 35.0 
1270.677856 36.0 
1270.698242 20.0 
1270.749268 23.0 
1270.779907 26.0 
1270.810547 37.0 
1270.88208 39.0 
1270.933105 31.0 
1270.943237 31.0 
1270.994385 28.0 
1271.035156 26.0 
1271.07605 39.0 
1271.106689 29.0 
1271.147583 34.0 
1271.198608 47.0 
1271.239502 24.0 
1271.259888 36.0 
1271.300781 45.0 
1271.341553 44.0 
1271.362061 47.0 
1271.402832 44.0 
1271.453979 42.0 
1271.515259 42.0 
1271.535645 39.0 
1271.55603 58.0 
1271.58667 33.0 
1271.627563 54.0 
1271.647949 65.0 
1271.699097 42.0 
1271.729736 47.0 
1271.760376 33.0 
1271.791016 45.0 
1271.862549 55.0 
1271.90332 48.0 
1271.954468 45.0 
1272.015747 28.0 
1272.036133 29.0 
1272.077026 34.0 
1272.138306 41.0 
1272.179199 32.0 
1272.230225 35.0 
1272.260864 33.0 
1272.291504 39.0 
1272.322266 45.0 
1272.342651 38.0 
1272.383545 33.0 
1272.414185 31.0 
1272.444824 24.0 
1272.485718 30.0 
1272.526611 25.0 
1272.577637 28.0 
1272.628784 40.0 
1272.67981 37.0 
1272.730957 47.0 
1272.771851 45.0 
1272.83313 29.0 
1272.86377 23.0 
1272.874023 23.0 
1272.884155 23.0 
1272.904663 22.0 
1272.955688 50.0 
1272.98645 23.0 
1273.027344 60.0 
1273.068115 36.0 
1273.149902 48.0 
1273.190796 24.0 
1273.221436 26.0 
1273.252075 27.0 
1273.282837 24.0 
1273.313477 62.0 
1273.38501 22.0 
1273.405396 29.0 
1273.456543 27.0 
1273.477051 40.0 
1273.528076 45.0 
1273.589478 71.0 
1273.630371 43.0 
1273.650757 55.0 
1273.661011 55.0 
1273.69165 17.0 
1273.72229 47.0 
1273.753052 29.0 
1273.793945 26.0 
1273.824585 33.0 
1273.844971 35.0 
1273.896118 30.0 
1273.947266 38.0 
1273.998291 65.0 
1274.039185 17.0 
1274.059692 19.0 
1274.100586 22.0 
1274.11084 22.0 
1274.121094 22.0 
1274.172119 41.0 
1274.223267 32.0 
1274.243774 36.0 
1274.26416 36.0 
1274.2948 33.0 
1274.315308 32.0 
1274.335815 34.0 
1274.356201 30.0 
1274.376709 26.0 
1274.427734 23.0 
1274.448242 13.0 
1274.478882 32.0 
1274.560669 32.0 
1274.591431 28.0 
1274.62207 29.0 
1274.642578 31.0 
1274.662964 43.0 
1274.714111 42.0 
1274.744751 23.0 
1274.775513 39.0 
1274.795898 20.0 
1274.8573 40.0 
1274.877686 32.0 
1274.918701 39.0 
1274.959595 37.0 
1274.97998 30.0 
1275.020874 27.0 
1275.051636 21.0 
1275.082275 37.0 
1275.113037 15.0 
1275.143677 41.0 
1275.18457 23.0 
1275.21521 29.0 
1275.235718 37.0 
1275.256226 28.0 
1275.297119 43.0 
1275.358521 41.0 
1275.38916 19.0 
1275.4198 20.0 
1275.450562 25.0 
1275.481201 25.0 
1275.511963 22.0 
1275.542603 33.0 
1275.573242 28.0 
1275.614258 35.0 
1275.644897 28.0 
1275.685791 35.0 
1275.716553 25.0 
1275.736938 20.0 
1275.788086 26.0 
1275.808594 25.0 
1275.849487 16.0 
1275.880249 21.0 
1275.910889 40.0 
1275.94165 26.0 
1275.97229 42.0 
1276.013184 43.0 
1276.033691 28.0 
1276.095093 39.0 
1276.135986 50.0 
1276.156494 39.0 
1276.17688 38.0 
1276.197388 34.0 
1276.238281 28.0 
1276.269043 47.0 
1276.309937 48.0 
1276.361084 54.0 
1276.381592 44.0 
1276.412231 34.0 
1276.453247 61.0 
1276.483887 32.0 
1276.494141 32.0 
1276.545288 38.0 
1276.57605 38.0 
1276.606689 48.0 
1276.637451 21.0 
1276.668091 56.0 
1276.709106 39.0 
1276.729492 42.0 
1276.780762 36.0 
1276.801147 42.0 
1276.842163 40.0 
1276.872803 36.0 
1276.913818 37.0 
1276.944458 36.0 
1276.97522 24.0 
1276.995605 27.0 
1277.026367 34.0 
1277.077515 26.0 
1277.108276 29.0 
1277.169678 30.0 
1277.210571 40.0 
1277.231079 37.0 
1277.261841 21.0 
1277.302734 38.0 
1277.333496 21.0 
1277.353882 39.0 
1277.405151 44.0 
1277.456299 51.0 
1277.507446 55.0 
1277.558716 22.0 
1277.599609 40.0 
1277.640625 14.0 
1277.661011 23.0 
1277.681519 27.0 
1277.74292 20.0 
1277.794189 18.0 
1277.845337 32.0 
1277.906738 39.0 
1277.927246 34.0 
1277.968262 37.0 
1278.009155 60.0 
1278.039917 24.0 
1278.080933 31.0 
1278.101318 35.0 
1278.142334 24.0 
1278.193481 35.0 
1278.213989 29.0 
1278.244751 49.0 
1278.306152 42.0 
1278.336914 48.0 
1278.357422 49.0 
1278.418823 49.0 
1278.459839 29.0 
1278.490479 13.0 
1278.52124 45.0 
1278.582642 16.0 
1278.623657 30.0 
1278.695312 27.0 
1278.736328 28.0 
1278.756836 27.0 
1278.777344 16.0 
1278.807983 22.0 
1278.838745 27.0 
1278.879761 18.0 
1278.920654 19.0 
1278.96167 34.0 
1279.023193 40.0 
1279.084595 36.0 
1279.115356 35.0 
1279.12561 35.0 
1279.146118 28.0 
1279.187012 41.0 
1279.217773 31.0 
1279.238281 20.0 
1279.258789 23.0 
1279.299683 59.0 
1279.340698 44.0 
1279.381714 50.0 
1279.412476 68.0 
1279.453369 42.0 
1279.494385 26.0 
1279.545654 19.0 
1279.596802 31.0 
1279.61731 31.0 
1279.678833 36.0 
1279.689087 36.0 
1279.730103 29.0 
1279.740356 29.0 
1279.770996 45.0 
1279.812012 28.0 
1279.842773 41.0 
1279.883789 35.0 
1279.914551 43.0 
1279.94519 33.0 
1279.986206 36.0 
1280.016968 35.0 
1280.057983 31.0 
1280.088745 32.0 
1280.109253 40.0 
1280.150146 41.0 
1280.180908 18.0 
1280.221924 38.0 
1280.252686 52.0 
1280.293701 39.0 
1280.334717 21.0 
1280.365479 33.0 
1280.385986 39.0 
1280.406372 34.0 
1280.42688 29.0 
1280.478149 34.0 
1280.488403 34.0 
1280.549927 47.0 
1280.601196 46.0 
1280.621704 31.0 
1280.631958 31.0 
1280.672974 36.0 
1280.693481 37.0 
1280.724121 27.0 
1280.744629 32.0 
1280.765137 47.0 
1280.785645 41.0 
1280.816406 46.0 
1280.867676 54.0 
1280.87793 54.0 
1280.929199 31.0 
1280.959961 36.0 
1281.000977 25.0 
1281.031738 34.0 
1281.093262 27.0 
1281.144531 34.0 
1281.195801 29.0 
1281.24707 30.0 
1281.318726 45.0 
1281.369995 48.0 
1281.411011 23.0 
1281.46228 40.0 
1281.472534 40.0 
1281.544312 28.0 
1281.575073 45.0 
1281.616089 31.0 
1281.646851 21.0 
1281.667358 17.0 
1281.718628 36.0 
1281.728882 36.0 
1281.759644 30.0 
1281.780151 29.0 
1281.821289 29.0 
1281.841797 37.0 
1281.882812 39.0 
1281.913574 43.0 
1281.934082 47.0 
1281.964844 26.0 
1282.016113 43.0 
1282.036621 22.0 
1282.077637 35.0 
1282.108398 31.0 
1282.159668 48.0 
1282.231445 31.0 
1282.292969 34.0 
1282.333984 31.0 
1282.39563 34.0 
1282.426392 17.0 
1282.446899 21.0 
1282.498169 25.0 
1282.569946 53.0 
1282.63147 25.0 
1282.662231 23.0 
1282.682861 33.0 
1282.744385 44.0 
1282.816162 29.0 
1282.846924 39.0 
1282.887939 31.0 
1282.908447 31.0 
1282.939331 33.0 
1282.970093 36.0 
1282.990601 31.0 
1283.000854 31.0 
1283.04187 41.0 
1283.062378 40.0 
1283.113647 66.0 
1283.144531 32.0 
1283.165039 30.0 
1283.185547 27.0 
1283.206055 30.0 
1283.24707 27.0 
1283.288086 39.0 
1283.349731 29.0 
1283.431763 37.0 
1283.462524 27.0 
1283.483032 31.0 
1283.554932 40.0 
1283.616455 27.0 
1283.636963 24.0 
1283.667847 22.0 
1283.719116 38.0 
1283.760132 17.0 
1283.80127 50.0 
1283.852539 20.0 
1283.873047 25.0 
1283.903809 28.0 
1283.9552 25.0 
1283.985962 20.0 
1284.026978 29.0 
1284.078369 42.0 
1284.129639 64.0 
1284.170654 33.0 
1284.191284 32.0 
1284.2323 55.0 
1284.283569 22.0 
1284.334961 44.0 
1284.355469 42.0 
1284.437622 38.0 
1284.468384 30.0 
1284.488892 31.0 
1284.519775 48.0 
1284.581299 32.0 
1284.612061 28.0 
1284.622437 28.0 
1284.653198 32.0 
1284.673706 31.0 
1284.714844 33.0 
1284.735352 39.0 
1284.755859 30.0 
1284.817505 20.0 
1284.879028 38.0 
1284.920166 20.0 
1284.961182 38.0 
1285.002319 34.0 
1285.022827 33.0 
1285.053589 27.0 
1285.094727 20.0 
1285.125488 26.0 
1285.145996 19.0 
1285.187134 40.0 
1285.217896 15.0 
1285.259033 66.0 
1285.320557 28.0 
1285.341064 27.0 
1285.382202 29.0 
1285.433594 49.0 
1285.495117 24.0 
1285.515747 26.0 
1285.536255 22.0 
1285.577271 40.0 
1285.638916 54.0 
1285.710815 42.0 
1285.751953 27.0 
1285.782715 21.0 
1285.823853 34.0 
1285.854614 30.0 
1285.926514 40.0 
1285.967651 32.0 
1285.998413 19.0 
1286.029297 28.0 
1286.060059 32.0 
1286.131958 24.0 
1286.142212 24.0 
1286.173096 14.0 
1286.193604 17.0 
1286.224365 32.0 
1286.244995 33.0 
1286.265503 26.0 
1286.327148 40.0 
1286.388794 23.0 
1286.429932 19.0 
1286.470947 32.0 
1286.501831 20.0 
1286.542847 34.0 
1286.604492 48.0 
1286.625122 51.0 
1286.666138 25.0 
1286.697021 51.0 
1286.717529 40.0 
1286.727783 40.0 
1286.758667 24.0 
1286.789429 29.0 
1286.84082 48.0 
1286.881958 29.0 
1286.902466 24.0 
1286.943604 39.0 
1286.974487 28.0 
1287.005249 39.0 
1287.046387 34.0 
1287.077148 34.0 
1287.097778 27.0 
1287.14917 33.0 
1287.190186 27.0 
1287.251831 52.0 
1287.292969 31.0 
1287.313599 45.0 
1287.334106 36.0 
1287.385498 43.0 
1287.416382 51.0 
1287.488281 29.0 
1287.529419 32.0 
1287.560181 14.0 
1287.601318 33.0 
1287.662964 45.0 
1287.673218 45.0 
1287.693848 39.0 
1287.734985 46.0 
1287.786377 25.0 
1287.806885 29.0 
1287.858276 19.0 
1287.878906 23.0 
1287.909668 39.0 
1287.96106 41.0 
1287.981689 31.0 
1288.022705 42.0 
1288.053589 28.0 
1288.084473 43.0 
1288.094727 43.0 
1288.12561 37.0 
1288.146118 41.0 
1288.19751 53.0 
1288.21814 38.0 
1288.238647 44.0 
1288.279785 68.0 
1288.320923 27.0 
1288.382568 40.0 
1288.423706 42.0 
1288.43396 42.0 
1288.45459 28.0 
1288.475098 35.0 
1288.516235 35.0 
1288.536743 32.0 
1288.588257 34.0 
1288.639648 32.0 
1288.660156 21.0 
1288.67041 21.0 
1288.701294 46.0 
1288.732178 47.0 
1288.773315 31.0 
1288.804199 38.0 
1288.845337 44.0 
1288.896729 49.0 
1288.917236 50.0 
1288.937866 48.0 
1288.999512 39.0 
1289.030396 24.0 
1289.061279 45.0 
1289.143555 37.0 
1289.164062 36.0 
1289.2052 21.0 
1289.236084 39.0 
1289.277222 22.0 
1289.338867 39.0 
1289.359497 38.0 
1289.400635 32.0 
1289.452026 43.0 
1289.48291 36.0 
1289.513794 39.0 
1289.544678 34.0 
1289.565186 39.0 
1289.616577 32.0 
1289.637207 31.0 
1289.668091 23.0 
1289.698975 37.0 
1289.750366 43.0 
1289.801758 47.0 
1289.853271 39.0 
1289.873779 41.0 
1289.894409 41.0 
1289.914917 39.0 
1289.945801 51.0 
1289.956055 51.0 
1289.986938 25.0 
1290.017822 38.0 
1290.05896 51.0 
1290.07959 37.0 
1290.120728 34.0 
1290.182373 46.0 
1290.213257 23.0 
1290.244141 20.0 
1290.285278 33.0 
1290.305908 29.0 
1290.326416 31.0 
1290.347046 31.0 
1290.37793 37.0 
1290.398438 44.0 
1290.460205 38.0 
1290.501343 45.0 
1290.542603 21.0 
1290.56311 41.0 
1290.58374 26.0 
1290.635132 25.0 
1290.655762 25.0 
1290.686646 32.0 
1290.738037 35.0 
1290.758667 32.0 
1290.810059 25.0 
1290.851318 33.0 
1290.88208 27.0 
1290.90271 28.0 
1290.92334 36.0 
1290.943848 33.0 
1290.974731 28.0 
1290.995361 33.0 
1291.015869 32.0 
1291.036499 27.0 
1291.067383 40.0 
1291.14978 40.0 
1291.170288 41.0 
1291.201172 45.0 
1291.252686 33.0 
1291.262939 33.0 
1291.273193 33.0 
1291.304077 29.0 
1291.334961 23.0 
1291.376221 29.0 
1291.406982 24.0 
1291.437866 30.0 
1291.479126 17.0 
1291.520264 57.0 
1291.571777 39.0 
1291.643799 47.0 
1291.684937 59.0 
1291.75708 36.0 
1291.777588 22.0 
1291.808472 21.0 
1291.829102 19.0 
1291.870239 50.0 
1291.932007 18.0 
1291.952637 25.0 
1292.00415 37.0 
1292.065918 51.0 
1292.096802 40.0 
1292.168823 28.0 
1292.210083 29.0 
1292.220337 29.0 
1292.261475 23.0 
1292.282104 20.0 
1292.343872 17.0 
1292.374756 26.0 
1292.42627 28.0 
1292.457153 21.0 
1292.488037 31.0 
1292.508667 19.0 
1292.529297 28.0 
1292.560181 27.0 
1292.601318 31.0 
1292.632202 18.0 
1292.652832 14.0 
1292.7146 37.0 
1292.755859 45.0 
1292.786743 36.0 
1292.817627 20.0 
1292.848511 23.0 
1292.879395 25.0 
1292.910278 38.0 
1292.941162 26.0 
1293.003052 59.0 
1293.044189 25.0 
1293.075073 26.0 
1293.147217 36.0 
1293.178101 28.0 
1293.19873 35.0 
1293.208984 35.0 
1293.239868 42.0 
1293.250244 42.0 
1293.281128 45.0 
1293.301758 28.0 
1293.322266 21.0 
1293.373779 36.0 
1293.415039 41.0 
1293.456177 44.0 
1293.52832 40.0 
1293.559204 50.0 
1293.610718 32.0 
1293.672607 17.0 
1293.682861 17.0 
1293.713745 30.0 
1293.775635 28.0 
1293.827148 36.0 
1293.847656 27.0 
1293.89917 56.0 
1293.930176 43.0 
1293.96106 30.0 
1294.002319 36.0 
1294.022827 42.0 
1294.053833 35.0 
1294.094971 27.0 
1294.13623 44.0 
1294.167114 30.0 
1294.187744 36.0 
1294.218628 37.0 
1294.259888 36.0 
1294.290771 39.0 
1294.321655 36.0 
1294.352661 27.0 
1294.393799 37.0 
1294.414429 37.0 
1294.435059 34.0 
1294.455688 28.0 
1294.496826 33.0 
1294.527832 21.0 
1294.558716 25.0 
1294.5896 39.0 
1294.630859 36.0 
1294.692749 30.0 
1294.733887 53.0 
1294.775146 37.0 
1294.82666 55.0 
1294.878174 58.0 
1294.90918 27.0 
1294.940063 37.0 
1294.970947 35.0 
1295.001953 27.0 
1295.032837 25.0 
1295.053467 31.0 
1295.063721 31.0 
1295.12561 39.0 
1295.197754 40.0 
1295.239014 25.0 
1295.290527 30.0 
1295.373047 40.0 
1295.434814 24.0 
1295.46582 37.0 
1295.50708 28.0 
1295.537964 39.0 
1295.558594 32.0 
1295.589478 36.0 
1295.610107 50.0 
1295.671997 24.0 
1295.702881 28.0 
1295.713257 28.0 
1295.733887 24.0 
1295.764771 42.0 
1295.80603 24.0 
1295.857544 42.0 
1295.878174 32.0 
1295.90918 39.0 
1295.92981 28.0 
1295.950439 51.0 
1296.012207 44.0 
1296.063843 28.0 
1296.094727 34.0 
1296.156616 39.0 
1296.197876 41.0 
1296.24939 64.0 
1296.290649 23.0 
1296.331909 37.0 
1296.383545 40.0 
1296.424805 21.0 
1296.455688 27.0 
1296.486572 34.0 
1296.507202 32.0 
1296.527832 29.0 
1296.548462 32.0 
1296.579468 33.0 
1296.610352 34.0 
1296.641357 32.0 
1296.672241 40.0 
1296.703247 20.0 
1296.734131 36.0 
1296.754761 38.0 
1296.785767 35.0 
1296.827026 34.0 
1296.83728 34.0 
1296.85791 33.0 
1296.868286 33.0 
1296.888916 32.0 
1296.909546 29.0 
1296.950806 22.0 
1296.981689 16.0 
1297.012695 33.0 
1297.033325 30.0 
1297.115845 49.0 
1297.157104 34.0 
1297.20874 35.0 
1297.218994 35.0 
1297.25 33.0 
1297.280884 27.0 
1297.29126 27.0 
1297.322144 43.0 
1297.353149 47.0 
1297.384033 34.0 
1297.435669 49.0 
1297.487183 26.0 
1297.549194 32.0 
1297.580078 26.0 
1297.621338 34.0 
1297.641968 36.0 
1297.672974 40.0 
1297.714233 44.0 
1297.745239 50.0 
1297.786499 42.0 
1297.827759 50.0 
1297.848389 43.0 
1297.879272 45.0 
1297.930908 40.0 
1297.972168 53.0 
1298.03418 40.0 
1298.065063 22.0 
1298.096069 29.0 
1298.116699 39.0 
1298.137329 48.0 
1298.199219 66.0 
1298.240479 41.0 
1298.271484 41.0 
1298.30249 50.0 
1298.32312 40.0 
1298.374756 36.0 
1298.395386 45.0 
1298.42627 37.0 
1298.467529 43.0 
1298.488281 49.0 
1298.539795 25.0 
1298.570801 34.0 
1298.622437 38.0 
1298.663696 33.0 
1298.704956 46.0 
1298.735962 24.0 
1298.777222 69.0 
1298.828857 36.0 
1298.880493 24.0 
1298.901123 31.0 
1298.952759 36.0 
1298.973389 24.0 
1298.994019 17.0 
1299.035278 49.0 
1299.066284 12.0 
1299.09729 22.0 
1299.13855 26.0 
1299.169556 27.0 
1299.200562 21.0 
1299.241821 41.0 
1299.272827 30.0 
1299.303711 25.0 
1299.334717 43.0 
1299.375977 28.0 
1299.396729 26.0 
1299.437988 43.0 
1299.479248 36.0 
1299.530884 44.0 
1299.572266 37.0 
1299.644531 30.0 
1299.696167 47.0 
1299.747803 48.0 
1299.799438 33.0 
1299.820068 43.0 
1299.840698 18.0 
1299.892334 55.0 
1299.94397 35.0 
1299.995605 50.0 
1300.005981 50.0 
1300.036865 34.0 
1300.057617 41.0 
1300.119507 54.0 
1300.171143 41.0 
1300.202148 26.0 
1300.233154 39.0 
1300.28479 33.0 
1300.315796 24.0 
1300.336426 33.0 
1300.377808 48.0 
1300.398438 39.0 
1300.419067 34.0 
1300.439697 28.0 
1300.470703 48.0 
1300.491333 29.0 
1300.532715 28.0 
1300.553345 39.0 
1300.60498 30.0 
1300.62561 22.0 
1300.666992 21.0 
1300.697998 32.0 
1300.729004 33.0 
1300.76001 54.0 
1300.80127 31.0 
1300.832275 48.0 
1300.852905 38.0 
1300.904541 46.0 
1300.956299 31.0 
1300.997559 28.0 
1301.018188 24.0 
1301.05957 48.0 
1301.090576 39.0 
1301.121582 37.0 
1301.162842 35.0 
1301.204224 34.0 
1301.235229 29.0 
1301.286865 37.0 
1301.317871 16.0 
1301.338501 19.0 
1301.359131 34.0 
1301.379883 46.0 
1301.410889 31.0 
1301.452148 48.0 
1301.483154 39.0 
1301.545166 109.0 
1301.596802 54.0 
1301.64856 114.0 
1301.689819 42.0 
1301.751831 35.0 
1301.782837 31.0 
1301.813843 24.0 
1301.834595 24.0 
1301.855225 35.0 
1301.90686 30.0 
1301.927612 41.0 
1301.958618 29.0 
1301.999878 20.0 
1302.02063 18.0 
1302.051636 20.0 
1302.082642 27.0 
1302.144653 23.0 
1302.185913 27.0 
1302.227295 36.0 
1302.258301 36.0 
1302.278931 32.0 
1302.340942 49.0 
1302.382324 46.0 
1302.423706 25.0 
1302.444336 23.0 
1302.485718 49.0 
1302.5271 35.0 
1302.558105 13.0 
1302.589111 38.0 
1302.630493 46.0 
1302.671753 25.0 
1302.682129 25.0 
1302.733887 34.0 
1302.764893 32.0 
1302.785522 28.0 
1302.795898 28.0 
1302.816528 17.0 
1302.837158 23.0 
1302.847534 23.0 
1302.87854 29.0 
1302.899292 25.0 
1302.950928 51.0 
1302.97168 52.0 
1303.012939 32.0 
1303.023315 32.0 
1303.054321 39.0 
1303.106079 36.0 
1303.126709 30.0 
1303.157715 45.0 
1303.178467 16.0 
1303.219727 39.0 
1303.250854 31.0 
1303.28186 21.0 
1303.343872 57.0 
1303.385254 13.0 
1303.41626 40.0 
1303.43689 54.0 
1303.499023 41.0 
1303.509277 41.0 
1303.540405 44.0 
1303.571411 20.0 
1303.602417 19.0 
1303.643799 44.0 
1303.674805 31.0 
1303.705811 26.0 
1303.736816 42.0 
1303.757568 39.0 
1303.788574 37.0 
1303.84021 53.0 
1303.871338 23.0 
1303.891968 21.0 
1303.91272 26.0 
1303.964355 43.0 
1304.005737 44.0 
1304.057495 23.0 
1304.109253 26.0 
1304.140259 41.0 
1304.181641 41.0 
1304.243652 40.0 
1304.326416 36.0 
1304.357422 47.0 
1304.38855 54.0 
1304.40918 47.0 
1304.450562 32.0 
1304.481567 24.0 
1304.512573 33.0 
1304.553955 41.0 
1304.585083 35.0 
1304.626465 53.0 
1304.657471 17.0 
1304.688477 59.0 
1304.740234 49.0 
1304.791992 28.0 
1304.822998 36.0 
1304.854004 34.0 
1304.895386 32.0 
1304.947144 34.0 
1304.988525 29.0 
1305.019653 39.0 
1305.061035 47.0 
1305.081665 42.0 
1305.123047 42.0 
1305.174805 36.0 
1305.216187 27.0 
1305.236938 27.0 
1305.27832 37.0 
1305.309326 29.0 
1305.381836 42.0 
1305.402466 40.0 
1305.433594 20.0 
1305.474976 32.0 
1305.505981 21.0 
1305.516357 21.0 
1305.547363 26.0 
1305.568115 29.0 
1305.578369 29.0 
1305.609497 41.0 
1305.619873 41.0 
1305.640503 42.0 
1305.650879 42.0 
1305.692261 25.0 
1305.713013 20.0 
1305.754395 48.0 
1305.806152 24.0 
1305.847534 35.0 
1305.85791 35.0 
1305.899292 44.0 
1305.961426 35.0 
1306.013184 40.0 
1306.054565 49.0 
1306.116699 57.0 
1306.147705 34.0 
1306.168457 31.0 
1306.189087 40.0 
1306.199463 40.0 
1306.220215 42.0 
1306.271973 21.0 
1306.334106 48.0 
1306.385864 28.0 
1306.396118 28.0 
1306.427246 55.0 
1306.499756 35.0 
1306.541138 48.0 
1306.613647 53.0 
1306.634277 50.0 
1306.665405 23.0 
1306.727539 54.0 
1306.799927 35.0 
1306.841431 19.0 
1306.862061 33.0 
1306.924194 22.0 
1306.996704 42.0 
1307.048462 44.0 
1307.069214 54.0 
1307.141724 40.0 
1307.183105 41.0 
1307.214233 17.0 
1307.245239 23.0 
1307.286621 43.0 
1307.348755 35.0 
1307.400635 35.0 
1307.431641 44.0 
1307.473145 33.0 
1307.493774 30.0 
1307.545654 44.0 
1307.587036 37.0 
1307.607788 35.0 
1307.638794 55.0 
1307.680298 53.0 
1307.711304 28.0 
1307.732056 66.0 
1307.783813 38.0 
1307.825317 35.0 
1307.845947 32.0 
1307.866699 34.0 
1307.897827 28.0 
1307.918457 32.0 
1307.939209 33.0 
1307.980591 52.0 
1307.990967 52.0 
1308.032471 28.0 
1308.063477 34.0 
1308.084229 50.0 
1308.146362 37.0 
1308.208618 48.0 
1308.25 31.0 
1308.281128 35.0 
1308.301758 33.0 
1308.364014 39.0 
1308.405396 26.0 
1308.457153 48.0 
1308.498657 44.0 
1308.540161 34.0 
1308.581543 38.0 
1308.612671 42.0 
1308.633301 32.0 
1308.674805 38.0 
1308.736938 35.0 
1308.778442 26.0 
1308.819824 33.0 
1308.840576 26.0 
1308.871704 25.0 
1308.902832 27.0 
1308.975342 27.0 
1308.996094 21.0 
1309.0271 30.0 
1309.047852 32.0 
1309.078979 31.0 
1309.089355 31.0 
1309.109985 27.0 
1309.161865 21.0 
1309.192993 51.0 
1309.244751 17.0 
1309.286255 32.0 
1309.348389 24.0 
1309.389893 36.0 
1309.410645 37.0 
1309.452026 59.0 
1309.472778 33.0 
1309.514282 20.0 
1309.545288 49.0 
1309.607544 62.0 
1309.649048 22.0 
1309.700806 57.0 
1309.74231 45.0 
1309.773438 38.0 
1309.794067 29.0 
1309.825195 34.0 
1309.845947 31.0 
1309.887451 36.0 
1309.918579 26.0 
1309.949585 35.0 
1309.970337 43.0 
1310.001465 51.0 
1310.042969 32.0 
1310.073975 50.0 
1310.094727 33.0 
1310.125854 45.0 
1310.156982 39.0 
1310.198486 20.0 
1310.208862 20.0 
1310.219238 20.0 
1310.229492 20.0 
1310.250244 28.0 
1310.281372 21.0 
1310.322876 31.0 
1310.354004 31.0 
1310.385132 22.0 
1310.426514 33.0 
1310.447266 31.0 
1310.478394 47.0 
1310.519897 24.0 
1310.551025 41.0 
1310.571777 33.0 
1310.613159 45.0 
1310.685791 33.0 
1310.706543 26.0 
1310.758423 36.0 
1310.830933 36.0 
1310.851685 21.0 
1310.893188 47.0 
1310.91394 41.0 
1310.986572 29.0 
1311.048706 44.0 
1311.09021 27.0 
1311.121338 28.0 
1311.162842 30.0 
1311.214722 24.0 
1311.24585 32.0 
1311.266602 28.0 
1311.276978 28.0 
1311.318481 38.0 
1311.370239 26.0 
1311.453247 48.0 
1311.505127 56.0 
1311.557007 42.0 
1311.608887 38.0 
1311.660767 50.0 
1311.702271 29.0 
1311.723022 34.0 
1311.764526 46.0 
1311.805908 31.0 
1311.837036 24.0 
1311.868164 46.0 
1311.899292 37.0 
1311.940796 35.0 
1311.992676 42.0 
1312.054932 43.0 
1312.096436 43.0 
1312.137939 56.0 
1312.179443 33.0 
1312.189819 33.0 
1312.252075 33.0 
1312.283203 43.0 
1312.324707 27.0 
1312.355835 31.0 
1312.386963 42.0 
1312.438843 30.0 
1312.501099 29.0 
1312.532227 26.0 
1312.584106 53.0 
1312.604858 27.0 
1312.62561 33.0 
1312.646362 21.0 
1312.687988 72.0 
1312.770996 47.0 
1312.791748 31.0 
1312.802124 31.0 
1312.86438 54.0 
1312.885132 51.0 
1312.926636 36.0 
1312.947388 46.0 
1312.978516 52.0 
1312.999268 53.0 
1313.02002 47.0 
1313.061523 35.0 
1313.113403 26.0 
1313.165405 26.0 
1313.206909 32.0 
1313.227661 42.0 
1313.269165 26.0 
1313.300293 40.0 
1313.331421 45.0 
1313.352173 36.0 
1313.424805 37.0 
1313.445557 24.0 
1313.466431 30.0 
1313.518311 44.0 
1313.601318 35.0 
1313.642822 30.0 
1313.653198 30.0 
1313.7052 44.0 
1313.725952 34.0 
1313.777832 26.0 
1313.819336 45.0 
1313.881592 28.0 
1313.912842 32.0 
1313.94397 28.0 
1313.975098 31.0 
1313.985474 31.0 
1313.99585 31.0 
1314.016602 20.0 
1314.037354 26.0 
1314.058105 40.0 
1314.099731 34.0 
1314.130859 42.0 
1314.161987 22.0 
1314.193115 23.0 
1314.234619 30.0 
1314.265869 33.0 
1314.328125 38.0 
1314.369629 25.0 
1314.390381 23.0 
1314.432007 22.0 
1314.463135 18.0 
1314.483887 28.0 
1314.504639 30.0 
1314.525391 33.0 
1314.546265 36.0 
1314.567017 18.0 
1314.598145 24.0 
1314.608521 24.0 
1314.650024 24.0 
1314.670776 28.0 
1314.69165 36.0 
1314.712402 35.0 
1314.74353 22.0 
1314.764282 26.0 
1314.785034 46.0 
1314.847412 27.0 
1314.87854 25.0 
1314.888916 25.0 
1314.940918 30.0 
1314.951294 30.0 
1314.992798 29.0 
1315.01355 31.0 
1315.034302 30.0 
1315.065552 34.0 
1315.09668 41.0 
1315.138184 35.0 
1315.169434 35.0 
1315.200562 21.0 
1315.231689 24.0 
1315.262939 25.0 
1315.273315 25.0 
1315.283691 25.0 
1315.314819 14.0 
1315.366821 51.0 
1315.429077 45.0 
1315.460205 31.0 
1315.522583 33.0 
1315.553711 37.0 
1315.584961 25.0 
1315.605713 24.0 
1315.636841 29.0 
1315.678467 36.0 
1315.699219 31.0 
1315.740723 53.0 
1315.782349 34.0 
1315.813477 31.0 
1315.844727 49.0 
1315.875854 54.0 
1315.917358 62.0 
1315.96936 53.0 
1316.021362 34.0 
1316.05249 39.0 
1316.062866 39.0 
1316.125244 35.0 
1316.177124 30.0 
1316.197998 35.0 
1316.21875 38.0 
1316.270752 38.0 
1316.30188 43.0 
1316.364258 58.0 
1316.437012 39.0 
1316.457764 26.0 
1316.49939 34.0 
1316.530518 28.0 
1316.561646 33.0 
1316.592896 47.0 
1316.665649 36.0 
1316.707153 24.0 
1316.717651 24.0 
1316.779907 31.0 
1316.800781 28.0 
1316.821533 23.0 
1316.831909 23.0 
1316.894287 35.0 
1316.956665 36.0 
1316.998291 32.0 
1317.019043 30.0 
1317.091797 47.0 
1317.122925 32.0 
1317.154175 21.0 
1317.185303 36.0 
1317.216553 44.0 
1317.258179 55.0 
1317.289307 54.0 
1317.310059 23.0 
1317.330933 25.0 
1317.372437 20.0 
1317.424438 31.0 
1317.455688 36.0 
1317.518066 37.0 
1317.55957 48.0 
1317.601196 42.0 
1317.67395 38.0 
1317.7052 29.0 
1317.757202 36.0 
1317.809204 39.0 
1317.871582 40.0 
1317.913086 31.0 
1317.93396 31.0 
1317.985962 43.0 
1318.037964 50.0 
1318.058716 44.0 
1318.110718 31.0 
1318.16272 40.0 
1318.225098 34.0 
1318.24585 23.0 
1318.287476 26.0 
1318.318726 47.0 
1318.370728 38.0 
1318.412354 25.0 
1318.443481 27.0 
1318.464355 25.0 
1318.495483 43.0 
1318.568359 39.0 
1318.589111 44.0 
1318.609985 30.0 
1318.630737 28.0 
1318.641113 28.0 
1318.661987 18.0 
1318.672363 18.0 
1318.713989 35.0 
1318.765991 40.0 
1318.786743 41.0 
1318.807495 16.0 
1318.838745 23.0 
1318.869995 37.0 
1318.901123 29.0 
1318.921997 45.0 
1318.963623 16.0 
1318.994751 67.0 
1319.057251 31.0 
1319.119629 42.0 
1319.161255 39.0 
1319.202881 30.0 
1319.244507 45.0 
1319.275635 36.0 
1319.317261 68.0 
1319.358887 36.0 
1319.390137 35.0 
1319.431763 53.0 
1319.473389 41.0 
1319.535767 29.0 
1319.556641 27.0 
1319.577393 25.0 
1319.629395 25.0 
1319.660645 33.0 
1319.691895 47.0 
1319.764648 33.0 
1319.785522 40.0 
1319.795898 40.0 
1319.837524 34.0 
1319.9104 20.0 
1319.931152 22.0 
1319.972778 26.0 
1320.004028 49.0 
1320.045654 30.0 
1320.05603 30.0 
1320.08728 32.0 
1320.108154 37.0 
1320.170532 17.0 
1320.212158 23.0 
1320.264282 31.0 
1320.32666 35.0 
1320.35791 26.0 
1320.38916 30.0 
1320.420288 13.0 
1320.462036 50.0 
1320.524414 33.0 
1320.576416 30.0 
1320.618164 40.0 
1320.670166 31.0 
1320.722168 33.0 
1320.763794 25.0 
1320.826294 39.0 
1320.847168 14.0 
1320.878296 25.0 
1320.93042 43.0 
1320.982422 28.0 
1321.003296 25.0 
1321.044922 30.0 
1321.076172 35.0 
1321.107422 14.0 
1321.149048 46.0 
1321.190674 49.0 
1321.20105 49.0 
1321.253174 46.0 
1321.273926 41.0 
1321.315552 51.0 
1321.32605 51.0 
1321.3573 46.0 
1321.430176 33.0 
1321.461426 31.0 
1321.523804 35.0 
1321.575928 46.0 
1321.638428 34.0 
1321.65918 40.0 
1321.700928 35.0 
1321.732178 24.0 
1321.763306 26.0 
1321.81543 34.0 
1321.867554 27.0 
1321.929932 48.0 
1321.982056 41.0 
1322.013306 33.0 
1322.044556 43.0 
1322.075806 25.0 
1322.096558 21.0 
1322.138306 28.0 
1322.169556 40.0 
1322.179932 40.0 
1322.221558 50.0 
1322.242432 45.0 
1322.273682 29.0 
1322.294556 18.0 
1322.346558 36.0 
1322.377808 32.0 
1322.398682 38.0 
1322.419556 32.0 
1322.461182 39.0 
1322.502808 31.0 
1322.534058 45.0 
1322.575684 32.0 
1322.606934 36.0 
1322.679932 35.0 
1322.711182 37.0 
1322.773682 36.0 
1322.815308 25.0 
1322.846558 27.0 
1322.877808 28.0 
1322.940308 43.0 
1322.982056 56.0 
1323.054932 23.0 
1323.075806 22.0 
1323.09668 17.0 
1323.117432 19.0 
1323.12793 19.0 
1323.148682 21.0 
1323.179932 23.0 
1323.200806 26.0 
1323.263306 59.0 
1323.294556 32.0 
1323.325806 38.0 
1323.367554 50.0 
1323.44043 52.0 
1323.503052 46.0 
1323.513428 46.0 
1323.544678 27.0 
1323.575928 22.0 
1323.607178 30.0 
1323.628052 30.0 
1323.669678 51.0 
1323.690552 30.0 
1323.70105 30.0 
1323.7323 34.0 
1323.76355 27.0 
1323.784424 23.0 
1323.815674 29.0 
1323.878174 52.0 
1323.9198 22.0 
1323.951172 52.0 
1323.982422 52.0 
1324.003174 54.0 
1324.065796 54.0 
1324.097046 20.0 
1324.11792 47.0 
1324.190796 31.0 
1324.222046 42.0 
1324.263794 13.0 
1324.27417 13.0 
1324.315918 43.0 
1324.347168 46.0 
1324.388916 46.0 
1324.44104 36.0 
1324.47229 19.0 
1324.493164 32.0 
1324.513916 33.0 
1324.545288 34.0 
1324.586914 27.0 
1324.639038 36.0 
1324.680786 25.0 
1324.712036 27.0 
1324.73291 43.0 
1324.774658 32.0 
1324.805908 18.0 
1324.826782 20.0 
1324.858032 19.0 
1324.889282 27.0 
1324.910156 30.0 
1324.920532 30.0 
1324.951782 30.0 
1324.983154 21.0 
1325.035278 27.0 
1325.045654 27.0 
1325.108276 37.0 
1325.129028 30.0 
1325.19165 28.0 
1325.202026 28.0 
1325.233398 26.0 
1325.264648 60.0 
1325.327148 35.0 
1325.379395 27.0 
1325.410645 45.0 
1325.431519 34.0 
1325.452393 28.0 
1325.462769 28.0 
1325.483643 37.0 
1325.504517 59.0 
1325.525391 59.0 
1325.546143 32.0 
1325.556641 32.0 
1325.587891 30.0 
1325.619141 52.0 
1325.702637 55.0 
1325.733887 28.0 
1325.775635 56.0 
1325.838257 38.0 
1325.848633 38.0 
1325.879883 33.0 
1325.900757 47.0 
1325.973755 32.0 
1326.015503 41.0 
1326.057251 42.0 
1326.098999 31.0 
1326.130249 17.0 
1326.161499 29.0 
1326.224121 31.0 
1326.265869 15.0 
1326.297119 32.0 
1326.338867 25.0 
1326.370117 27.0 
1326.401489 29.0 
1326.411865 29.0 
1326.453613 16.0 
1326.495361 29.0 
1326.547485 47.0 
1326.557983 47.0 
1326.620483 56.0 
1326.641357 35.0 
1326.683105 39.0 
1326.703979 29.0 
1326.724854 31.0 
1326.745728 29.0 
1326.776978 38.0 
1326.829224 38.0 
1326.860474 42.0 
1326.91272 36.0 
1326.933594 38.0 
1326.97522 37.0 
1327.037842 33.0 
1327.069214 30.0 
1327.142212 44.0 
1327.173584 34.0 
1327.215332 32.0 
1327.246582 24.0 
1327.298706 31.0 
1327.309204 31.0 
1327.361328 33.0 
1327.382202 36.0 
1327.403076 18.0 
1327.42395 31.0 
1327.444824 31.0 
1327.507446 25.0 
1327.517944 25.0 
1327.549194 32.0 
1327.60144 25.0 
1327.643188 36.0 
1327.674438 21.0 
1327.705811 19.0 
1327.737061 18.0 
1327.768433 22.0 
1327.799683 18.0 
1327.831055 19.0 
1327.862305 23.0 
1327.893677 26.0 
1327.914551 25.0 
1327.935425 26.0 
1327.977173 23.0 
1327.998047 28.0 
1328.039795 32.0 
1328.060669 26.0 
1328.102417 42.0 
1328.123291 37.0 
1328.133667 37.0 
1328.196289 40.0 
1328.238159 33.0 
1328.259033 35.0 
1328.279907 32.0 
1328.363403 35.0 
1328.405151 30.0 
1328.436401 29.0 
1328.478271 38.0 
1328.530396 42.0 
1328.582642 52.0 
1328.666138 30.0 
1328.707886 35.0 
1328.791382 47.0 
1328.822754 26.0 
1328.854126 23.0 
1328.895874 31.0 
1328.937622 34.0 
1329.010742 50.0 
1329.083862 34.0 
1329.104736 30.0 
1329.146484 44.0 
1329.209106 64.0 
1329.261353 33.0 
1329.303101 66.0 
1329.334473 37.0 
1329.365723 36.0 
1329.438843 41.0 
1329.480591 52.0 
1329.532837 32.0 
1329.553711 43.0 
1329.595581 39.0 
1329.626831 31.0 
1329.647705 37.0 
1329.668579 37.0 
1329.699951 22.0 
1329.752197 27.0 
1329.804443 42.0 
1329.856689 36.0 
1329.877563 40.0 
1329.908936 33.0 
1329.940186 34.0 
1329.971558 25.0 
1330.00293 10.0 
1330.055176 21.0 
1330.07605 38.0 
1330.117798 33.0 
1330.14917 36.0 
1330.18042 49.0 
1330.211792 43.0 
1330.243164 35.0 
1330.274536 51.0 
1330.347656 45.0 
1330.420776 51.0 
1330.462524 26.0 
1330.483398 18.0 
1330.525269 42.0 
1330.546143 36.0 
1330.567017 21.0 
1330.587891 28.0 
1330.619263 38.0 
1330.640137 41.0 
1330.692383 28.0 
1330.713257 28.0 
1330.734253 24.0 
1330.776001 20.0 
1330.786499 20.0 
1330.807373 36.0 
1330.838745 27.0 
1330.880493 27.0 
1330.901367 26.0 
1330.964111 24.0 
1331.005859 26.0 
1331.058105 50.0 
1331.12085 24.0 
1331.173096 45.0 
1331.23584 39.0 
1331.277588 28.0 
1331.30896 37.0 
1331.329834 39.0 
1331.38208 32.0 
1331.42395 28.0 
1331.455322 26.0 
1331.476196 21.0 
1331.49707 11.0 
1331.549316 49.0 
1331.601562 29.0 
1331.643433 37.0 
1331.674805 31.0 
1331.695679 37.0 
1331.758423 30.0 
1331.789795 47.0 
1331.831543 19.0 
1331.894287 60.0 
1331.946533 32.0 
1331.967407 32.0 
1332.009277 25.0 
1332.051147 27.0 
1332.072021 28.0 
1332.092896 24.0 
1332.124268 31.0 
1332.187012 42.0 
1332.22876 33.0 
1332.281128 51.0 
1332.343872 39.0 
1332.396118 32.0 
1332.42749 27.0 
1332.458862 31.0 
1332.50061 26.0 
1332.521606 33.0 
1332.563354 14.0 
1332.594727 34.0 
1332.636597 36.0 
1332.678467 29.0 
1332.709839 15.0 
1332.741089 42.0 
1332.762085 40.0 
1332.814331 38.0 
1332.887573 29.0 
1332.939819 36.0 
1333.002563 29.0 
1333.044434 41.0 
1333.107178 31.0 
1333.13855 38.0 
1333.159424 45.0 
1333.190796 35.0 
1333.211792 26.0 
1333.243164 31.0 
1333.284912 56.0 
1333.358154 30.0 
1333.389526 40.0 
1333.420898 30.0 
1333.462769 22.0 
1333.494141 50.0 
1333.536011 30.0 
1333.567383 32.0 
1333.598755 58.0 
1333.651001 45.0 
1333.713745 55.0 
1333.766113 17.0 
1333.786987 21.0 
1333.818359 25.0 
1333.839355 26.0 
1333.870728 38.0 
1333.922974 30.0 
1333.996216 35.0 
1334.038086 40.0 
1334.079956 54.0 
1334.132202 40.0 
1334.174072 18.0 
1334.215942 47.0 
1334.247314 31.0 
1334.268311 32.0 
1334.278687 32.0 
1334.310181 40.0 
1334.331055 31.0 
1334.362427 52.0 
1334.404297 40.0 
1334.456665 22.0 
1334.498413 52.0 
1334.550781 39.0 
1334.624023 34.0 
1334.655396 30.0 
1334.686768 25.0 
1334.728638 14.0 
1334.749634 25.0 
1334.770508 23.0 
1334.791504 29.0 
1334.822876 30.0 
1334.875122 50.0 
1334.937988 25.0 
1334.96936 44.0 
1335.032104 26.0 
1335.042603 26.0 
1335.073975 40.0 
1335.126343 44.0 
1335.157715 29.0 
1335.199585 44.0 
1335.272827 37.0 
1335.304321 21.0 
1335.335693 33.0 
1335.388062 34.0 
1335.429932 22.0 
1335.461304 36.0 
1335.482178 31.0 
1335.503174 31.0 
1335.555542 27.0 
1335.586914 21.0 
1335.607788 21.0 
1335.628784 16.0 
1335.649658 35.0 
1335.681152 20.0 
1335.702026 20.0 
1335.723022 28.0 
1335.764893 12.0 
1335.796265 32.0 
1335.827637 14.0 
1335.848633 22.0 
1335.890503 22.0 
1335.911377 25.0 
1335.953247 38.0 
1335.995117 40.0 
1336.026611 36.0 
1336.057983 51.0 
1336.099854 16.0 
1336.12085 21.0 
1336.16272 30.0 
1336.20459 35.0 
1336.24646 28.0 
1336.309326 50.0 
1336.403564 55.0 
1336.455933 31.0 
1336.466309 31.0 
1336.497803 44.0 
1336.550171 33.0 
1336.571045 30.0 
1336.623413 27.0 
1336.654785 24.0 
1336.696777 41.0 
1336.749146 25.0 
1336.780518 28.0 
1336.822388 35.0 
1336.864258 31.0 
1336.885254 30.0 
1336.937622 25.0 
1336.958496 29.0 
1337.000488 22.0 
1337.021362 25.0 
1337.03186 25.0 
1337.052856 28.0 
1337.07373 43.0 
1337.115601 36.0 
1337.199463 47.0 
1337.262329 31.0 
1337.272705 31.0 
1337.304199 29.0 
1337.335571 21.0 
1337.356567 24.0 
1337.408936 33.0 
1337.4823 22.0 
1337.492676 22.0 
1337.545166 37.0 
1337.576538 28.0 
1337.597534 28.0 
1337.628906 27.0 
1337.691772 59.0 
1337.744141 34.0 
1337.775635 53.0 
1337.817505 29.0 
1337.838501 42.0 
1337.880371 51.0 
1337.901245 32.0 
1337.943237 53.0 
1337.985107 32.0 
1338.016602 41.0 
1338.037476 32.0 
1338.06897 53.0 
1338.100342 35.0 
1338.121338 30.0 
1338.15271 27.0 
1338.194702 45.0 
1338.24707 34.0 
1338.299438 50.0 
1338.372803 27.0 
1338.425171 21.0 
1338.456665 34.0 
1338.488037 27.0 
1338.509033 21.0 
1338.571899 43.0 
1338.634766 31.0 
1338.645264 31.0 
1338.687134 31.0 
1338.70813 25.0 
1338.739624 44.0 
1338.781494 25.0 
1338.812988 50.0 
1338.84436 25.0 
1338.886353 58.0 
1338.917725 31.0 
1338.949219 24.0 
1338.991089 36.0 
1339.033081 34.0 
1339.064453 42.0 
1339.095947 34.0 
1339.148315 28.0 
1339.17981 27.0 
1339.211304 20.0 
1339.253174 33.0 
1339.284668 29.0 
1339.305542 24.0 
1339.326538 27.0 
1339.358032 32.0 
1339.378906 33.0 
1339.399902 24.0 
1339.431396 40.0 
1339.452393 28.0 
1339.494263 40.0 
1339.515259 39.0 
1339.557129 55.0 
1339.599121 18.0 
1339.620117 49.0 
1339.682983 39.0 
1339.735352 32.0 
1339.766846 42.0 
1339.79834 41.0 
1339.850708 24.0 
1339.871704 36.0 
1339.8927 18.0 
1339.93457 38.0 
1339.987061 22.0 
1340.018433 30.0 
1340.049927 21.0 
1340.102417 26.0 
1340.144287 34.0 
1340.165283 26.0 
1340.217773 40.0 
1340.28064 32.0 
1340.322632 30.0 
1340.364502 34.0 
1340.385498 44.0 
1340.42749 30.0 
1340.490356 43.0 
1340.511353 35.0 
1340.553345 43.0 
1340.584717 18.0 
1340.616211 33.0 
1340.637207 30.0 
1340.658203 24.0 
1340.710571 29.0 
1340.742065 32.0 
1340.763062 31.0 
1340.805054 29.0 
1340.86792 26.0 
1340.909912 32.0 
1340.951782 43.0 
1340.993774 36.0 
1341.014771 54.0 
1341.046265 37.0 
1341.088257 26.0 
1341.109131 45.0 
1341.161621 34.0 
1341.203613 33.0 
1341.235107 41.0 
1341.255981 31.0 
1341.308472 57.0 
1341.37146 31.0 
1341.41333 54.0 
1341.423828 54.0 
1341.486816 40.0 
1341.528809 36.0 
1341.539307 36.0 
1341.560303 39.0 
1341.633667 42.0 
1341.665161 52.0 
1341.696655 48.0 
1341.738647 23.0 
1341.759644 18.0 
1341.801514 29.0 
1341.833008 36.0 
1341.906494 56.0 
1341.92749 38.0 
1341.969482 33.0 
1342.000977 38.0 
1342.032471 30.0 
1342.053345 25.0 
1342.084839 34.0 
1342.126831 29.0 
1342.189819 44.0 
1342.221313 33.0 
1342.284302 57.0 
1342.33667 40.0 
1342.378662 46.0 
1342.431152 39.0 
1342.504639 36.0 
1342.536133 20.0 
1342.567627 28.0 
1342.609619 26.0 
1342.630615 31.0 
1342.672607 19.0 
1342.7146 44.0 
1342.777466 37.0 
1342.787964 37.0 
1342.819458 20.0 
1342.892944 35.0 
1342.934937 32.0 
1342.966431 35.0 
1343.029419 38.0 
1343.102905 33.0 
1343.123901 26.0 
1343.155396 34.0 
1343.176392 36.0 
1343.197388 23.0 
1343.249878 59.0 
1343.281372 31.0 
1343.302368 34.0 
1343.34436 36.0 
1343.396851 48.0 
1343.438843 63.0 
1343.491333 52.0 
1343.543823 36.0 
1343.585815 25.0 
1343.606812 27.0 
1343.659302 28.0 
1343.690796 35.0 
1343.711792 33.0 
1343.764282 25.0 
1343.77478 25.0 
1343.816895 53.0 
1343.848389 46.0 
1343.911377 100.0 
1343.974365 43.0 
1343.995361 39.0 
1344.026855 41.0 
1344.05835 39.0 
1344.089844 30.0 
1344.131836 37.0 
1344.152832 28.0 
1344.205322 34.0 
1344.257935 28.0 
1344.278931 41.0 
1344.299927 41.0 
1344.331421 32.0 
1344.352417 24.0 
1344.383911 16.0 
1344.404907 18.0 
1344.457397 31.0 
1344.49939 34.0 
1344.530884 23.0 
1344.5625 39.0 
1344.604492 34.0 
1344.625488 42.0 
1344.66748 25.0 
1344.698975 27.0 
1344.730469 38.0 
1344.772461 27.0 
1344.804077 49.0 
1344.867065 31.0 
1344.909058 23.0 
1344.919556 23.0 
1344.961548 24.0 
1344.993042 23.0 
1345.024658 22.0 
1345.056152 29.0 
1345.119141 52.0 
1345.150635 41.0 
1345.192749 37.0 
1345.266235 35.0 
1345.308228 26.0 
1345.329224 28.0 
1345.371338 34.0 
1345.434326 36.0 
1345.46582 39.0 
1345.539429 32.0 
1345.570923 23.0 
1345.591919 20.0 
1345.633911 34.0 
1345.686523 29.0 
1345.70752 35.0 
1345.728516 39.0 
1345.749512 38.0 
1345.770508 15.0 
1345.844116 45.0 
1345.865112 33.0 
1345.907104 27.0 
1345.938721 45.0 
1345.991211 31.0 
1346.022705 22.0 
1346.085815 37.0 
1346.138306 16.0 
1346.18042 34.0 
1346.243408 51.0 
1346.296021 37.0 
1346.338013 54.0 
1346.369629 57.0 
1346.401123 35.0 
1346.443115 55.0 
1346.453613 55.0 
1346.464111 55.0 
1346.527222 57.0 
1346.569214 20.0 
1346.611328 41.0 
1346.684937 52.0 
1346.716431 44.0 
1346.747925 21.0 
1346.790039 32.0 
1346.853027 29.0 
1346.884644 25.0 
1346.926636 33.0 
1346.958252 19.0 
1346.989746 32.0 
1347.010742 22.0 
1347.042236 40.0 
1347.063354 22.0 
1347.105347 30.0 
1347.147461 35.0 
1347.178955 39.0 
1347.221069 40.0 
1347.242065 30.0 
1347.284058 43.0 
1347.315674 51.0 
1347.378784 57.0 
1347.431274 20.0 
1347.452271 13.0 
1347.494385 26.0 
1347.546997 29.0 
1347.609985 26.0 
1347.6521 46.0 
1347.71521 42.0 
1347.767822 47.0 
1347.809814 24.0 
1347.830811 32.0 
1347.872925 20.0 
1347.893921 17.0 
1347.915039 19.0 
1347.957031 30.0 
1347.988647 34.0 
1348.009644 36.0 
1348.041138 32.0 
1348.062256 28.0 
1348.09375 26.0 
1348.125366 24.0 
1348.167358 32.0 
1348.209473 23.0 
1348.251587 38.0 
1348.272583 39.0 
1348.314575 16.0 
1348.325195 16.0 
1348.346191 35.0 
1348.377686 39.0 
1348.4198 48.0 
1348.451416 51.0 
1348.472412 38.0 
1348.48291 38.0 
1348.514526 44.0 
1348.588135 24.0 
1348.630127 47.0 
1348.682739 29.0 
1348.724854 39.0 
1348.777466 45.0 
1348.798462 45.0 
1348.861572 38.0 
1348.88269 39.0 
1348.914185 20.0 
1348.945801 20.0 
1348.966797 27.0 
1348.987793 35.0 
1349.008911 23.0 
1349.072021 31.0 
1349.114136 26.0 
1349.124634 26.0 
1349.177246 33.0 
1349.198242 27.0 
1349.229858 33.0 
1349.250854 45.0 
1349.282471 53.0 
1349.324463 56.0 
1349.387695 39.0 
1349.440308 32.0 
1349.503418 26.0 
1349.55603 39.0 
1349.577026 44.0 
1349.608643 47.0 
1349.650757 47.0 
1349.713867 59.0 
1349.755981 28.0 
1349.787476 37.0 
1349.808594 29.0 
1349.82959 27.0 
1349.850586 35.0 
1349.871704 28.0 
1349.8927 27.0 
1349.945312 55.0 
1349.976929 23.0 
1350.008545 25.0 
1350.029541 27.0 
1350.071655 27.0 
1350.103271 24.0 
1350.124268 51.0 
1350.17688 28.0 
1350.208496 30.0 
1350.23999 24.0 
1350.261108 35.0 
1350.282104 22.0 
1350.303223 24.0 
1350.355835 40.0 
1350.366333 40.0 
1350.408447 35.0 
1350.440063 17.0 
1350.471558 50.0 
1350.513672 20.0 
1350.53479 26.0 
1350.566406 40.0 
1350.608398 31.0 
1350.650513 17.0 
1350.682129 29.0 
1350.703247 40.0 
1350.745361 36.0 
1350.776855 20.0 
1350.808472 32.0 
1350.850586 31.0 
1350.882202 41.0 
1350.913696 27.0 
1350.945312 49.0 
1350.987427 46.0 
1351.008545 43.0 
1351.040039 38.0 
1351.061157 75.0 
1351.082153 64.0 
1351.134888 67.0 
1351.177002 20.0 
1351.219116 56.0 
1351.26123 53.0 
1351.313843 39.0 
1351.334839 31.0 
1351.376953 34.0 
1351.429688 33.0 
1351.461304 52.0 
1351.524414 48.0 
1351.587646 61.0 
1351.629761 47.0 
1351.650757 40.0 
1351.703491 51.0 
1351.745605 37.0 
1351.7771 33.0 
1351.798218 32.0 
1351.840332 40.0 
1351.85083 40.0 
1351.914062 66.0 
1351.935181 68.0 
1351.956177 38.0 
1351.977295 26.0 
1352.019409 37.0 
1352.061523 34.0 
1352.103638 30.0 
1352.124756 23.0 
1352.15625 24.0 
1352.177368 19.0 
1352.198486 21.0 
1352.251099 30.0 
1352.261597 30.0 
1352.293213 22.0 
1352.314331 22.0 
1352.345947 38.0 
1352.366943 26.0 
1352.388062 23.0 
1352.409058 16.0 
1352.440674 54.0 
1352.514404 33.0 
1352.535522 29.0 
1352.577637 36.0 
1352.598755 27.0 
1352.651367 45.0 
1352.693481 25.0 
1352.725098 33.0 
1352.798828 32.0 
1352.841064 23.0 
1352.872681 23.0 
1352.893677 33.0 
1352.925293 55.0 
1352.967407 30.0 
1352.999023 45.0 
1353.020142 53.0 
1353.062256 37.0 
1353.083374 26.0 
1353.125488 25.0 
1353.146606 28.0 
1353.209717 38.0 
1353.220337 38.0 
1353.251953 27.0 
1353.283569 33.0 
1353.304565 36.0 
1353.325684 34.0 
1353.378418 30.0 
1353.452148 39.0 
1353.494263 60.0 
1353.546997 25.0 
1353.567993 24.0 
1353.620728 39.0 
1353.631226 39.0 
1353.68396 46.0 
1353.747192 30.0 
1353.789307 20.0 
1353.810425 22.0 
1353.873657 26.0 
1353.894775 23.0 
1353.93689 27.0 
1353.958008 38.0 
1353.989624 30.0 
1354.031738 48.0 
1354.063354 33.0 
1354.094971 36.0 
1354.137207 40.0 
1354.242554 55.0 
1354.263672 33.0 
1354.28479 30.0 
1354.316406 38.0 
1354.337402 31.0 
1354.379639 59.0 
1354.421753 45.0 
1354.442871 44.0 
1354.495605 30.0 
1354.516602 50.0 
1354.569336 31.0 
1354.643188 33.0 
1354.674805 27.0 
1354.716919 22.0 
1354.738037 54.0 
1354.769653 24.0 
1354.81189 26.0 
1354.843506 25.0 
1354.864502 29.0 
1354.906738 39.0 
1354.948853 12.0 
1354.980469 23.0 
1355.012207 47.0 
1355.043823 36.0 
1355.107056 40.0 
1355.138672 29.0 
1355.170288 29.0 
1355.212524 47.0 
1355.233643 48.0 
1355.265259 26.0 
1355.286255 27.0 
1355.338989 34.0 
1355.370605 27.0 
1355.402344 41.0 
1355.43396 17.0 
1355.465576 31.0 
1355.507812 24.0 
1355.539429 39.0 
1355.581543 45.0 
1355.655396 47.0 
1355.687012 27.0 
1355.718628 31.0 
1355.760864 43.0 
1355.803101 37.0 
1355.876831 59.0 
1355.919067 35.0 
1355.971802 43.0 
1356.035034 35.0 
1356.077271 35.0 
1356.087891 35.0 
1356.108887 31.0 
1356.119507 31.0 
1356.172241 19.0 
1356.193359 31.0 
1356.246094 29.0 
1356.309326 43.0 
1356.383179 28.0 
1356.414795 29.0 
1356.425415 29.0 
1356.446533 25.0 
1356.478149 22.0 
1356.520386 29.0 
1356.57312 31.0 
1356.636353 12.0 
1356.667969 35.0 
1356.710205 18.0 
1356.762939 51.0 
1356.805176 45.0 
1356.85791 28.0 
1356.879028 40.0 
1356.910645 23.0 
1356.942383 31.0 
1356.984497 20.0 
1357.016235 23.0 
1357.06897 38.0 
1357.111206 22.0 
1357.142822 31.0 
1357.16394 21.0 
1357.195557 29.0 
1357.258911 55.0 
1357.301147 26.0 
1357.311646 26.0 
1357.343384 53.0 
1357.427734 45.0 
1357.469971 27.0 
1357.512207 13.0 
1357.554443 33.0 
1357.596558 26.0 
1357.628296 29.0 
1357.670532 38.0 
1357.733765 38.0 
1357.797119 39.0 
1357.839355 30.0 
1357.860474 28.0 
1357.90271 43.0 
1357.944946 41.0 
1358.008179 37.0 
1358.050415 36.0 
1358.103271 37.0 
1358.166626 41.0 
1358.21936 44.0 
1358.293213 37.0 
1358.324951 43.0 
1358.377686 32.0 
1358.419922 25.0 
1358.44104 25.0 
1358.504395 24.0 
1358.567749 44.0 
1358.631104 23.0 
1358.694458 35.0 
1358.747192 17.0 
1358.768311 28.0 
1358.810547 32.0 
1358.831665 24.0 
1358.863403 34.0 
1358.90564 42.0 
1358.926758 39.0 
1358.968994 34.0 
1358.979492 34.0 
1359.01123 36.0 
1359.074585 36.0 
1359.116821 35.0 
1359.148438 33.0 
1359.169556 37.0 
1359.190674 34.0 
1359.222412 28.0 
1359.24353 30.0 
1359.285767 32.0 
1359.306885 19.0 
1359.349121 50.0 
1359.412476 46.0 
1359.433594 45.0 
1359.46521 57.0 
1359.539185 43.0 
1359.570923 17.0 
1359.613159 23.0 
1359.634277 16.0 
1359.665894 16.0 
1359.70813 39.0 
1359.782104 45.0 
1359.803223 35.0 
1359.834961 14.0 
1359.877197 31.0 
1359.908813 26.0 
1359.929932 19.0 
1359.97229 56.0 
1360.046143 41.0 
1360.077881 49.0 
1360.120117 36.0 
1360.141235 41.0 
1360.183472 46.0 
1360.246948 49.0 
1360.278564 36.0 
1360.310303 44.0 
1360.331421 27.0 
1360.373657 38.0 
1360.426514 19.0 
1360.447632 12.0 
1360.510986 38.0 
1360.521606 38.0 
1360.563843 37.0 
1360.595581 32.0 
1360.616699 37.0 
1360.690674 32.0 
1360.754028 31.0 
1360.796265 44.0 
1360.849121 31.0 
1360.870239 35.0 
1360.944214 31.0 
1360.975952 58.0 
1361.039307 33.0 
1361.081543 41.0 
1361.113281 39.0 
1361.187256 33.0 
1361.218994 26.0 
1361.271851 42.0 
1361.324585 55.0 
1361.366943 37.0 
1361.388062 37.0 
1361.451416 25.0 
1361.472656 33.0 
1361.493774 47.0 
1361.546631 33.0 
1361.567749 31.0 
1361.599487 37.0 
1361.620605 45.0 
1361.631104 45.0 
1361.69458 32.0 
1361.726318 26.0 
1361.747437 22.0 
1361.821411 48.0 
1361.884766 24.0 
1361.916504 23.0 
1361.958862 35.0 
1362.001099 23.0 
1362.032837 15.0 
1362.075073 38.0 
1362.106812 27.0 
1362.149048 22.0 
1362.180786 29.0 
1362.212524 40.0 
1362.254761 31.0 
1362.276001 26.0 
1362.318237 40.0 
1362.349976 21.0 
1362.371094 26.0 
1362.392212 25.0 
1362.43457 45.0 
1362.466309 16.0 
1362.497925 37.0 
1362.519165 34.0 
1362.561401 40.0 
1362.58252 42.0 
1362.60376 39.0 
1362.635376 28.0 
1362.645996 28.0 
1362.667114 29.0 
1362.698853 18.0 
1362.719971 20.0 
1362.751709 23.0 
1362.804565 31.0 
1362.857422 43.0 
1362.920898 43.0 
1362.952637 27.0 
1363.005493 29.0 
1363.037231 36.0 
1363.05835 34.0 
1363.07959 29.0 
1363.100708 48.0 
1363.132446 44.0 
1363.153564 41.0 
1363.185303 28.0 
1363.206421 30.0 
1363.227539 25.0 
1363.259277 39.0 
1363.280518 30.0 
1363.312256 29.0 
1363.38623 38.0 
1363.439087 38.0 
1363.460327 26.0 
1363.491943 58.0 
1363.513184 60.0 
1363.587158 31.0 
1363.629517 42.0 
1363.671753 23.0 
1363.724731 33.0 
1363.766968 42.0 
1363.819946 34.0 
1363.830444 34.0 
1363.883423 57.0 
1363.936279 56.0 
1363.978516 49.0 
1364.031494 30.0 
1364.07373 69.0 
1364.116089 28.0 
1364.137207 38.0 
1364.211304 48.0 
1364.243042 33.0 
1364.2854 37.0 
1364.317139 37.0 
1364.348877 79.0 
1364.422852 36.0 
1364.45459 35.0 
1364.47583 28.0 
1364.496948 29.0 
1364.518188 26.0 
1364.549927 16.0 
1364.581665 25.0 
1364.65564 41.0 
1364.708618 36.0 
1364.782715 36.0 
1364.793213 36.0 
1364.856689 42.0 
1364.920288 38.0 
1364.941406 30.0 
1364.983765 27.0 
1365.057861 33.0 
1365.100098 33.0 
1365.131836 26.0 
1365.153076 27.0 
1365.205933 28.0 
1365.258911 14.0 
1365.30127 29.0 
1365.322388 20.0 
1365.354126 23.0 
1365.407104 46.0 
1365.459961 57.0 
1365.491699 41.0 
1365.523438 40.0 
1365.544678 45.0 
1365.608154 44.0 
1365.661133 55.0 
1365.735229 41.0 
1365.798706 44.0 
1365.841064 42.0 
1365.893921 33.0 
1365.915161 23.0 
1365.946899 42.0 
1365.989258 23.0 
1366.020996 25.0 
1366.042114 22.0 
1366.073975 19.0 
1366.095093 23.0 
1366.137451 36.0 
1366.169189 52.0 
1366.253906 39.0 
1366.285645 35.0 
1366.306885 39.0 
1366.349243 18.0 
1366.380981 23.0 
1366.41272 21.0 
1366.465698 34.0 
1366.486816 32.0 
1366.518555 35.0 
1366.571533 40.0 
1366.592773 42.0 
1366.635132 46.0 
1366.687988 45.0 
1366.740967 19.0 
1366.793945 48.0 
1366.804565 48.0 
1366.836304 27.0 
1366.857422 30.0 
1366.9104 25.0 
1366.942139 17.0 
1366.963379 19.0 
1366.984497 18.0 
1367.005737 25.0 
1367.016357 25.0 
1367.037476 28.0 
1367.069214 29.0 
1367.111572 28.0 
1367.132812 43.0 
1367.196411 14.0 
1367.228149 27.0 
1367.270508 27.0 
1367.291626 25.0 
1367.344604 29.0 
1367.397583 29.0 
1367.418823 35.0 
1367.450562 18.0 
1367.49292 51.0 
1367.545898 44.0 
1367.588257 53.0 
1367.630615 41.0 
1367.694214 60.0 
1367.725952 25.0 
1367.75769 35.0 
1367.800049 37.0 
1367.884888 37.0 
1367.927246 29.0 
1368.001343 43.0 
1368.043823 29.0 
1368.054321 29.0 
1368.075562 29.0 
1368.11792 43.0 
1368.149658 42.0 
1368.192139 38.0 
1368.223877 34.0 
1368.276855 22.0 
1368.308594 30.0 
1368.329834 28.0 
1368.351074 24.0 
1368.382812 27.0 
1368.425171 32.0 
1368.48877 12.0 
1368.51001 13.0 
1368.541748 15.0 
1368.584106 23.0 
1368.615967 22.0 
1368.637085 24.0 
1368.668945 35.0 
1368.679443 35.0 
1368.690063 35.0 
1368.753662 30.0 
1368.785522 16.0 
1368.806641 32.0 
1368.838501 10.0 
1368.912598 40.0 
1368.944458 41.0 
1368.976196 29.0 
1369.018677 36.0 
1369.039795 34.0 
1369.135254 44.0 
1369.188232 54.0 
1369.219971 33.0 
1369.241211 33.0 
1369.294189 42.0 
1369.325928 47.0 
1369.379028 31.0 
1369.410767 23.0 
1369.453125 34.0 
1369.484985 11.0 
1369.516724 30.0 
1369.569824 20.0 
1369.622803 32.0 
1369.665161 27.0 
1369.697021 55.0 
1369.72876 58.0 
1369.76062 46.0 
1369.792358 29.0 
1369.824219 36.0 
1369.855957 29.0 
1369.866577 29.0 
1369.887817 24.0 
1369.909058 35.0 
1369.962036 36.0 
1369.993774 27.0 
1370.067993 36.0 
1370.099854 44.0 
1370.142212 51.0 
1370.205811 26.0 
1370.237671 35.0 
1370.290649 34.0 
1370.31189 26.0 
1370.34375 33.0 
1370.364868 32.0 
1370.386108 26.0 
1370.407349 31.0 
1370.428467 35.0 
1370.449707 38.0 
1370.523926 46.0 
1370.577026 39.0 
1370.619385 46.0 
1370.640625 50.0 
1370.682983 39.0 
1370.714844 34.0 
1370.736084 30.0 
1370.757202 20.0 
1370.789062 54.0 
1370.820923 41.0 
1370.863281 35.0 
1370.916382 35.0 
1370.92688 35.0 
1371.001221 38.0 
1371.022339 25.0 
1371.032959 25.0 
1371.075439 41.0 
1371.107178 39.0 
1371.139038 18.0 
1371.202637 33.0 
1371.245117 28.0 
1371.287598 36.0 
1371.308716 49.0 
1371.372437 33.0 
1371.404175 25.0 
1371.425415 41.0 
1371.457275 34.0 
1371.510254 42.0 
1371.542114 26.0 
1371.573975 34.0 
1371.616333 47.0 
1371.669434 23.0 
1371.690674 47.0 
1371.722412 37.0 
1371.764893 61.0 
1371.786133 27.0 
1371.828613 36.0 
1371.870972 16.0 
1371.902832 39.0 
1371.934692 22.0 
1371.966431 14.0 
1372.030151 46.0 
1372.08313 26.0 
1372.11499 33.0 
1372.157471 29.0 
1372.210449 29.0 
1372.231689 37.0 
1372.27417 30.0 
1372.327271 47.0 
1372.390869 41.0 
1372.422729 14.0 
1372.44397 24.0 
1372.486328 34.0 
1372.528809 40.0 
1372.581909 62.0 
1372.645508 53.0 
1372.687988 24.0 
1372.730469 19.0 
1372.783569 32.0 
1372.836548 19.0 
1372.868408 48.0 
1372.910889 33.0 
1372.942749 26.0 
1372.974609 34.0 
1373.027588 36.0 
1373.038208 36.0 
1373.091309 30.0 
1373.112549 36.0 
1373.133789 35.0 
1373.18689 32.0 
1373.218628 34.0 
1373.250488 28.0 
1373.282349 52.0 
1373.324829 28.0 
1373.346069 26.0 
1373.36731 25.0 
1373.39917 40.0 
1373.42041 28.0 
1373.441528 38.0 
1373.494629 34.0 
1373.547729 43.0 
1373.61145 51.0 
1373.664551 35.0 
1373.696411 34.0 
1373.717651 33.0 
1373.77063 29.0 
1373.81311 38.0 
1373.834351 37.0 
1373.855591 30.0 
1373.876831 31.0 
1373.908691 37.0 
1373.929932 31.0 
1373.993652 44.0 
1374.036133 20.0 
1374.057373 27.0 
1374.078613 27.0 
1374.089233 27.0 
1374.110474 37.0 
1374.142334 34.0 
1374.205933 38.0 
1374.280273 34.0 
1374.322754 53.0 
1374.343994 45.0 
1374.375854 49.0 
1374.407715 43.0 
1374.439575 20.0 
1374.471436 48.0 
1374.535156 37.0 
1374.567017 27.0 
1374.609497 30.0 
1374.641357 57.0 
1374.662598 39.0 
1374.683838 34.0 
1374.705078 26.0 
1374.747559 34.0 
1374.821899 41.0 
1374.84314 35.0 
1374.875 38.0 
1374.91748 31.0 
1374.949341 25.0 
1374.991821 27.0 
1375.034302 20.0 
1375.066162 32.0 
1375.129883 38.0 
1375.182983 42.0 
1375.225464 39.0 
1375.299927 24.0 
1375.321167 37.0 
1375.342407 34.0 
1375.395508 41.0 
1375.448608 35.0 
1375.491089 22.0 
1375.533569 42.0 
1375.57605 47.0 
1375.639771 48.0 
1375.692871 26.0 
1375.714233 30.0 
1375.746094 32.0 
1375.767334 21.0 
1375.788574 33.0 
1375.820435 28.0 
1375.873535 32.0 
1375.916016 38.0 
1375.979736 40.0 
1376.022339 37.0 
1376.054199 23.0 
1376.08606 35.0 
1376.12854 32.0 
1376.1604 36.0 
1376.181641 46.0 
1376.213501 25.0 
1376.256104 23.0 
1376.277344 22.0 
1376.319824 33.0 
1376.362305 22.0 
1376.372925 22.0 
1376.426025 51.0 
1376.468628 36.0 
1376.511108 43.0 
1376.542969 27.0 
1376.574829 30.0 
1376.628052 42.0 
1376.659912 29.0 
1376.723633 19.0 
1376.755493 31.0 
1376.787354 29.0 
1376.829956 20.0 
1376.861816 39.0 
1376.893677 40.0 
1376.925537 21.0 
1376.95752 30.0 
1376.98938 32.0 
1377.02124 27.0 
1377.063721 54.0 
1377.106323 25.0 
1377.180664 25.0 
1377.223145 26.0 
1377.276367 48.0 
1377.297607 33.0 
1377.340088 19.0 
1377.37207 30.0 
1377.393311 32.0 
1377.414551 21.0 
1377.446411 19.0 
1377.467651 32.0 
1377.499634 33.0 
1377.542114 42.0 
1377.595215 56.0 
1377.637817 43.0 
1377.680298 39.0 
1377.733521 27.0 
1377.754761 29.0 
1377.786621 31.0 
1377.850464 51.0 
1377.892944 49.0 
1377.924805 20.0 
1377.956787 25.0 
1377.988647 41.0 
1378.031128 80.0 
1378.094971 88.0 
1378.126831 44.0 
1378.158813 34.0 
1378.201294 37.0 
1378.254517 40.0 
1378.265137 40.0 
1378.318237 42.0 
1378.36084 36.0 
1378.40332 41.0 
1378.435303 38.0 
1378.488403 32.0 
1378.520386 26.0 
1378.594727 53.0 
1378.626709 23.0 
1378.67981 57.0 
1378.743652 45.0 
1378.786255 40.0 
1378.807495 40.0 
1378.828735 36.0 
1378.892578 42.0 
1378.967041 28.0 
1378.998901 46.0 
1379.030884 33.0 
1379.083984 37.0 
1379.105347 13.0 
1379.126587 38.0 
1379.147827 32.0 
1379.169189 26.0 
1379.20105 33.0 
1379.275513 34.0 
1379.318115 42.0 
1379.349976 30.0 
1379.381836 37.0 
1379.413818 30.0 
1379.498901 53.0 
1379.530884 35.0 
1379.562744 44.0 
1379.615967 26.0 
1379.626587 26.0 
1379.71167 37.0 
1379.754272 32.0 
1379.775513 41.0 
1379.796753 39.0 
1379.818115 27.0 
1379.849976 35.0 
1379.881958 35.0 
1379.903198 37.0 
1379.924438 30.0 
1379.956421 40.0 
1379.999023 49.0 
1380.052124 31.0 
1380.094727 50.0 
1380.169189 38.0 
1380.190552 45.0 
1380.211792 38.0 
1380.233032 32.0 
1380.286255 32.0 
1380.307617 31.0 
1380.350098 21.0 
1380.37146 20.0 
1380.41394 40.0 
1380.477783 55.0 
1380.531006 33.0 
1380.552368 32.0 
1380.573608 27.0 
1380.594849 27.0 
1380.616211 27.0 
1380.648071 50.0 
1380.712036 33.0 
1380.743896 32.0 
1380.765137 32.0 
1380.839722 33.0 
1380.924805 41.0 
1380.978027 18.0 
1380.99939 35.0 
1381.03125 35.0 
1381.073853 13.0 
1381.116455 30.0 
1381.180298 27.0 
1381.21228 23.0 
1381.254883 38.0 
1381.286743 28.0 
1381.318726 32.0 
1381.361328 36.0 
1381.393188 46.0 
1381.403931 46.0 
1381.425171 26.0 
1381.457153 49.0 
1381.489014 38.0 
1381.531616 25.0 
1381.552979 33.0 
1381.606201 50.0 
1381.670044 46.0 
1381.723267 42.0 
1381.765869 31.0 
1381.808472 20.0 
1381.829712 27.0 
1381.872314 31.0 
1381.893677 32.0 
1381.914917 30.0 
1381.946899 41.0 
1381.97876 42.0 
1382.010742 42.0 
1382.042725 39.0 
1382.085327 28.0 
1382.106567 22.0 
1382.12793 33.0 
1382.13855 33.0 
1382.15979 27.0 
1382.191772 39.0 
1382.223755 29.0 
1382.255737 53.0 
1382.31958 52.0 
1382.34082 28.0 
1382.362183 34.0 
1382.394165 34.0 
1382.426025 46.0 
1382.50061 50.0 
1382.532593 42.0 
1382.575195 27.0 
1382.617798 54.0 
1382.64978 38.0 
1382.671021 34.0 
1382.724243 34.0 
1382.756226 44.0 
1382.82019 38.0 
1382.873413 46.0 
1382.947998 43.0 
1382.990601 18.0 
1383.011841 20.0 
1383.033203 32.0 
1383.075806 29.0 
1383.107788 38.0 
1383.139648 30.0 
1383.171631 48.0 
1383.235596 40.0 
1383.278198 32.0 
1383.331421 52.0 
1383.363403 45.0 
1383.406006 46.0 
1383.459351 35.0 
1383.523193 40.0 
1383.555176 31.0 
1383.587158 26.0 
1383.640381 49.0 
1383.704346 37.0 
1383.725708 44.0 
1383.768311 15.0 
1383.789551 17.0 
1383.810913 21.0 
1383.864136 51.0 
1383.928101 44.0 
1383.960083 13.0 
1383.992065 44.0 
1384.013306 31.0 
1384.06665 21.0 
1384.087891 31.0 
1384.119873 24.0 
1384.162598 41.0 
1384.21582 42.0 
1384.279785 29.0 
1384.333008 33.0 
1384.386353 38.0 
1384.396973 38.0 
1384.428955 34.0 
1384.4823 29.0 
1384.50354 54.0 
1384.578125 55.0 
1384.63147 22.0 
1384.652832 21.0 
1384.706055 34.0 
1384.748657 27.0 
1384.77002 24.0 
1384.791382 27.0 
1384.823364 20.0 
1384.855347 40.0 
1384.897949 32.0 
1384.961914 59.0 
1385.004517 27.0 
1385.057861 27.0 
1385.068481 27.0 
1385.143066 50.0 
1385.196411 27.0 
1385.239014 35.0 
1385.302979 35.0 
1385.334961 38.0 
1385.388306 29.0 
1385.430908 41.0 
1385.494873 20.0 
1385.5802 57.0 
1385.665527 35.0 
1385.69751 17.0 
1385.70813 17.0 
1385.740112 32.0 
1385.772095 29.0 
1385.814819 47.0 
1385.836182 43.0 
1385.857422 19.0 
1385.878784 17.0 
1385.889404 17.0 
1385.910767 32.0 
1385.964111 47.0 
1386.038696 53.0 
1386.113403 42.0 
1386.177368 22.0 
1386.19873 28.0 
1386.219971 38.0 
1386.273315 51.0 
1386.348022 60.0 
1386.369385 50.0 
1386.401367 38.0 
1386.422607 34.0 
1386.475952 29.0 
1386.507935 38.0 
1386.550659 24.0 
1386.593262 30.0 
1386.625244 25.0 
1386.657349 34.0 
1386.699951 28.0 
1386.721313 35.0 
1386.742676 33.0 
1386.753296 33.0 
1386.774658 30.0 
1386.806641 40.0 
1386.828003 27.0 
1386.870605 27.0 
1386.902588 22.0 
1386.945312 30.0 
1387.009277 36.0 
1387.073364 48.0 
1387.126709 30.0 
1387.169312 28.0 
1387.233276 47.0 
1387.276001 37.0 
1387.329346 63.0 
1387.37207 37.0 
1387.404053 15.0 
1387.446655 32.0 
1387.468018 23.0 
1387.5 18.0 
1387.542725 18.0 
1387.574707 22.0 
1387.617432 18.0 
1387.660156 23.0 
1387.692139 24.0 
1387.724121 27.0 
1387.777466 47.0 
1387.798828 33.0 
1387.841553 47.0 
1387.852173 47.0 
1387.894897 20.0 
1387.916138 22.0 
1387.948242 26.0 
1388.001587 29.0 
1388.022949 30.0 
1388.033569 30.0 
1388.097656 33.0 
1388.129639 26.0 
1388.161621 42.0 
1388.193604 40.0 
1388.225708 46.0 
1388.300415 38.0 
1388.343018 26.0 
1388.375122 81.0 
1388.407104 39.0 
1388.439087 69.0 
1388.503174 65.0 
1388.535156 31.0 
1388.588501 44.0 
1388.641968 38.0 
1388.695312 42.0 
1388.738037 27.0 
1388.802002 16.0 
1388.823364 24.0 
1388.855347 64.0 
1388.887451 35.0 
1388.908813 33.0 
1388.940796 37.0 
1388.962158 39.0 
1389.004883 35.0 
1389.068848 32.0 
1389.132935 27.0 
1389.164917 36.0 
1389.207642 31.0 
1389.229004 20.0 
1389.250366 35.0 
1389.271729 32.0 
1389.303711 34.0 
1389.325073 29.0 
1389.410522 45.0 
1389.485229 41.0 
1389.538696 17.0 
1389.570679 40.0 
1389.592041 33.0 
1389.613403 39.0 
1389.634766 33.0 
1389.67749 42.0 
1389.720215 40.0 
1389.78418 35.0 
1389.848267 58.0 
1389.869629 55.0 
1389.912354 58.0 
1389.97644 28.0 
1389.987183 28.0 
1390.019165 53.0 
1390.07251 47.0 
1390.125977 36.0 
1390.147339 35.0 
1390.179321 19.0 
1390.211426 31.0 
1390.243408 35.0 
1390.275513 33.0 
1390.286133 33.0 
1390.328857 34.0 
1390.392944 44.0 
1390.425049 27.0 
1390.446411 30.0 
1390.467773 29.0 
1390.489136 26.0 
1390.53186 26.0 
1390.585205 47.0 
1390.62793 22.0 
1390.660034 33.0 
1390.692017 26.0 
1390.713379 26.0 
1390.734741 34.0 
1390.777466 59.0 
1390.80957 36.0 
1390.852295 28.0 
1390.89502 36.0 
1390.916382 37.0 
1390.937744 34.0 
1390.980469 33.0 
1391.012451 38.0 
1391.033813 33.0 
1391.065918 36.0 
1391.08728 38.0 
1391.151367 44.0 
1391.162109 44.0 
1391.215454 44.0 
1391.279541 50.0 
1391.343628 26.0 
1391.375732 39.0 
1391.407837 25.0 
1391.450562 44.0 
1391.503906 41.0 
1391.546753 27.0 
1391.568115 36.0 
1391.632202 31.0 
1391.642822 31.0 
1391.674927 27.0 
1391.696289 27.0 
1391.728394 41.0 
1391.749756 25.0 
1391.79248 53.0 
1391.835205 34.0 
1391.845947 34.0 
1391.888672 50.0 
1391.963379 50.0 
1392.006226 24.0 
1392.027588 33.0 
1392.038208 33.0 
1392.102417 43.0 
1392.134399 64.0 
1392.166504 49.0 
1392.198608 52.0 
1392.251953 40.0 
1392.284058 37.0 
1392.348145 72.0 
1392.380249 26.0 
1392.412354 45.0 
1392.444336 45.0 
1392.47644 31.0 
1392.519165 59.0 
1392.615356 55.0 
1392.668823 50.0 
1392.733032 37.0 
1392.765015 36.0 
1392.797119 50.0 
1392.839844 22.0 
1392.861206 36.0 
1392.904053 48.0 
1392.978882 20.0 
1393.010864 18.0 
1393.032349 24.0 
1393.117798 32.0 
1393.13916 27.0 
1393.182007 45.0 
1393.224731 26.0 
1393.256836 42.0 
1393.28894 58.0 
1393.331665 15.0 
1393.36377 52.0 
1393.395752 53.0 
1393.427856 25.0 
1393.470703 36.0 
1393.492065 31.0 
1393.556152 33.0 
1393.609619 35.0 
1393.630981 34.0 
1393.684448 41.0 
1393.716553 30.0 
1393.748657 22.0 
1393.780762 25.0 
1393.812866 35.0 
1393.866333 37.0 
1393.909058 31.0 
1393.941162 31.0 
1393.983887 33.0 
1394.005371 42.0 
1394.026733 37.0 
1394.0802 59.0 
1394.133667 37.0 
1394.165771 21.0 
1394.187134 23.0 
1394.208496 24.0 
1394.261963 44.0 
1394.326172 29.0 
1394.379639 40.0 
1394.401001 29.0 
1394.422485 33.0 
1394.475952 61.0 
1394.540039 34.0 
1394.572144 53.0 
1394.647095 37.0 
1394.711182 37.0 
1394.764771 33.0 
1394.828857 29.0 
1394.850342 30.0 
1394.871704 31.0 
1394.903809 44.0 
1394.968018 41.0 
1394.98938 32.0 
1395.021484 30.0 
1395.074951 41.0 
1395.107056 35.0 
1395.13916 40.0 
1395.171265 34.0 
1395.213989 42.0 
1395.235474 26.0 
1395.267578 25.0 
1395.278198 25.0 
1395.299683 33.0 
1395.331787 40.0 
1395.36377 34.0 
1395.395874 32.0 
1395.449463 36.0 
1395.492188 30.0 
1395.535034 27.0 
1395.556396 43.0 
1395.599243 43.0 
1395.631348 46.0 
1395.663452 32.0 
1395.727661 65.0 
1395.823975 70.0 
1395.877441 24.0 
1395.909546 39.0 
1395.930908 26.0 
1395.963013 39.0 
1395.984497 49.0 
1395.995117 49.0 
1396.048706 25.0 
1396.080811 32.0 
1396.102173 33.0 
1396.177124 68.0 
1396.230591 32.0 
1396.262695 36.0 
1396.326904 48.0 
1396.359009 31.0 
1396.42334 47.0 
1396.498169 26.0 
1396.519653 40.0 
1396.541016 28.0 
1396.562378 30.0 
1396.615967 36.0 
1396.658813 48.0 
1396.680176 44.0 
1396.733765 42.0 
1396.755127 30.0 
1396.787231 32.0 
1396.84082 28.0 
1396.862183 22.0 
1396.905029 44.0 
1396.915649 44.0 
1396.937134 33.0 
1396.97998 36.0 
1397.022705 39.0 
1397.044189 41.0 
1397.054932 41.0 
1397.076294 40.0 
1397.151245 45.0 
1397.194092 22.0 
1397.226196 32.0 
1397.247559 35.0 
1397.290405 33.0 
1397.32251 33.0 
1397.397461 40.0 
1397.418945 37.0 
1397.483154 30.0 
1397.504517 39.0 
1397.526001 33.0 
1397.568848 41.0 
1397.600952 20.0 
1397.622314 16.0 
1397.665161 35.0 
1397.708008 30.0 
1397.761597 37.0 
1397.804443 18.0 
1397.825806 21.0 
1397.84729 30.0 
1397.890015 40.0 
1397.922241 33.0 
1397.954346 40.0 
1397.98645 41.0 
1398.018555 33.0 
1398.082886 44.0 
1398.125732 35.0 
1398.147095 34.0 
1398.189941 42.0 
1398.24353 47.0 
1398.275635 26.0 
1398.307739 27.0 
1398.339844 37.0 
1398.393433 17.0 
1398.468384 29.0 
1398.532715 29.0 
1398.554077 28.0 
1398.586304 27.0 
1398.618408 21.0 
1398.650513 38.0 
1398.661255 38.0 
1398.693359 35.0 
1398.725464 28.0 
1398.768311 14.0 
1398.800537 46.0 
1398.907593 39.0 
1398.939819 57.0 
1398.982666 42.0 
1399.004028 56.0 
1399.046875 46.0 
1399.068359 27.0 
1399.121948 58.0 
1399.186157 33.0 
1399.218384 42.0 
1399.26123 27.0 
1399.293335 34.0 
1399.314819 45.0 
1399.368286 34.0 
1399.389771 26.0 
1399.421875 34.0 
1399.454102 35.0 
1399.496948 24.0 
1399.518311 28.0 
1399.539795 28.0 
1399.561157 37.0 
1399.571899 37.0 
1399.614746 41.0 
1399.646973 30.0 
1399.679077 43.0 
1399.711182 40.0 
1399.743408 33.0 
1399.786255 32.0 
1399.829102 39.0 
1399.893433 12.0 
1399.936279 28.0 
1399.957764 18.0 
1400.00061 27.0 
1400.021973 29.0 
1400.054199 23.0 
1400.086304 25.0 
1400.11853 29.0 
1400.150635 35.0 
1400.172119 31.0 
1400.225708 40.0 
1400.24707 36.0 
1400.343506 30.0 
1400.375732 33.0 
1400.407837 43.0 
1400.48291 30.0 
1400.504395 29.0 
1400.525757 20.0 
1400.557983 18.0 
1400.590088 19.0 
1400.632935 19.0 
1400.675903 31.0 
1400.697266 25.0 
1400.761597 37.0 
1400.825928 44.0 
1400.868774 9.0 
1400.901001 25.0 
1400.943848 25.0 
1400.976074 18.0 
1401.018921 52.0 
1401.093994 33.0 
1401.126099 33.0 
1401.147583 28.0 
1401.19043 32.0 
1401.254761 41.0 
1401.286987 25.0 
1401.329834 24.0 
1401.383423 39.0 
1401.458496 43.0 
1401.47998 34.0 
1401.522827 29.0 
1401.5979 44.0 
1401.640869 44.0 
1401.715942 60.0 
1401.748047 40.0 
1401.780273 25.0 
1401.812378 30.0 
1401.855347 42.0 
1401.93042 34.0 
1401.962524 41.0 
1401.984009 41.0 
1402.037598 36.0 
1402.059082 32.0 
1402.091309 32.0 
1402.144897 33.0 
1402.166382 29.0 
1402.209229 32.0 
1402.230713 32.0 
1402.241455 32.0 
1402.262817 35.0 
1402.305786 49.0 
1402.370117 29.0 
1402.380859 29.0 
1402.423706 46.0 
1402.455933 19.0 
1402.520264 70.0 
1402.563232 68.0 
1402.573975 68.0 
1402.595337 52.0 
1402.627563 107.0 
1402.65979 58.0 
1402.691895 47.0 
1402.702637 47.0 
1402.734863 53.0 
1402.766968 36.0 
1402.809937 48.0 
1402.842163 25.0 
1402.88501 34.0 
1402.949463 54.0 
1402.99231 33.0 
1403.013794 47.0 
1403.056641 43.0 
1403.088867 38.0 
1403.110352 40.0 
1403.174683 34.0 
1403.206909 43.0 
1403.249878 34.0 
1403.292725 66.0 
1403.314209 38.0 
1403.346436 62.0 
1403.400024 55.0 
1403.475098 39.0 
1403.528809 32.0 
1403.550293 23.0 
1403.58252 27.0 
1403.636108 33.0 
1403.657593 32.0 
1403.689819 32.0 
1403.711182 51.0 
1403.775635 51.0 
1403.839966 49.0 
1403.872192 55.0 
1403.904419 36.0 
1403.947388 41.0 
1403.979492 25.0 
1404.000977 20.0 
1404.033203 37.0 
1404.06543 53.0 
1404.119019 32.0 
1404.140503 44.0 
1404.172729 39.0 
1404.237183 41.0 
1404.258545 35.0 
1404.312256 48.0 
1404.33374 40.0 
1404.365967 54.0 
1404.419556 18.0 
1404.473267 59.0 
1404.526978 34.0 
1404.548462 40.0 
1404.591309 15.0 
1404.634277 38.0 
1404.69873 56.0 
1404.773804 38.0 
1404.80603 28.0 
1404.838257 24.0 
1404.870483 36.0 
1404.924194 46.0 
1404.977905 25.0 
1404.999268 20.0 
1405.042236 37.0 
1405.095947 37.0 
1405.149658 23.0 
1405.181885 33.0 
1405.203369 39.0 
1405.235474 45.0 
1405.278442 42.0 
1405.299927 34.0 
1405.332153 28.0 
1405.353638 28.0 
1405.396606 43.0 
1405.46106 30.0 
1405.493286 34.0 
1405.557617 30.0 
1405.600586 20.0 
1405.643555 26.0 
1405.697266 31.0 
1405.740234 24.0 
1405.772461 35.0 
1405.804688 30.0 
1405.836914 36.0 
1405.879883 45.0 
1405.933594 25.0 
1405.955078 29.0 
1405.987305 37.0 
1406.030151 43.0 
1406.051636 33.0 
1406.094604 36.0 
1406.148315 38.0 
1406.212769 31.0 
1406.234253 32.0 
1406.266479 19.0 
1406.287964 27.0 
1406.309448 28.0 
1406.341675 34.0 
1406.363159 45.0 
1406.395386 22.0 
1406.459839 32.0 
1406.502808 37.0 
1406.524292 29.0 
1406.545776 27.0 
1406.578003 43.0 
1406.610229 59.0 
1406.653198 28.0 
1406.685425 43.0 
1406.706909 17.0 
1406.76062 35.0 
1406.814331 25.0 
1406.846558 27.0 
1406.878784 36.0 
1406.932495 40.0 
1406.975464 24.0 
1406.99707 36.0 
1407.040039 48.0 
1407.09375 30.0 
1407.136719 41.0 
1407.19043 27.0 
1407.233398 42.0 
1407.276367 23.0 
1407.297852 31.0 
1407.330078 24.0 
1407.373047 27.0 
1407.416016 23.0 
1407.4375 28.0 
1407.480591 42.0 
1407.545044 35.0 
1407.577271 27.0 
1407.598755 46.0 
1407.620239 45.0 
1407.67395 27.0 
1407.695435 31.0 
1407.738403 30.0 
1407.813721 41.0 
1407.878174 49.0 
1407.953369 42.0 
1407.996338 36.0 
1408.028687 37.0 
1408.060913 32.0 
1408.09314 35.0 
1408.125366 37.0 
1408.157593 32.0 
1408.179077 27.0 
1408.200562 29.0 
1408.243652 20.0 
1408.286621 49.0 
1408.351074 42.0 
1408.404785 24.0 
1408.415527 24.0 
1408.447876 34.0 
1408.512329 41.0 
1408.533813 36.0 
1408.56604 26.0 
1408.587524 20.0 
1408.619873 43.0 
1408.662842 25.0 
1408.695068 15.0 
1408.716553 23.0 
1408.738037 29.0 
1408.759644 29.0 
1408.79187 36.0 
1408.834839 28.0 
1408.877808 40.0 
1408.88855 40.0 
1408.910156 31.0 
1408.953125 33.0 
1408.974609 33.0 
1409.02832 31.0 
1409.092896 67.0 
1409.125122 33.0 
1409.168091 29.0 
1409.189697 36.0 
1409.243408 48.0 
1409.297241 32.0 
1409.350952 30.0 
1409.383179 42.0 
1409.42627 23.0 
1409.447754 26.0 
1409.522949 34.0 
1409.598267 22.0 
1409.6521 28.0 
1409.673584 22.0 
1409.695068 32.0 
1409.716553 31.0 
1409.759644 50.0 
1409.79187 36.0 
1409.834839 34.0 
1409.867188 41.0 
1409.910156 62.0 
1410.006958 50.0 
1410.071533 48.0 
1410.146729 36.0 
1410.211304 47.0 
1410.265137 38.0 
1410.308105 23.0 
1410.340454 43.0 
1410.372681 26.0 
1410.404907 26.0 
1410.437256 42.0 
1410.501709 45.0 
1410.534058 36.0 
1410.566284 31.0 
1410.609375 42.0 
1410.652344 16.0 
1410.673828 24.0 
1410.695435 24.0 
1410.706177 24.0 
1410.738403 43.0 
1410.770752 31.0 
1410.781494 31.0 
1410.835205 50.0 
1410.867554 28.0 
1410.89978 42.0 
1410.942871 27.0 
1410.975098 31.0 
1411.007446 31.0 
1411.028931 25.0 
1411.072021 33.0 
1411.104248 39.0 
1411.168823 34.0 
1411.211792 40.0 
1411.244141 47.0 
1411.319458 40.0 
1411.362427 44.0 
1411.405518 40.0 
1411.437866 36.0 
1411.480835 28.0 
1411.502319 34.0 
1411.556152 24.0 
1411.577759 34.0 
1411.599243 34.0 
1411.674561 42.0 
1411.696045 43.0 
1411.739136 27.0 
1411.771484 24.0 
1411.803711 25.0 
1411.835938 32.0 
1411.868286 47.0 
1411.900635 37.0 
1411.932861 29.0 
1411.954346 41.0 
1411.975952 36.0 
1411.997437 31.0 
1412.05127 42.0 
1412.072754 49.0 
1412.083496 49.0 
1412.137329 35.0 
1412.158936 54.0 
1412.201904 27.0 
1412.234253 57.0 
1412.266479 48.0 
1412.288086 30.0 
1412.30957 38.0 
1412.374146 36.0 
1412.406494 63.0 
1412.449585 20.0 
1412.471069 30.0 
1412.503296 31.0 
1412.567993 26.0 
1412.578735 26.0 
1412.610962 19.0 
1412.632568 23.0 
1412.675659 33.0 
1412.697144 33.0 
1412.740234 31.0 
1412.794067 51.0 
1412.815552 28.0 
1412.8479 34.0 
1412.890869 24.0 
1412.912476 30.0 
1412.944702 21.0 
1412.966309 18.0 
1413.009399 35.0 
1413.020142 35.0 
1413.041626 37.0 
1413.063232 36.0 
1413.106323 41.0 
1413.160156 33.0 
1413.181641 40.0 
1413.224731 33.0 
1413.246216 23.0 
1413.278564 56.0 
1413.34314 27.0 
1413.375488 33.0 
1413.429321 36.0 
1413.450806 38.0 
1413.483154 32.0 
1413.515503 35.0 
1413.547729 35.0 
1413.59082 51.0 
1413.644653 48.0 
1413.720093 14.0 
1413.741577 20.0 
1413.784668 38.0 
1413.806274 38.0 
1413.849365 32.0 
1413.903198 39.0 
1413.967773 32.0 
1413.98938 30.0 
1414.032349 35.0 
1414.075439 36.0 
1414.097046 55.0 
1414.129395 32.0 
1414.150879 36.0 
1414.215576 39.0 
1414.237061 36.0 
1414.258667 33.0 
1414.3125 58.0 
1414.398682 41.0 
1414.441772 27.0 
1414.463257 32.0 
1414.484863 38.0 
1414.51709 16.0 
1414.549438 31.0 
1414.592529 43.0 
1414.614136 30.0 
1414.657227 40.0 
1414.689453 48.0 
1414.743408 35.0 
1414.764893 46.0 
1414.797241 40.0 
1414.840332 22.0 
1414.872681 44.0 
1414.894165 27.0 
1414.926514 27.0 
1414.937256 27.0 
1415.001953 43.0 
1415.02356 36.0 
1415.06665 20.0 
1415.098877 25.0 
1415.14209 18.0 
1415.174316 22.0 
1415.206665 34.0 
1415.228271 23.0 
1415.249756 18.0 
1415.271362 26.0 
1415.303711 29.0 
1415.346802 31.0 
1415.37915 43.0 
1415.454468 26.0 
1415.497681 49.0 
1415.551514 45.0 
1415.605347 31.0 
1415.670044 44.0 
1415.723999 31.0 
1415.788574 41.0 
1415.831665 37.0 
1415.874878 50.0 
1415.971802 40.0 
1416.047241 45.0 
1416.068848 37.0 
1416.144287 45.0 
1416.187378 29.0 
1416.198242 29.0 
1416.219727 30.0 
1416.241333 21.0 
1416.262817 27.0 
1416.295166 20.0 
1416.316772 19.0 
1416.338379 24.0 
1416.370605 34.0 
1416.402954 26.0 
1416.446167 27.0 
1416.478516 17.0 
1416.510742 48.0 
1416.553955 20.0 
1416.586304 22.0 
1416.618652 42.0 
1416.640137 33.0 
1416.72644 33.0 
1416.747925 34.0 
1416.780273 28.0 
1416.812622 21.0 
1416.888184 34.0 
1416.920532 18.0 
1416.963623 43.0 
1417.039062 38.0 
1417.082275 42.0 
1417.136108 57.0 
1417.21167 45.0 
1417.265503 22.0 
1417.297852 14.0 
1417.341064 26.0 
1417.373413 21.0 
1417.416504 41.0 
1417.470459 39.0 
1417.535156 24.0 
1417.556641 17.0 
1417.578247 16.0 
1417.599854 40.0 
1417.653809 51.0 
1417.675293 30.0 
1417.729248 52.0 
1417.750854 46.0 
1417.793945 51.0 
1417.858643 18.0 
1417.890991 56.0 
1417.92334 18.0 
1417.955688 25.0 
1417.977295 19.0 
1418.020508 45.0 
1418.063599 48.0 
1418.095947 40.0 
1418.128296 27.0 
1418.149902 22.0 
1418.160645 22.0 
1418.203857 46.0 
1418.257812 40.0 
1418.333252 45.0 
1418.397949 48.0 
1418.430298 25.0 
1418.451904 19.0 
1418.505859 28.0 
1418.581421 42.0 
1418.635376 29.0 
1418.65686 30.0 
1418.678467 44.0 
1418.732422 43.0 
1418.775635 35.0 
1418.818726 28.0 
1418.829468 28.0 
1418.883423 42.0 
1418.948242 33.0 
1419.034546 39.0 
1419.088501 35.0 
1419.131592 31.0 
1419.142456 31.0 
1419.196411 29.0 
1419.22876 52.0 
1419.282715 48.0 
1419.33667 53.0 
1419.379883 38.0 
1419.412231 42.0 
1419.44458 38.0 
1419.455322 38.0 
1419.476929 32.0 
1419.530884 45.0 
1419.563232 26.0 
1419.595703 47.0 
1419.649658 45.0 
1419.692749 31.0 
1419.714355 31.0 
1419.746704 35.0 
1419.768311 29.0 
1419.811523 43.0 
1419.854736 54.0 
1419.897827 43.0 
1419.994995 50.0 
1420.038208 25.0 
1420.102905 44.0 
1420.15686 37.0 
1420.178467 41.0 
1420.254028 36.0 
1420.275635 36.0 
1420.286377 36.0 
1420.318848 46.0 
1420.372803 29.0 
1420.426758 43.0 
1420.469971 36.0 
1420.491577 28.0 
1420.502319 28.0 
1420.534668 38.0 
1420.567139 23.0 
1420.599487 40.0 
1420.6427 39.0 
1420.653442 39.0 
1420.675049 54.0 
1420.707397 58.0 
1420.75061 25.0 
1420.772217 26.0 
1420.826172 40.0 
1420.869385 35.0 
1420.912598 25.0 
1420.944946 44.0 
1420.988159 43.0 
1421.052979 28.0 
1421.096191 45.0 
1421.139282 41.0 
1421.171753 40.0 
1421.204102 34.0 
1421.225708 36.0 
1421.236572 36.0 
1421.290527 39.0 
1421.312134 27.0 
1421.344482 35.0 
1421.387695 36.0 
1421.420044 22.0 
1421.44165 32.0 
1421.463257 26.0 
1421.484863 24.0 
1421.549683 40.0 
1421.582153 22.0 
1421.614502 34.0 
1421.646851 27.0 
1421.679321 33.0 
1421.722534 12.0 
1421.744141 24.0 
1421.776489 37.0 
1421.808838 43.0 
1421.830444 39.0 
1421.852051 29.0 
1421.895264 44.0 
1421.927734 35.0 
1421.960083 34.0 
1422.01416 64.0 
1422.068115 22.0 
1422.078979 22.0 
1422.111328 40.0 
1422.154541 29.0 
1422.176147 26.0 
1422.18689 26.0 
1422.230103 35.0 
1422.262573 40.0 
1422.294922 37.0 
1422.338135 58.0 
1422.370605 31.0 
1422.392212 48.0 
1422.446167 39.0 
1422.500244 19.0 
1422.532593 52.0 
1422.565063 21.0 
1422.597412 28.0 
1422.640625 36.0 
1422.683838 46.0 
1422.705444 51.0 
1422.781128 41.0 
1422.813477 33.0 
1422.845947 43.0 
1422.910767 32.0 
1422.932373 22.0 
1422.943115 22.0 
1422.953979 22.0 
1423.008057 45.0 
1423.083618 21.0 
1423.126831 33.0 
1423.148438 34.0 
1423.159302 34.0 
1423.202515 47.0 
1423.278198 40.0 
1423.332153 48.0 
1423.364624 44.0 
1423.396973 39.0 
1423.45105 35.0 
1423.461792 35.0 
1423.515869 36.0 
1423.559082 31.0 
1423.591553 17.0 
1423.645508 23.0 
1423.677979 24.0 
1423.710449 18.0 
1423.732056 24.0 
1423.753662 24.0 
1423.775269 27.0 
1423.796875 33.0 
1423.872559 64.0 
1423.894165 27.0 
1423.948242 42.0 
1423.969849 39.0 
1423.980591 39.0 
1424.002197 39.0 
1424.045532 24.0 
1424.056274 24.0 
1424.099487 35.0 
1424.164429 35.0 
1424.196777 24.0 
1424.229248 42.0 
1424.283325 34.0 
1424.348145 19.0 
1424.380615 42.0 
1424.412964 32.0 
1424.445435 66.0 
1424.510254 50.0 
1424.553589 19.0 
1424.596802 26.0 
1424.618408 32.0 
1424.661621 10.0 
1424.694092 30.0 
1424.780518 32.0 
1424.812988 26.0 
1424.87793 22.0 
1424.910278 15.0 
1424.953613 27.0 
1425.029297 35.0 
1425.061646 21.0 
1425.083374 28.0 
1425.115723 30.0 
1425.137329 34.0 
1425.180664 41.0 
1425.234741 35.0 
1425.256348 28.0 
1425.277954 47.0 
1425.353638 35.0 
1425.375244 40.0 
1425.440186 39.0 
1425.472656 38.0 
1425.494263 32.0 
1425.537476 39.0 
1425.569946 28.0 
1425.602417 33.0 
1425.678101 38.0 
1425.721313 29.0 
1425.786255 43.0 
1425.840332 46.0 
1425.861938 40.0 
1425.905273 30.0 
1425.937622 37.0 
1425.991699 47.0 
1426.035034 32.0 
1426.067505 29.0 
1426.110718 26.0 
1426.175659 28.0 
1426.218872 10.0 
1426.251343 34.0 
1426.294678 28.0 
1426.316284 20.0 
1426.359497 36.0 
1426.424438 39.0 
1426.456909 25.0 
1426.510986 42.0 
1426.532593 33.0 
1426.554199 29.0 
1426.575928 27.0 
1426.640747 66.0 
1426.673218 39.0 
1426.705688 34.0 
1426.749023 26.0 
1426.792236 36.0 
1426.857178 35.0 
1426.889648 46.0 
1426.965332 31.0 
1426.997803 35.0 
1427.030273 24.0 
1427.052002 27.0 
1427.095215 18.0 
1427.116821 18.0 
1427.149292 19.0 
1427.181763 25.0 
1427.214233 32.0 
1427.257568 31.0 
1427.279175 39.0 
1427.32251 37.0 
1427.398193 38.0 
1427.463135 54.0 
1427.495605 48.0 
1427.50647 48.0 
1427.528076 26.0 
1427.53894 26.0 
1427.560547 28.0 
1427.603882 40.0 
1427.647095 17.0 
1427.69043 32.0 
1427.712036 29.0 
1427.733765 30.0 
1427.755371 28.0 
1427.809448 51.0 
1427.852783 31.0 
1427.885254 34.0 
1427.90686 33.0 
1427.928589 36.0 
1427.96106 27.0 
1428.047607 26.0 
1428.069214 28.0 
1428.123413 35.0 
1428.17749 12.0 
1428.231567 23.0 
1428.253296 14.0 
1428.285767 17.0 
1428.329102 47.0 
1428.372314 18.0 
1428.426514 31.0 
1428.437256 31.0 
1428.469727 11.0 
1428.513062 27.0 
1428.556396 22.0 
1428.610474 77.0 
1428.653809 45.0 
1428.675415 32.0 
1428.71875 36.0 
1428.762085 16.0 
1428.794556 38.0 
1428.827026 34.0 
1428.881226 28.0 
1428.924438 25.0 
1428.946167 39.0 
1429.000244 33.0 
1429.021973 22.0 
1429.043579 28.0 
1429.097778 19.0 
1429.119385 16.0 
1429.16272 25.0 
1429.216797 29.0 
1429.24939 33.0 
1429.292603 34.0 
1429.314331 39.0 
1429.357666 25.0 
1429.390137 34.0 
1429.433472 40.0 
1429.498413 35.0 
1429.530884 32.0 
1429.617554 48.0 
1429.704224 30.0 
1429.747437 34.0 
1429.769165 28.0 
1429.790771 31.0 
1429.8125 42.0 
1429.866577 29.0 
1429.888306 29.0 
1429.931641 35.0 
1429.953247 27.0 
1429.974976 33.0 
1429.98584 33.0 
1430.029053 50.0 
1430.050781 39.0 
1430.083252 31.0 
1430.115723 43.0 
1430.137451 29.0 
1430.169922 29.0 
1430.213257 33.0 
1430.289062 49.0 
1430.310791 33.0 
1430.354126 20.0 
1430.386597 33.0 
1430.419067 34.0 
1430.484131 32.0 
1430.538208 45.0 
1430.570679 38.0 
1430.603271 34.0 
1430.635742 38.0 
1430.700806 49.0 
1430.765747 41.0 
1430.809082 30.0 
1430.874146 48.0 
1430.928223 42.0 
1430.971558 49.0 
1431.00415 39.0 
1431.036621 36.0 
1431.079956 51.0 
1431.101685 28.0 
1431.155762 30.0 
1431.17749 28.0 
1431.242554 31.0 
1431.275024 24.0 
1431.318359 40.0 
1431.372559 23.0 
1431.394165 27.0 
1431.470093 53.0 
1431.502563 33.0 
1431.545898 28.0 
1431.578491 16.0 
1431.600098 28.0 
1431.621826 30.0 
1431.643433 22.0 
1431.71936 33.0 
1431.762695 23.0 
1431.795166 33.0 
1431.827759 13.0 
1431.860229 26.0 
1431.871094 26.0 
1431.8927 21.0 
1431.925293 28.0 
1431.957764 25.0 
1432.022827 31.0 
1432.044556 21.0 
1432.077026 55.0 
1432.174561 50.0 
1432.217896 29.0 
1432.282959 52.0 
1432.348022 33.0 
1432.413086 33.0 
1432.434692 31.0 
1432.467285 25.0 
1432.51062 36.0 
1432.532349 35.0 
1432.564819 61.0 
1432.629883 44.0 
1432.651611 87.0 
1432.662354 87.0 
1432.694946 36.0 
1432.727417 80.0 
1432.76001 25.0 
1432.79248 38.0 
1432.814209 26.0 
1432.879272 41.0 
1432.911743 35.0 
1432.944336 42.0 
1432.976807 32.0 
1433.009399 32.0 
1433.04187 29.0 
1433.085205 50.0 
1433.128662 20.0 
1433.171997 22.0 
1433.193726 23.0 
1433.226196 39.0 
1433.302124 42.0 
1433.367188 39.0 
1433.432251 54.0 
1433.475586 62.0 
1433.551514 40.0 
1433.562378 40.0 
1433.594971 50.0 
1433.627441 19.0 
1433.660034 22.0 
1433.703369 30.0 
1433.757568 34.0 
1433.790161 37.0 
1433.833496 29.0 
1433.866089 35.0 
1433.887817 38.0 
1433.909424 40.0 
1433.942017 35.0 
1434.00708 41.0 
1434.061279 24.0 
1434.126343 39.0 
1434.1698 30.0 
1434.202393 34.0 
1434.234863 21.0 
1434.27832 37.0 
1434.354248 43.0 
1434.408447 27.0 
1434.44104 21.0 
1434.451782 21.0 
1434.473511 27.0 
1434.506104 19.0 
1434.516968 19.0 
1434.527832 19.0 
1434.560303 29.0 
1434.592896 35.0 
1434.625366 39.0 
1434.679688 30.0 
1434.723022 21.0 
1434.79895 43.0 
1434.864136 42.0 
1434.896606 31.0 
1434.918335 28.0 
1434.940063 36.0 
1434.972656 42.0 
1435.015991 23.0 
1435.048584 33.0 
1435.081055 37.0 
1435.135376 19.0 
1435.157104 35.0 
1435.178711 33.0 
1435.233032 35.0 
1435.265625 13.0 
1435.319824 48.0 
1435.384888 47.0 
1435.460938 35.0 
1435.504272 49.0 
1435.580322 30.0 
1435.612793 35.0 
1435.645386 36.0 
1435.688843 24.0 
1435.721436 40.0 
1435.753906 34.0 
1435.819092 50.0 
1435.873291 53.0 
1435.927612 76.0 
1435.992676 41.0 
1436.057861 32.0 
1436.090454 12.0 
1436.112061 24.0 
1436.144653 25.0 
1436.198975 16.0 
1436.209839 16.0 
1436.264038 38.0 
1436.318359 26.0 
1436.361816 37.0 
1436.394409 34.0 
1436.405151 34.0 
1436.470337 30.0 
1436.524658 32.0 
1436.546387 23.0 
1436.567993 39.0 
1436.622314 45.0 
1436.644043 37.0 
1436.676636 23.0 
1436.709229 27.0 
1436.730957 35.0 
1436.752563 29.0 
1436.796021 31.0 
1436.828613 27.0 
1436.861206 30.0 
1436.915527 35.0 
1436.937134 25.0 
1436.980591 24.0 
1437.013184 25.0 
1437.034912 42.0 
1437.078369 42.0 
1437.110962 30.0 
1437.143555 32.0 
1437.176025 29.0 
1437.219482 30.0 
1437.262939 46.0 
1437.328125 36.0 
1437.338989 36.0 
1437.371582 40.0 
1437.414917 43.0 
1437.436646 25.0 
1437.44751 25.0 
1437.480103 16.0 
1437.512695 32.0 
1437.556152 31.0 
1437.577881 47.0 
1437.621338 33.0 
1437.664795 19.0 
1437.686523 45.0 
1437.719116 39.0 
1437.762451 38.0 
1437.795044 32.0 
1437.860229 56.0 
1437.925415 48.0 
1437.958008 41.0 
1438.023193 47.0 
1438.099243 22.0 
1438.1427 21.0 
1438.153564 21.0 
1438.197021 37.0 
1438.229614 19.0 
1438.262207 33.0 
1438.283813 25.0 
1438.305542 35.0 
1438.370728 29.0 
1438.435913 46.0 
1438.457642 52.0 
1438.47937 40.0 
1438.522827 28.0 
1438.55542 38.0 
1438.63147 32.0 
1438.642334 32.0 
1438.674927 19.0 
1438.718384 42.0 
1438.740112 50.0 
1438.783569 27.0 
1438.805298 34.0 
1438.816162 34.0 
1438.859619 27.0 
1438.881348 24.0 
1438.91394 30.0 
1438.946533 32.0 
1438.98999 34.0 
1439.011719 35.0 
1439.022583 35.0 
1439.055298 36.0 
1439.066162 36.0 
1439.098755 47.0 
1439.131348 38.0 
1439.174805 32.0 
1439.207397 13.0 
1439.250854 26.0 
1439.31604 29.0 
1439.359497 29.0 
1439.413818 21.0 
1439.46814 33.0 
1439.533325 44.0 
1439.576904 40.0 
1439.64209 38.0 
1439.674683 32.0 
1439.707275 45.0 
1439.729004 37.0 
1439.750732 38.0 
1439.772461 38.0 
1439.837646 38.0 
1439.859375 35.0 
1439.924683 20.0 
1439.946411 11.0 
1439.989868 21.0 
1440.022461 34.0 
1440.044189 28.0 
1440.109375 55.0 
1440.141968 28.0 
1440.207275 29.0 
1440.261597 49.0 
1440.272461 49.0 
1440.315918 21.0 
1440.337646 35.0 
1440.370239 23.0 
1440.402954 29.0 
1440.457275 37.0 
1440.489868 28.0 
1440.511597 28.0 
1440.56604 55.0 
1440.620361 57.0 
1440.696411 35.0 
1440.71814 29.0 
1440.794312 31.0 
1440.81604 38.0 
1440.848633 31.0 
1440.903076 43.0 
1440.924805 42.0 
1440.979126 38.0 
1441.055298 26.0 
1441.077026 27.0 
1441.120483 41.0 
1441.185669 56.0 
1441.218384 19.0 
1441.240112 28.0 
1441.261841 28.0 
1441.305298 34.0 
1441.338013 32.0 
1441.38147 27.0 
1441.403198 26.0 
1441.446655 22.0 
1441.45752 22.0 
1441.522827 41.0 
1441.55542 30.0 
1441.588135 46.0 
1441.620728 22.0 
1441.631592 22.0 
1441.65332 21.0 
1441.685913 38.0 
1441.696777 38.0 
1441.740356 33.0 
1441.794678 52.0 
1441.849121 30.0 
1441.903442 54.0 
1441.947021 26.0 
1441.96875 34.0 
1441.990479 40.0 
1442.012207 39.0 
1442.044922 35.0 
1442.06665 36.0 
1442.110107 32.0 
1442.164551 37.0 
1442.218872 20.0 
1442.262451 31.0 
1442.316772 40.0 
1442.338623 38.0 
1442.360352 41.0 
1442.38208 33.0 
1442.425659 47.0 
1442.436523 47.0 
1442.47998 24.0 
1442.556152 50.0 
1442.599609 23.0 
1442.643188 33.0 
1442.708496 30.0 
1442.751953 41.0 
1442.773682 22.0 
1442.828125 33.0 
1442.849854 41.0 
1442.893433 30.0 
1442.95874 40.0 
1443.002197 51.0 
1443.013062 51.0 
1443.056641 27.0 
1443.078369 32.0 
1443.165405 54.0 
1443.241577 58.0 
1443.285156 50.0 
1443.350464 73.0 
1443.404785 45.0 
1443.480957 56.0 
1443.524536 37.0 
1443.546265 47.0 
1443.622437 25.0 
1443.655151 40.0 
1443.67688 22.0 
1443.698608 17.0 
1443.731323 24.0 
1443.753052 26.0 
1443.807495 40.0 
1443.851074 31.0 
1443.872803 27.0 
1443.883667 27.0 
1443.916382 33.0 
1443.948975 32.0 
1443.981689 43.0 
1444.046997 21.0 
1444.068726 18.0 
1444.090454 30.0 
1444.144897 23.0 
1444.166748 35.0 
1444.210205 18.0 
1444.24292 25.0 
1444.319092 45.0 
1444.384399 43.0 
1444.460571 35.0 
1444.482422 36.0 
1444.493286 36.0 
1444.525879 26.0 
1444.536743 26.0 
1444.602173 50.0 
1444.64563 28.0 
1444.678345 25.0 
1444.765381 32.0 
1444.787231 22.0 
1444.830811 26.0 
1444.863403 24.0 
1444.896118 30.0 
1444.906982 30.0 
1444.939575 34.0 
1444.961426 28.0 
1444.983154 26.0 
1445.026733 40.0 
1445.070312 31.0 
1445.092041 31.0 
1445.146484 38.0 
1445.168335 54.0 
1445.233643 53.0 
1445.288086 33.0 
1445.331665 38.0 
1445.386108 45.0 
1445.418701 35.0 
1445.451416 38.0 
1445.484131 52.0 
1445.527588 36.0 
1445.549438 26.0 
1445.593018 26.0 
1445.62561 27.0 
1445.636597 27.0 
1445.658325 36.0 
1445.723633 31.0 
1445.756348 23.0 
1445.821655 41.0 
1445.865234 21.0 
1445.908813 17.0 
1445.941528 31.0 
1445.985107 23.0 
1446.006836 33.0 
1446.039551 37.0 
1446.093994 32.0 
1446.137573 35.0 
1446.213745 46.0 
1446.257324 35.0 
1446.268311 35.0 
1446.31189 34.0 
1446.344482 22.0 
1446.366333 27.0 
1446.409912 36.0 
1446.464355 30.0 
1446.540649 40.0 
1446.573242 33.0 
1446.616821 42.0 
1446.649536 34.0 
1446.682251 33.0 
1446.72583 26.0 
1446.780273 50.0 
1446.845703 27.0 
1446.867432 37.0 
1446.921875 39.0 
1446.965454 34.0 
1446.998169 44.0 
1447.041748 41.0 
1447.063599 43.0 
1447.096313 23.0 
1447.107178 23.0 
1447.139893 40.0 
1447.172485 32.0 
1447.194336 22.0 
1447.27063 28.0 
1447.292358 22.0 
1447.357788 41.0 
1447.390503 33.0 
1447.423096 31.0 
1447.455811 38.0 
1447.49939 31.0 
1447.564819 28.0 
1447.597534 30.0 
1447.641113 32.0 
1447.695557 44.0 
1447.739136 56.0 
1447.782837 36.0 
1447.804565 41.0 
1447.83728 38.0 
1447.869995 32.0 
1447.946289 38.0 
1447.979004 34.0 
1448.022583 29.0 
1448.055298 35.0 
1448.077026 37.0 
1448.098877 40.0 
1448.131592 20.0 
1448.175171 48.0 
1448.251465 52.0 
1448.316895 59.0 
1448.382324 34.0 
1448.436768 46.0 
1448.458618 58.0 
1448.469482 58.0 
1448.513062 34.0 
1448.545776 31.0 
1448.589355 60.0 
1448.62207 17.0 
1448.676636 29.0 
1448.709351 33.0 
1448.731079 41.0 
1448.807495 33.0 
1448.84021 36.0 
1448.861938 34.0 
1448.883789 31.0 
1448.927368 44.0 
1448.992798 28.0 
1449.025513 25.0 
1449.047363 30.0 
1449.090942 58.0 
1449.145386 40.0 
1449.156372 40.0 
1449.221802 53.0 
1449.276245 44.0 
1449.30896 34.0 
1449.37439 41.0 
1449.418091 31.0 
1449.483521 41.0 
1449.54895 42.0 
1449.603394 27.0 
1449.657959 35.0 
1449.712524 33.0 
1449.723389 33.0 
1449.799805 37.0 
1449.821533 47.0 
1449.843384 32.0 
1449.876099 22.0 
1449.897949 18.0 
1449.941528 38.0 
1449.985107 26.0 
1450.006958 22.0 
1450.028809 22.0 
1450.061523 22.0 
1450.083374 36.0 
1450.105103 27.0 
1450.159668 36.0 
1450.236084 51.0 
1450.312378 33.0 
1450.388794 49.0 
1450.432373 34.0 
1450.465088 30.0 
1450.508789 48.0 
1450.563232 37.0 
1450.585083 44.0 
1450.606934 36.0 
1450.628784 32.0 
1450.705078 13.0 
1450.737793 23.0 
1450.770508 26.0 
1450.814209 48.0 
1450.83606 42.0 
1450.868774 22.0 
1450.890625 24.0 
1450.92334 65.0 
1450.966919 29.0 
1450.999634 39.0 
1451.01062 39.0 
1451.07605 31.0 
1451.0979 23.0 
1451.119751 33.0 
1451.152466 37.0 
1451.174316 39.0 
1451.25061 45.0 
1451.294312 32.0 
1451.327026 27.0 
1451.337891 27.0 
1451.392456 17.0 
1451.403442 17.0 
1451.436157 15.0 
1451.458008 16.0 
1451.479858 29.0 
1451.523438 21.0 
1451.588867 56.0 
1451.621704 20.0 
1451.643433 21.0 
1451.665283 24.0 
1451.708984 16.0 
1451.741699 26.0 
1451.76355 25.0 
1451.796265 27.0 
1451.839966 41.0 
1451.861816 48.0 
1451.894531 35.0 
1451.93811 29.0 
1451.970947 34.0 
1452.003662 17.0 
1452.047363 27.0 
1452.080078 23.0 
1452.112793 15.0 
1452.156494 41.0 
1452.200073 31.0 
1452.254639 23.0 
1452.29834 27.0 
1452.342041 41.0 
1452.407471 42.0 
1452.440308 38.0 
1452.494873 37.0 
1452.571289 29.0 
1452.61499 28.0 
1452.647705 38.0 
1452.691406 45.0 
1452.724121 74.0 
1452.767822 31.0 
1452.800537 28.0 
1452.844238 36.0 
1452.866089 23.0 
1452.887817 27.0 
1452.920654 39.0 
1452.964233 33.0 
1453.018921 31.0 
1453.051636 25.0 
1453.117188 40.0 
1453.160767 16.0 
1453.193604 20.0 
1453.226318 46.0 
1453.259155 26.0 
1453.29187 36.0 
1453.324585 34.0 
1453.37915 30.0 
1453.422852 39.0 
1453.455688 36.0 
1453.532104 53.0 
1453.575806 51.0 
1453.630371 29.0 
1453.695923 29.0 
1453.728638 21.0 
1453.761475 50.0 
1453.805054 26.0 
1453.859741 31.0 
1453.881592 29.0 
1453.958008 46.0 
1453.979858 48.0 
1454.034424 28.0 
1454.056274 27.0 
1454.089111 37.0 
1454.176514 31.0 
1454.198364 48.0 
1454.241943 37.0 
1454.27478 20.0 
1454.307495 46.0 
1454.351196 44.0 
1454.438599 40.0 
1454.50415 36.0 
1454.558838 42.0 
1454.602417 38.0 
1454.635254 34.0 
1454.657104 43.0 
1454.71167 23.0 
1454.744507 34.0 
1454.766357 34.0 
1454.820923 44.0 
1454.842773 42.0 
1454.87561 31.0 
1454.908325 36.0 
1454.930176 28.0 
1454.963013 26.0 
1454.995728 49.0 
1455.028564 33.0 
1455.061279 28.0 
1455.08313 33.0 
1455.126831 45.0 
1455.192505 33.0 
1455.258057 20.0 
1455.301758 28.0 
1455.334473 43.0 
1455.36731 24.0 
1455.38916 25.0 
1455.454712 44.0 
1455.509277 32.0 
1455.574951 43.0 
1455.618652 24.0 
1455.629517 24.0 
1455.684204 28.0 
1455.73877 31.0 
1455.749756 31.0 
1455.771606 25.0 
1455.804443 44.0 
1455.848145 26.0 
1455.869995 26.0 
1455.891846 35.0 
1455.913696 38.0 
1455.990234 43.0 
1456.06665 52.0 
1456.099487 47.0 
1456.132324 53.0 
1456.176025 30.0 
1456.20874 41.0 
1456.241577 58.0 
1456.318115 47.0 
1456.339966 43.0 
1456.383667 32.0 
1456.449219 44.0 
1456.493042 44.0 
1456.525757 29.0 
1456.580444 51.0 
1456.613281 54.0 
1456.645996 21.0 
1456.678833 30.0 
1456.689819 30.0 
1456.722534 30.0 
1456.766235 32.0 
1456.788208 31.0 
1456.810059 35.0 
1456.831909 23.0 
1456.864746 35.0 
1456.897461 38.0 
1456.941162 30.0 
1456.973999 34.0 
1456.99585 28.0 
1457.0177 28.0 
1457.050537 22.0 
1457.094238 26.0 
1457.127075 30.0 
1457.159912 34.0 
1457.181763 35.0 
1457.23645 31.0 
1457.258301 33.0 
1457.291138 38.0 
1457.323853 25.0 
1457.345825 34.0 
1457.422363 40.0 
1457.466064 13.0 
1457.509766 44.0 
1457.553589 18.0 
1457.586304 39.0 
1457.630127 44.0 
1457.673828 34.0 
1457.728516 45.0 
1457.772217 22.0 
1457.794067 26.0 
1457.848755 49.0 
1457.892578 29.0 
1457.95813 43.0 
1457.980103 41.0 
1458.001953 34.0 
1458.03479 21.0 
1458.078491 41.0 
1458.17688 42.0 
1458.198853 22.0 
1458.231567 33.0 
1458.242554 33.0 
1458.275391 26.0 
1458.319092 25.0 
1458.362915 25.0 
1458.384766 42.0 
1458.406616 25.0 
1458.439453 32.0 
1458.461304 49.0 
1458.494141 36.0 
1458.570679 30.0 
1458.647339 43.0 
1458.712891 30.0 
1458.745728 29.0 
1458.778564 26.0 
1458.800415 31.0 
1458.844238 26.0 
1458.866089 48.0 
1458.898926 38.0 
1458.953613 44.0 
1458.975464 43.0 
1459.008301 44.0 
1459.052124 25.0 
1459.084839 42.0 
1459.139648 17.0 
1459.172485 25.0 
1459.194336 39.0 
1459.249023 18.0 
1459.28186 43.0 
1459.303711 35.0 
1459.347534 25.0 
1459.380371 41.0 
1459.413086 36.0 
1459.456909 24.0 
1459.489746 30.0 
1459.511597 27.0 
1459.533569 32.0 
1459.588257 43.0 
1459.653931 33.0 
1459.686768 62.0 
1459.741455 35.0 
1459.796143 38.0 
1459.883667 46.0 
1459.960327 29.0 
1460.015015 30.0 
1460.036987 42.0 
1460.113525 31.0 
1460.168213 27.0 
1460.190186 29.0 
1460.223022 41.0 
1460.266724 30.0 
1460.299561 23.0 
1460.343384 32.0 
1460.365234 30.0 
1460.409058 37.0 
1460.441895 41.0 
1460.463745 30.0 
1460.474731 30.0 
1460.518555 25.0 
1460.540405 31.0 
1460.584229 32.0 
1460.606079 36.0 
1460.638916 31.0 
1460.671753 34.0 
1460.70459 28.0 
1460.748413 22.0 
1460.78125 47.0 
1460.825073 21.0 
1460.846924 39.0 
1460.890747 31.0 
1460.923584 56.0 
1460.956421 15.0 
1460.989258 36.0 
1461.033081 17.0 
1461.087769 25.0 
1461.131592 24.0 
1461.175415 24.0 
1461.219238 41.0 
1461.273926 40.0 
1461.317749 38.0 
1461.350586 30.0 
1461.41626 49.0 
1461.460083 27.0 
1461.514893 39.0 
1461.56958 18.0 
1461.602417 35.0 
1461.64624 35.0 
1461.668091 31.0 
1461.7229 46.0 
1461.766724 32.0 
1461.799561 25.0 
1461.821411 27.0 
1461.843384 31.0 
1461.876221 52.0 
1461.920044 36.0 
1461.952881 31.0 
1461.974731 33.0 
1462.018555 44.0 
1462.051392 29.0 
1462.095215 56.0 
1462.128174 38.0 
1462.150024 35.0 
1462.215698 37.0 
1462.259521 44.0 
1462.292358 28.0 
1462.336182 23.0 
1462.380005 37.0 
1462.423828 43.0 
1462.456665 36.0 
1462.489624 51.0 
1462.566284 39.0 
1462.610107 23.0 
1462.631958 18.0 
1462.664795 27.0 
1462.686768 27.0 
1462.708618 22.0 
1462.741577 24.0 
1462.763428 29.0 
1462.7854 44.0 
1462.862061 21.0 
1462.894897 45.0 
1462.916748 45.0 
1462.938721 45.0 
1463.015381 49.0 
1463.048218 31.0 
1463.103027 41.0 
1463.157837 28.0 
1463.190674 35.0 
1463.212646 29.0 
1463.234497 39.0 
1463.25647 24.0 
1463.322144 33.0 
1463.398926 44.0 
1463.431763 30.0 
1463.442749 30.0 
1463.4646 45.0 
1463.497559 23.0 
1463.541382 39.0 
1463.552246 39.0 
1463.618042 54.0 
1463.640015 50.0 
1463.661865 35.0 
1463.672852 35.0 
1463.683838 35.0 
1463.716675 36.0 
1463.738525 34.0 
1463.760498 30.0 
1463.782471 26.0 
1463.804321 20.0 
1463.837158 24.0 
1463.870117 30.0 
1463.881104 30.0 
1463.924927 27.0 
1463.957764 10.0 
1464.001587 39.0 
1464.034424 41.0 
1464.078369 34.0 
1464.089233 34.0 
1464.111206 41.0 
1464.144043 31.0 
1464.187866 33.0 
1464.253662 57.0 
1464.319458 32.0 
1464.352295 46.0 
1464.374268 57.0 
1464.450928 41.0 
1464.483887 49.0 
1464.560547 40.0 
1464.593506 47.0 
1464.626343 31.0 
1464.659302 54.0 
1464.714111 35.0 
1464.757935 32.0 
1464.790771 25.0 
1464.845581 73.0 
1464.922363 39.0 
1464.944214 44.0 
1464.999146 50.0 
1465.042969 32.0 
1465.097778 44.0 
1465.130615 54.0 
1465.163574 31.0 
1465.196411 56.0 
1465.240234 51.0 
1465.28418 28.0 
1465.328003 37.0 
1465.349976 49.0 
1465.393799 43.0 
1465.426636 36.0 
1465.470581 30.0 
1465.492432 39.0 
1465.503418 39.0 
1465.558228 39.0 
1465.613037 35.0 
1465.63501 41.0 
1465.689819 55.0 
1465.744629 39.0 
1465.799561 30.0 
1465.843384 45.0 
1465.887207 34.0 
1465.920166 27.0 
1465.953003 39.0 
1465.985962 38.0 
1466.018799 48.0 
1466.062744 34.0 
1466.095581 34.0 
1466.12854 37.0 
1466.161377 50.0 
1466.18335 46.0 
1466.194336 46.0 
1466.238159 40.0 
1466.282104 26.0 
1466.303955 46.0 
1466.391724 42.0 
1466.45752 50.0 
1466.490479 41.0 
1466.523438 40.0 
1466.534302 40.0 
1466.567261 31.0 
1466.62207 29.0 
1466.644043 36.0 
1466.709839 27.0 
1466.742798 36.0 
1466.775635 72.0 
1466.841553 29.0 
1466.907349 26.0 
1466.940186 19.0 
1466.973145 28.0 
1467.016968 16.0 
1467.049927 46.0 
1467.093872 21.0 
1467.126709 15.0 
1467.170654 36.0 
1467.214478 38.0 
1467.280396 31.0 
1467.324219 29.0 
1467.335205 29.0 
1467.401001 45.0 
1467.43396 33.0 
1467.477783 44.0 
1467.499756 44.0 
1467.543701 28.0 
1467.576538 48.0 
1467.642456 46.0 
1467.664429 34.0 
1467.686279 35.0 
1467.708252 29.0 
1467.741211 59.0 
1467.785034 18.0 
1467.817993 44.0 
1467.861938 29.0 
1467.883911 42.0 
1467.927734 38.0 
1467.949707 28.0 
1467.97168 29.0 
1468.004517 51.0 
1468.026489 50.0 
1468.070435 37.0 
1468.114258 53.0 
1468.147217 40.0 
1468.191162 36.0 
1468.234985 28.0 
1468.278931 42.0 
1468.31189 22.0 
1468.333862 19.0 
1468.432617 47.0 
1468.487427 27.0 
1468.553345 54.0 
1468.630127 25.0 
1468.663086 21.0 
1468.707031 20.0 
1468.73999 24.0 
1468.7948 49.0 
1468.827759 31.0 
1468.871704 43.0 
1468.893677 28.0 
1468.926514 26.0 
1468.948486 30.0 
1469.003418 30.0 
1469.014404 30.0 
1469.113159 34.0 
1469.179077 38.0 
1469.190063 38.0 
1469.266968 42.0 
1469.288818 36.0 
1469.321777 42.0 
1469.332764 42.0 
1469.376709 22.0 
1469.398682 30.0 
1469.442627 57.0 
1469.552368 46.0 
1469.585327 32.0 
1469.6073 42.0 
1469.662231 33.0 
1469.69519 31.0 
1469.75 35.0 
1469.782959 31.0 
1469.815918 32.0 
1469.848877 43.0 
1469.881836 16.0 
1469.914795 19.0 
1469.936768 20.0 
1469.95874 20.0 
1469.991577 29.0 
1470.01355 30.0 
1470.046509 20.0 
1470.090454 23.0 
1470.123413 34.0 
1470.189331 27.0 
1470.22229 26.0 
1470.266235 28.0 
1470.299194 40.0 
1470.343018 41.0 
1470.397949 22.0 
1470.430908 55.0 
1470.463867 29.0 
1470.496826 26.0 
1470.540771 56.0 
1470.617676 44.0 
1470.683594 50.0 
1470.716553 56.0 
1470.749512 52.0 
1470.793457 35.0 
1470.859375 39.0 
1470.90332 43.0 
1470.925293 39.0 
1470.969238 47.0 
1470.980225 47.0 
1471.013184 49.0 
1471.046143 54.0 
1471.090088 36.0 
1471.123047 39.0 
1471.166992 36.0 
1471.254883 24.0 
1471.298828 29.0 
1471.364746 39.0 
1471.386719 28.0 
1471.408691 47.0 
1471.463623 39.0 
1471.518555 32.0 
1471.540527 40.0 
1471.595459 36.0 
1471.672363 41.0 
1471.727295 24.0 
1471.749268 27.0 
1471.793213 23.0 
1471.837158 29.0 
1471.859131 26.0 
1471.89209 21.0 
1471.925049 17.0 
1471.958008 31.0 
1471.990967 28.0 
1472.035034 42.0 
1472.100952 46.0 
1472.155884 31.0 
1472.177856 26.0 
1472.199829 27.0 
1472.243774 44.0 
1472.309692 29.0 
1472.364746 34.0 
1472.430664 38.0 
1472.474609 41.0 
1472.540527 44.0 
1472.584473 42.0 
1472.617432 40.0 
1472.694458 46.0 
1472.716431 28.0 
1472.738403 26.0 
1472.771362 39.0 
1472.815308 41.0 
1472.848267 43.0 
1472.881348 24.0 
1472.925293 45.0 
1472.958252 27.0 
1472.980225 31.0 
1473.02417 39.0 
1473.057129 19.0 
1473.09021 35.0 
1473.134155 62.0 
1473.167114 38.0 
1473.244141 40.0 
1473.266113 47.0 
1473.310059 37.0 
1473.343018 39.0 
1473.36499 36.0 
1473.409058 24.0 
1473.474976 27.0 
1473.496948 33.0 
1473.55188 27.0 
1473.573975 26.0 
1473.606934 25.0 
1473.628906 26.0 
1473.650879 26.0 
1473.683838 23.0 
1473.716919 46.0 
1473.738892 44.0 
1473.793823 31.0 
1473.826782 34.0 
1473.859863 39.0 
1473.892822 32.0 
1473.925781 25.0 
1473.969727 32.0 
1473.991821 35.0 
1474.013794 33.0 
1474.079712 37.0 
1474.123779 38.0 
1474.145752 40.0 
1474.167725 41.0 
1474.189697 40.0 
1474.244751 21.0 
1474.288696 37.0 
1474.34375 40.0 
1474.387695 26.0 
1474.431641 44.0 
1474.475708 33.0 
1474.508667 24.0 
1474.552612 37.0 
1474.585693 36.0 
1474.651611 36.0 
1474.684692 35.0 
1474.739624 39.0 
1474.761597 45.0 
1474.827637 28.0 
1474.871704 45.0 
1474.893677 33.0 
1474.926636 19.0 
1474.970703 35.0 
1475.025635 23.0 
1475.069702 24.0 
1475.13562 38.0 
1475.157715 27.0 
1475.20166 29.0 
1475.234741 26.0 
1475.2677 36.0 
1475.311646 36.0 
1475.33374 42.0 
1475.399658 39.0 
1475.432739 36.0 
1475.498779 52.0 
1475.542725 37.0 
1475.575806 26.0 
1475.608765 33.0 
1475.630737 32.0 
1475.663818 40.0 
1475.685791 40.0 
1475.729736 39.0 
1475.78479 27.0 
1475.806763 24.0 
1475.839844 28.0 
1475.883789 47.0 
1475.91687 34.0 
1475.98291 27.0 
1476.026855 44.0 
1476.070923 38.0 
1476.103882 32.0 
1476.136963 58.0 
1476.169922 41.0 
1476.203003 33.0 
1476.246948 31.0 
1476.280029 24.0 
1476.324097 33.0 
1476.346069 35.0 
1476.379028 21.0 
1476.390015 21.0 
1476.445068 19.0 
1476.467163 27.0 
1476.489136 34.0 
1476.500122 34.0 
1476.555176 33.0 
1476.599243 36.0 
1476.621216 40.0 
1476.665283 33.0 
1476.698242 35.0 
1476.720215 34.0 
1476.74231 22.0 
1476.797363 47.0 
1476.819336 48.0 
1476.885376 50.0 
1476.918457 21.0 
1476.951416 25.0 
1476.973389 33.0 
1476.995483 21.0 
1477.017456 26.0 
1477.07251 30.0 
1477.105591 40.0 
1477.127563 45.0 
1477.20459 40.0 
1477.237671 31.0 
1477.259644 41.0 
1477.33667 45.0 
1477.358765 26.0 
1477.435791 53.0 
1477.457886 39.0 
1477.523926 33.0 
1477.567871 31.0 
1477.589966 33.0 
1477.634033 31.0 
1477.666992 27.0 
1477.689087 29.0 
1477.71106 27.0 
1477.744141 37.0 
1477.788086 24.0 
1477.821167 34.0 
1477.865234 45.0 
1477.909302 21.0 
1477.920288 21.0 
1477.942261 21.0 
1477.975342 41.0 
1478.008423 18.0 
1478.041382 20.0 
1478.063477 26.0 
1478.096436 28.0 
1478.11853 14.0 
1478.162598 30.0 
1478.206543 29.0 
1478.25061 44.0 
1478.261597 44.0 
1478.338745 50.0 
1478.371826 25.0 
1478.415894 34.0 
1478.42688 34.0 
1478.459839 29.0 
1478.49292 27.0 
1478.515015 28.0 
1478.547974 20.0 
1478.570068 17.0 
1478.592041 18.0 
1478.636108 38.0 
1478.647095 38.0 
1478.691162 41.0 
1478.746216 28.0 
1478.768311 43.0 
1478.790283 46.0 
1478.867432 50.0 
1478.933472 32.0 
1478.966553 55.0 
1479.01062 21.0 
1479.043701 29.0 
1479.07666 22.0 
1479.109741 34.0 
1479.142822 28.0 
1479.175903 37.0 
1479.241943 44.0 
1479.264038 35.0 
1479.286011 32.0 
1479.330078 46.0 
1479.385132 53.0 
1479.407227 48.0 
1479.429199 28.0 
1479.451294 32.0 
1479.46228 32.0 
1479.506348 34.0 
1479.539429 34.0 
1479.616577 54.0 
1479.649536 35.0 
1479.682617 41.0 
1479.715698 33.0 
1479.770752 36.0 
1479.836914 58.0 
1479.880981 50.0 
1479.914062 34.0 
1479.947144 48.0 
1479.991211 44.0 
1480.057251 29.0 
1480.156494 48.0 
1480.233643 52.0 
1480.266602 48.0 
1480.310791 37.0 
1480.354858 29.0 
1480.398926 18.0 
1480.420898 39.0 
1480.442993 36.0 
1480.476074 31.0 
1480.531128 17.0 
1480.575195 25.0 
1480.59729 20.0 
1480.619385 21.0 
1480.641357 34.0 
1480.663452 37.0 
1480.70752 40.0 
1480.740601 20.0 
1480.762573 32.0 
1480.773682 32.0 
1480.795654 26.0 
1480.817749 25.0 
1480.861816 44.0 
1480.91687 35.0 
1480.96106 30.0 
1480.994141 42.0 
1481.016113 34.0 
1481.071289 43.0 
1481.10437 34.0 
1481.148438 37.0 
1481.203491 29.0 
1481.225586 27.0 
1481.258667 13.0 
1481.28064 18.0 
1481.313721 26.0 
1481.35791 35.0 
1481.412964 53.0 
1481.446045 45.0 
1481.490112 52.0 
1481.545288 53.0 
1481.600464 41.0 
1481.61145 41.0 
1481.655518 30.0 
1481.710693 39.0 
1481.754761 34.0 
1481.798828 26.0 
1481.86499 25.0 
1481.898071 28.0 
1481.931152 24.0 
1481.953247 15.0 
1481.975342 28.0 
1482.019409 27.0 
1482.041504 28.0 
1482.085571 31.0 
1482.118652 33.0 
1482.16272 39.0 
1482.184814 31.0 
1482.23999 38.0 
1482.261963 39.0 
1482.284058 32.0 
1482.361206 47.0 
1482.416382 40.0 
1482.438477 47.0 
1482.515625 36.0 
1482.548706 32.0 
1482.570801 31.0 
1482.614868 17.0 
1482.659058 33.0 
1482.692139 15.0 
1482.714111 22.0 
1482.780396 47.0 
1482.835449 37.0 
1482.857544 20.0 
1482.890625 38.0 
1482.967896 37.0 
1483.034058 42.0 
1483.067139 46.0 
1483.111206 56.0 
1483.17749 46.0 
1483.221558 33.0 
1483.28772 39.0 
1483.342896 45.0 
1483.398071 31.0 
1483.453247 34.0 
1483.530396 32.0 
1483.55249 32.0 
1483.563599 32.0 
1483.585571 40.0 
1483.640747 37.0 
1483.695923 49.0 
1483.751099 31.0 
1483.817261 92.0 
1483.883545 33.0 
1483.916626 35.0 
1483.993896 24.0 
1484.015869 15.0 
1484.026978 15.0 
1484.060059 30.0 
1484.115234 39.0 
1484.181396 23.0 
1484.225586 38.0 
1484.269775 39.0 
1484.302856 31.0 
1484.335938 56.0 
1484.380127 25.0 
1484.413208 37.0 
1484.446289 53.0 
1484.52356 29.0 
1484.545654 26.0 
1484.567627 32.0 
1484.633911 40.0 
1484.678101 47.0 
1484.689087 47.0 
1484.711182 38.0 
1484.755249 47.0 
1484.799438 22.0 
1484.83252 46.0 
1484.90979 51.0 
1484.931885 45.0 
1484.964966 41.0 
1484.987061 39.0 
1485.009155 37.0 
1485.042236 31.0 
1485.086426 53.0 
1485.119507 22.0 
1485.15271 37.0 
1485.174683 38.0 
1485.274048 48.0 
1485.329224 34.0 
1485.351318 29.0 
1485.384521 52.0 
1485.450684 71.0 
1485.516968 44.0 
1485.561157 48.0 
1485.660522 48.0 
1485.726685 44.0 
1485.759888 52.0 
1485.82605 46.0 
1485.848145 14.0 
1485.870239 35.0 
1485.925415 49.0 
1485.991699 29.0 
1486.035889 34.0 
1486.057983 33.0 
1486.091064 45.0 
1486.135254 42.0 
1486.168335 32.0 
1486.212524 34.0 
1486.245728 38.0 
1486.2677 29.0 
1486.31189 32.0 
1486.378174 55.0 
1486.466553 31.0 
1486.499634 32.0 
1486.565918 49.0 
1486.588013 49.0 
1486.632202 11.0 
1486.665283 40.0 
1486.698486 27.0 
1486.753662 37.0 
1486.797852 38.0 
1486.864136 63.0 
1486.897217 39.0 
1486.941406 32.0 
1486.985596 43.0 
1487.029785 26.0 
1487.062866 30.0 
1487.096069 42.0 
1487.12915 42.0 
1487.140259 42.0 
1487.184448 23.0 
1487.217529 38.0 
1487.272827 41.0 
1487.305908 34.0 
1487.317017 34.0 
1487.394287 34.0 
1487.416382 43.0 
1487.449585 47.0 
1487.493774 37.0 
1487.560059 39.0 
1487.626343 53.0 
1487.681519 45.0 
1487.736816 39.0 
1487.769897 32.0 
1487.803101 34.0 
1487.814087 34.0 
1487.880371 39.0 
1487.924561 42.0 
1487.935669 42.0 
1487.957764 39.0 
1487.979858 42.0 
1488.012939 23.0 
1488.046143 35.0 
1488.112427 59.0 
1488.178711 74.0 
1488.2229 32.0 
1488.244995 30.0 
1488.278198 31.0 
1488.322388 35.0 
1488.377686 36.0 
1488.39978 32.0 
1488.432861 28.0 
1488.454956 33.0 
1488.477051 36.0 
1488.499146 18.0 
1488.532349 25.0 
1488.554443 20.0 
1488.576538 34.0 
1488.609741 19.0 
1488.653931 31.0 
1488.69812 20.0 
1488.720215 18.0 
1488.786499 42.0 
1488.808594 33.0 
1488.830688 33.0 
1488.852783 38.0 
1488.885986 34.0 
1488.919189 29.0 
1488.941284 18.0 
1488.974365 26.0 
1489.018677 23.0 
1489.040771 21.0 
1489.051758 21.0 
1489.107056 37.0 
1489.140259 23.0 
1489.162354 18.0 
1489.195435 32.0 
1489.239746 22.0 
1489.272827 28.0 
1489.30603 20.0 
1489.328125 18.0 
1489.339233 18.0 
1489.394409 31.0 
1489.449707 37.0 
1489.471802 23.0 
1489.515991 41.0 
1489.549194 22.0 
1489.582397 45.0 
1489.626587 19.0 
1489.692871 39.0 
1489.737183 38.0 
1489.770264 27.0 
1489.814575 45.0 
1489.858765 37.0 
1489.891968 30.0 
1489.914062 39.0 
1489.958252 34.0 
1490.01355 52.0 
1490.079834 45.0 
1490.102051 35.0 
1490.124146 31.0 
1490.14624 31.0 
1490.179443 39.0 
1490.245728 36.0 
1490.278931 31.0 
1490.32312 45.0 
1490.378418 39.0 
1490.400513 34.0 
1490.477905 34.0 
1490.544312 27.0 
1490.588501 43.0 
1490.621704 28.0 
1490.643799 40.0 
1490.699097 45.0 
1490.7323 24.0 
1490.743408 24.0 
1490.776489 27.0 
1490.820801 37.0 
1490.842896 33.0 
1490.876099 37.0 
1490.920288 58.0 
1490.9646 28.0 
1490.997681 49.0 
1491.052979 40.0 
1491.086182 33.0 
1491.09729 33.0 
1491.163696 34.0 
1491.185791 30.0 
1491.263184 45.0 
1491.307373 31.0 
1491.32959 37.0 
1491.384888 38.0 
1491.406982 45.0 
1491.451172 43.0 
1491.473389 57.0 
1491.506592 22.0 
1491.539673 42.0 
1491.56189 56.0 
1491.639282 46.0 
1491.661377 33.0 
1491.69458 37.0 
1491.727783 44.0 
1491.749878 29.0 
1491.783081 36.0 
1491.827393 47.0 
1491.860596 33.0 
1491.904785 50.0 
1491.937988 23.0 
1491.9823 44.0 
1492.048584 31.0 
1492.070801 21.0 
1492.092896 28.0 
1492.159302 66.0 
1492.225708 62.0 
1492.269897 36.0 
1492.314209 34.0 
1492.336304 47.0 
1492.380615 31.0 
1492.413818 20.0 
1492.447021 29.0 
1492.491211 30.0 
1492.524414 35.0 
1492.557617 23.0 
1492.59082 33.0 
1492.646118 37.0 
1492.668335 37.0 
1492.69043 35.0 
1492.712524 36.0 
1492.734619 39.0 
1492.812134 24.0 
1492.845337 32.0 
1492.911743 28.0 
1492.944946 39.0 
1493.022461 40.0 
1493.044556 36.0 
1493.077759 29.0 
1493.133057 35.0 
1493.188477 37.0 
1493.232666 40.0 
1493.254883 45.0 
1493.299072 47.0 
1493.354492 32.0 
1493.420898 31.0 
1493.454102 30.0 
1493.509399 31.0 
1493.531616 29.0 
1493.586914 32.0 
1493.609009 31.0 
1493.65332 13.0 
1493.70874 18.0 
1493.730835 35.0 
1493.80835 42.0 
1493.830444 25.0 
1493.885864 43.0 
1493.985474 37.0 
1494.018677 43.0 
1494.073975 42.0 
1494.096191 35.0 
1494.151489 38.0 
1494.184692 27.0 
1494.206909 39.0 
1494.240112 23.0 
1494.273315 24.0 
1494.328735 45.0 
1494.361938 27.0 
1494.417236 35.0 
1494.483765 41.0 
1494.494751 41.0 
1494.527954 28.0 
1494.550171 21.0 
1494.594482 34.0 
1494.616577 25.0 
1494.660889 50.0 
1494.671997 50.0 
1494.716309 34.0 
1494.771606 33.0 
1494.838013 20.0 
1494.871338 25.0 
1494.915527 16.0 
1494.948853 44.0 
1494.970947 42.0 
1495.037354 43.0 
1495.05957 31.0 
1495.070679 31.0 
1495.125977 39.0 
1495.148193 33.0 
1495.192505 30.0 
1495.225708 37.0 
1495.258911 19.0 
1495.303223 45.0 
1495.325317 49.0 
1495.369629 51.0 
1495.402954 43.0 
1495.425049 38.0 
1495.46936 29.0 
1495.491577 26.0 
1495.513672 29.0 
1495.546875 52.0 
1495.613403 26.0 
1495.646606 28.0 
1495.690918 36.0 
1495.757324 28.0 
1495.790649 29.0 
1495.812744 27.0 
1495.834961 43.0 
1495.912476 67.0 
1495.945679 36.0 
1495.956787 36.0 
1496.012207 54.0 
1496.056519 16.0 
1496.067627 16.0 
1496.10083 38.0 
1496.145142 27.0 
1496.167236 28.0 
1496.211548 30.0 
1496.222656 30.0 
1496.266968 29.0 
1496.300293 49.0 
1496.322388 42.0 
1496.388916 58.0 
1496.433228 27.0 
1496.466431 31.0 
1496.488647 19.0 
1496.521851 31.0 
1496.555054 22.0 
1496.599365 34.0 
1496.63269 36.0 
1496.665894 46.0 
1496.710205 21.0 
1496.743408 27.0 
1496.776733 46.0 
1496.84314 32.0 
1496.865356 26.0 
1496.89856 18.0 
1496.942993 36.0 
1496.976196 12.0 
1497.020508 47.0 
1497.075928 28.0 
1497.087036 28.0 
1497.131348 39.0 
1497.164551 41.0 
1497.208862 33.0 
1497.275391 23.0 
1497.330811 27.0 
1497.364136 13.0 
1497.397339 19.0 
1497.430542 17.0 
1497.463867 40.0 
1497.508179 41.0 
1497.541382 42.0 
1497.574707 33.0 
1497.585815 33.0 
1497.60791 44.0 
1497.66333 43.0 
1497.685547 53.0 
1497.752075 26.0 
1497.807495 85.0 
1497.874023 77.0 
1497.940552 35.0 
1497.962646 16.0 
1498.018066 30.0 
1498.106812 25.0 
1498.140015 39.0 
1498.162231 51.0 
1498.239868 52.0 
1498.28418 27.0 
1498.317383 32.0 
1498.350708 24.0 
1498.406128 39.0 
1498.483765 59.0 
1498.516968 32.0 
1498.528076 32.0 
1498.561401 36.0 
1498.639038 27.0 
1498.68335 44.0 
1498.705566 42.0 
1498.73877 41.0 
1498.772095 23.0 
1498.805298 19.0 
1498.849731 32.0 
1498.894043 29.0 
1498.938354 28.0 
1498.949463 28.0 
1499.015991 32.0 
1499.08252 22.0 
1499.126953 36.0 
1499.182373 37.0 
1499.237793 34.0 
1499.293335 47.0 
1499.370972 50.0 
1499.426392 61.0 
1499.470703 48.0 
1499.515137 27.0 
1499.54834 41.0 
1499.570557 45.0 
1499.625977 28.0 
1499.648193 31.0 
1499.681519 28.0 
1499.736938 35.0 
1499.781372 37.0 
1499.814575 31.0 
1499.836792 20.0 
1499.859009 32.0 
1499.914429 38.0 
1499.936646 23.0 
1499.969849 35.0 
1500.014282 40.0 
1500.058594 21.0 
1500.091919 32.0 
1500.125244 27.0 
1500.169556 22.0 
1500.191772 29.0 
1500.225098 30.0 
1500.236206 30.0 
1500.291626 22.0 
1500.324951 48.0 
1500.380371 30.0 
1500.402588 28.0 
1500.446899 32.0 
1500.469116 30.0 
1500.51355 37.0 
1500.56897 43.0 
1500.602295 36.0 
1500.63562 31.0 
1500.702148 40.0 
1500.735474 39.0 
1500.81311 64.0 
1500.86853 35.0 
1500.890747 36.0 
1500.935181 47.0 
1501.012817 29.0 
1501.068359 27.0 
1501.101685 30.0 
1501.134888 27.0 
1501.168213 34.0 
1501.212646 22.0 
1501.234863 26.0 
1501.268066 43.0 
1501.334717 34.0 
1501.390137 37.0 
1501.43457 25.0 
1501.467896 25.0 
1501.501221 25.0 
1501.534424 27.0 
1501.567749 49.0 
1501.634399 54.0 
1501.656616 54.0 
1501.700928 32.0 
1501.723145 24.0 
1501.745361 26.0 
1501.789795 18.0 
1501.822998 31.0 
1501.867432 49.0 
1501.87854 49.0 
1501.900757 35.0 
1501.934082 24.0 
1501.94519 24.0 
1501.978516 27.0 
1502.00061 25.0 
1502.045044 38.0 
1502.067261 29.0 
1502.111694 42.0 
1502.167236 44.0 
1502.211548 53.0 
1502.300415 37.0 
1502.378174 54.0 
1502.411377 31.0 
1502.455811 44.0 
1502.478027 33.0 
1502.511353 38.0 
1502.566895 38.0 
1502.589111 30.0 
1502.666748 44.0 
1502.688965 29.0 
1502.711182 23.0 
1502.766724 31.0 
1502.822266 28.0 
1502.877808 37.0 
1502.911133 36.0 
1502.933228 41.0 
1502.98877 24.0 
1503.033203 20.0 
1503.044312 20.0 
1503.066528 25.0 
1503.099854 28.0 
1503.133179 27.0 
1503.166504 19.0 
1503.210938 44.0 
1503.288696 44.0 
1503.333008 24.0 
1503.399658 54.0 
1503.466309 22.0 
1503.532959 25.0 
1503.577393 19.0 
1503.610718 24.0 
1503.655151 43.0 
1503.677368 35.0 
1503.721802 53.0 
1503.810669 38.0 
1503.877319 39.0 
1503.955078 36.0 
1504.01062 36.0 
1504.055054 28.0 
1504.099487 49.0 
1504.177246 21.0 
1504.22168 29.0 
1504.243896 33.0 
1504.321655 41.0 
1504.377197 35.0 
1504.410522 23.0 
1504.443848 38.0 
1504.454956 38.0 
1504.488281 40.0 
1504.521606 27.0 
1504.543823 37.0 
1504.56604 39.0 
1504.610474 47.0 
1504.643799 25.0 
1504.666016 37.0 
1504.710449 34.0 
1504.754883 51.0 
1504.777222 36.0 
1504.78833 36.0 
1504.821655 41.0 
1504.888306 30.0 
1504.910522 29.0 
1504.921631 29.0 
1504.954956 29.0 
1504.988281 18.0 
1505.021606 31.0 
1505.077148 49.0 
1505.110474 47.0 
1505.166138 24.0 
1505.188354 33.0 
1505.22168 33.0 
1505.266113 35.0 
1505.28833 31.0 
1505.332764 58.0 
1505.35498 54.0 
1505.410522 51.0 
1505.454956 44.0 
1505.477295 46.0 
1505.499512 51.0 
1505.577271 37.0 
1505.588379 37.0 
1505.621704 23.0 
1505.655029 33.0 
1505.699585 27.0 
1505.721802 29.0 
1505.777344 46.0 
1505.821777 46.0 
1505.888428 62.0 
1505.977417 39.0 
1505.999634 38.0 
1506.044067 30.0 
1506.066284 27.0 
1506.099731 36.0 
1506.144165 47.0 
1506.17749 36.0 
1506.244141 41.0 
1506.288696 30.0 
1506.310913 27.0 
1506.388672 40.0 
1506.410889 42.0 
1506.466553 30.0 
1506.48877 60.0 
1506.522095 38.0 
1506.566528 47.0 
1506.588867 29.0 
1506.644409 37.0 
1506.666626 41.0 
1506.699951 19.0 
1506.766724 43.0 
1506.800049 36.0 
1506.833374 47.0 
1506.87793 27.0 
1506.900146 23.0 
1506.922363 21.0 
1506.955688 15.0 
1506.989136 27.0 
1507.000244 27.0 
1507.022461 32.0 
1507.055786 19.0 
1507.089111 31.0 
1507.122559 49.0 
1507.166992 30.0 
1507.189209 38.0 
1507.233765 38.0 
1507.278198 29.0 
1507.300415 30.0 
1507.311523 30.0 
1507.356079 41.0 
1507.411621 25.0 
1507.433838 27.0 
1507.489502 34.0 
1507.522827 31.0 
1507.545044 27.0 
1507.567383 36.0 
1507.600708 29.0 
1507.634033 28.0 
1507.711914 31.0 
1507.734131 25.0 
1507.800903 38.0 
1507.834229 25.0 
1507.856567 31.0 
1507.901001 24.0 
1507.912109 24.0 
1507.967773 22.0 
1507.978882 22.0 
1508.012207 26.0 
1508.034424 19.0 
1508.067871 37.0 
1508.090088 25.0 
1508.145752 32.0 
1508.212402 42.0 
1508.268066 46.0 
1508.32373 32.0 
1508.357056 31.0 
1508.390503 34.0 
1508.423828 13.0 
1508.468262 64.0 
1508.501709 24.0 
1508.568481 25.0 
1508.590698 37.0 
1508.624023 36.0 
1508.657471 33.0 
1508.679688 46.0 
1508.713013 55.0 
1508.757568 41.0 
1508.790894 30.0 
1508.813232 55.0 
1508.857666 19.0 
1508.91333 32.0 
1508.957886 40.0 
1508.980103 43.0 
1509.013428 51.0 
1509.057983 21.0 
1509.102539 38.0 
1509.146973 24.0 
1509.158081 24.0 
1509.191528 20.0 
1509.224854 28.0 
1509.269409 20.0 
1509.291626 17.0 
1509.369507 43.0 
1509.402954 37.0 
1509.436279 56.0 
1509.480835 21.0 
1509.536499 50.0 
1509.603271 54.0 
1509.658936 45.0 
1509.692261 38.0 
1509.736816 55.0 
1509.836914 20.0 
1509.88147 33.0 
1509.914917 26.0 
1509.937134 33.0 
1509.981689 29.0 
1510.015015 20.0 
1510.070679 22.0 
1510.093018 46.0 
1510.14856 36.0 
1510.204224 21.0 
1510.226562 37.0 
1510.259888 33.0 
1510.282227 29.0 
1510.32666 49.0 
1510.382324 41.0 
1510.437988 35.0 
1510.460327 29.0 
1510.504883 34.0 
1510.538208 30.0 
1510.571655 36.0 
1510.60498 55.0 
1510.649536 22.0 
1510.671875 57.0 
1510.738647 28.0 
1510.783203 36.0 
1510.80542 38.0 
1510.827637 35.0 
1510.894531 36.0 
1510.938965 22.0 
1510.972412 42.0 
1510.983521 42.0 
1511.016968 30.0 
1511.050415 53.0 
1511.094849 44.0 
1511.150513 36.0 
1511.195068 32.0 
1511.261963 58.0 
1511.295288 30.0 
1511.306396 30.0 
1511.339844 33.0 
1511.362183 43.0 
1511.440063 61.0 
1511.518066 41.0 
1511.562622 44.0 
1511.629395 51.0 
1511.67395 50.0 
1511.729614 27.0 
1511.763062 38.0 
1511.796387 22.0 
1511.807617 22.0 
1511.840942 37.0 
1511.87439 54.0 
1511.952393 54.0 
1511.98584 57.0 
1512.074829 54.0 
1512.097168 46.0 
1512.175171 38.0 
1512.208496 31.0 
1512.286499 32.0 
1512.342163 38.0 
1512.409058 28.0 
1512.442505 27.0 
1512.509277 25.0 
1512.531616 30.0 
1512.553833 31.0 
1512.58728 30.0 
1512.620728 49.0 
1512.665283 36.0 
1512.69873 33.0 
1512.732056 48.0 
1512.810059 43.0 
1512.854614 26.0 
1512.876953 31.0 
1512.921509 24.0 
1512.954956 36.0 
1512.977173 22.0 
1513.021729 36.0 
1513.055176 42.0 
1513.11084 33.0 
1513.177734 38.0 
1513.22229 31.0 
1513.255737 24.0 
1513.300293 43.0 
1513.356079 18.0 
1513.378296 31.0 
1513.411743 25.0 
1513.456299 28.0 
1513.512085 35.0 
1513.534302 27.0 
1513.556641 36.0 
1513.590088 29.0 
1513.634644 32.0 
1513.690308 33.0 
1513.723755 29.0 
1513.746094 29.0 
1513.824097 34.0 
1513.890869 43.0 
1513.913208 41.0 
1513.946655 40.0 
1513.991211 36.0 
1514.002319 36.0 
1514.024658 35.0 
1514.058105 32.0 
1514.080444 18.0 
1514.11377 17.0 
1514.147217 32.0 
1514.169556 31.0 
1514.225342 41.0 
1514.258667 21.0 
1514.281006 27.0 
1514.325562 30.0 
1514.3479 26.0 
1514.392456 10.0 
1514.425903 41.0 
1514.481689 31.0 
1514.526245 50.0 
1514.548584 41.0 
1514.570801 39.0 
1514.59314 39.0 
1514.626587 46.0 
1514.648804 49.0 
1514.671143 31.0 
1514.715698 29.0 
1514.726929 29.0 
1514.793823 31.0 
1514.81604 25.0 
1514.849487 37.0 
1514.871826 44.0 
1514.894165 24.0 
1514.916382 23.0 
1514.949829 32.0 
1514.972168 44.0 
1515.027954 26.0 
1515.094849 35.0 
1515.139404 39.0 
1515.217407 32.0 
1515.239746 35.0 
1515.273193 19.0 
1515.306641 30.0 
1515.340088 23.0 
1515.395874 26.0 
1515.44043 33.0 
1515.473877 25.0 
1515.507324 38.0 
1515.518433 38.0 
1515.552002 27.0 
1515.607666 34.0 
1515.630005 34.0 
1515.674561 28.0 
1515.741455 40.0 
1515.830688 50.0 
1515.886475 40.0 
1515.942261 41.0 
1515.9646 35.0 
1515.986816 20.0 
1516.020264 19.0 
1516.098389 42.0 
1516.154175 17.0 
1516.187622 30.0 
1516.232178 32.0 
1516.265625 40.0 
1516.287964 47.0 
1516.366089 58.0 
1516.410645 24.0 
1516.477661 59.0 
1516.48877 59.0 
1516.555664 42.0 
1516.656128 40.0 
1516.689575 31.0 
1516.767578 50.0 
1516.801147 53.0 
1516.834595 24.0 
1516.845703 24.0 
1516.868042 25.0 
1516.912598 22.0 
1516.957275 48.0 
1517.0354 77.0 
1517.068848 42.0 
1517.091187 44.0 
1517.146973 37.0 
1517.213867 68.0 
1517.280762 19.0 
1517.325439 13.0 
1517.358887 18.0 
1517.403564 25.0 
1517.425903 22.0 
1517.481689 45.0 
1517.526245 53.0 
1517.582031 42.0 
1517.626709 34.0 
1517.637817 34.0 
1517.660156 34.0 
1517.704834 29.0 
1517.749512 23.0 
1517.771729 26.0 
1517.794067 43.0 
1517.861084 38.0 
1517.894531 24.0 
1517.91687 37.0 
1517.961426 46.0 
1517.983765 33.0 
1517.994995 33.0 
1518.017334 22.0 
1518.028442 22.0 
1518.06189 25.0 
1518.106567 43.0 
1518.162354 47.0 
1518.21814 28.0 
1518.240479 47.0 
1518.273926 31.0 
1518.296265 39.0 
1518.318604 37.0 
1518.38562 32.0 
1518.396729 32.0 
1518.407837 32.0 
1518.452515 32.0 
1518.486084 17.0 
1518.519531 35.0 
1518.564209 35.0 
1518.597656 30.0 
1518.653442 34.0 
1518.709229 49.0 
1518.776245 22.0 
1518.809692 32.0 
1518.832031 22.0 
1518.865601 19.0 
1518.887817 30.0 
1518.910156 38.0 
1518.966064 39.0 
1518.999512 41.0 
1519.021851 34.0 
1519.032959 34.0 
1519.066528 25.0 
1519.099976 26.0 
1519.133423 27.0 
1519.144653 27.0 
1519.166992 23.0 
1519.189331 25.0 
1519.267456 37.0 
1519.300903 42.0 
1519.334473 30.0 
1519.379028 24.0 
1519.401367 37.0 
1519.446045 21.0 
1519.468384 32.0 
1519.513062 32.0 
1519.546509 36.0 
1519.568848 33.0 
1519.613525 27.0 
1519.691772 30.0 
1519.714111 16.0 
1519.758667 21.0 
1519.792236 33.0 
1519.881592 35.0 
1519.915039 42.0 
1519.948608 22.0 
1519.982056 26.0 
1520.026733 35.0 
1520.08252 39.0 
1520.138428 34.0 
1520.149536 34.0 
1520.171875 31.0 
1520.205444 47.0 
1520.238892 28.0 
1520.272461 49.0 
1520.328247 25.0 
1520.350586 35.0 
1520.395264 26.0 
1520.473389 25.0 
1520.506958 49.0 
1520.551636 24.0 
1520.585083 32.0 
1520.629761 69.0 
1520.696777 42.0 
1520.719116 47.0 
1520.741455 40.0 
1520.763794 40.0 
1520.786133 26.0 
1520.819702 49.0 
1520.842041 40.0 
1520.86438 30.0 
1520.920288 25.0 
1520.942627 42.0 
1521.043091 26.0 
1521.121338 35.0 
1521.143677 27.0 
1521.188354 22.0 
1521.221802 40.0 
1521.244141 39.0 
1521.28894 44.0 
1521.333618 50.0 
1521.367065 29.0 
1521.400635 34.0 
1521.411743 34.0 
1521.467651 25.0 
1521.48999 39.0 
1521.512329 23.0 
1521.534668 28.0 
1521.568237 23.0 
1521.635254 53.0 
1521.679932 23.0 
1521.724609 42.0 
1521.758179 29.0 
1521.780518 25.0 
1521.802856 33.0 
1521.825195 40.0 
1521.869873 22.0 
1521.892212 26.0 
1521.903442 26.0 
1521.93689 22.0 
1521.970459 37.0 
1522.004028 28.0 
1522.026367 40.0 
1522.104492 63.0 
1522.1604 57.0 
1522.227417 48.0 
1522.283325 27.0 
1522.316895 15.0 
1522.350464 21.0 
1522.41748 29.0 
1522.45105 19.0 
1522.484497 27.0 
1522.518066 52.0 
1522.551636 25.0 
1522.585083 25.0 
1522.618652 39.0 
1522.652222 53.0 
1522.719238 38.0 
1522.741577 33.0 
1522.797485 46.0 
1522.819824 30.0 
1522.864502 30.0 
1522.898071 32.0 
1522.92041 26.0 
1522.965088 24.0 
1522.987549 8.0 
1523.032227 37.0 
1523.065796 15.0 
1523.088135 13.0 
1523.132812 35.0 
1523.155151 33.0 
1523.21106 41.0 
1523.266968 57.0 
1523.333984 33.0 
1523.356445 28.0 
1523.401123 29.0 
1523.445801 25.0 
1523.47937 33.0 
1523.490601 33.0 
1523.579956 34.0 
1523.591187 34.0 
1523.647095 29.0 
1523.714111 32.0 
1523.758911 33.0 
1523.77002 33.0 
1523.837158 42.0 
1523.904297 35.0 
1523.948975 34.0 
1523.993652 23.0 
1524.027222 38.0 
1524.072021 32.0 
1524.116699 52.0 
1524.12793 52.0 
1524.206177 49.0 
1524.239746 54.0 
1524.284424 29.0 
1524.306763 31.0 
1524.351562 44.0 
1524.407471 26.0 
1524.452148 35.0 
1524.463379 35.0 
1524.485718 24.0 
1524.530518 46.0 
1524.597534 46.0 
1524.642334 36.0 
1524.698242 47.0 
1524.743042 34.0 
1524.765381 36.0 
1524.79895 35.0 
1524.821289 35.0 
1524.877197 38.0 
1524.899536 32.0 
1524.933105 19.0 
1524.955444 21.0 
1524.977905 30.0 
1525.000244 25.0 
1525.022583 32.0 
1525.045044 33.0 
1525.078491 26.0 
1525.123291 39.0 
1525.15686 39.0 
1525.179199 43.0 
1525.223999 43.0 
1525.257568 27.0 
1525.313477 42.0 
1525.335815 52.0 
1525.414185 38.0 
1525.458862 19.0 
1525.503662 37.0 
1525.537231 24.0 
1525.581909 13.0 
1525.60437 16.0 
1525.615479 16.0 
1525.649048 23.0 
1525.660278 23.0 
1525.693848 45.0 
1525.727417 32.0 
1525.760986 51.0 
1525.828125 48.0 
1525.850464 26.0 
1525.872803 21.0 
1525.906372 38.0 
1525.962402 30.0 
1526.040649 39.0 
1526.074219 34.0 
1526.119019 43.0 
1526.163818 25.0 
1526.186157 28.0 
1526.219727 27.0 
1526.253296 31.0 
1526.275635 37.0 
1526.286865 37.0 
1526.354004 58.0 
1526.409912 38.0 
1526.477051 42.0 
1526.544189 22.0 
1526.56665 26.0 
1526.588989 28.0 
1526.60022 28.0 
1526.633789 41.0 
1526.700928 23.0 
1526.723267 31.0 
1526.756836 29.0 
1526.801636 22.0 
1526.835205 26.0 
1526.857666 26.0 
1526.913574 53.0 
1526.958374 21.0 
1526.980713 26.0 
1527.003174 16.0 
1527.047852 27.0 
1527.070312 25.0 
1527.115112 50.0 
1527.148682 29.0 
1527.193359 48.0 
1527.282959 30.0 
1527.327759 33.0 
1527.383667 48.0 
1527.439697 32.0 
1527.462036 31.0 
1527.506836 39.0 
1527.540405 30.0 
1527.573975 36.0 
1527.607666 35.0 
1527.674805 31.0 
1527.708374 22.0 
1527.753174 40.0 
1527.786743 36.0 
1527.831543 48.0 
1527.865112 43.0 
1527.898682 57.0 
1527.921143 22.0 
1527.96582 44.0 
1527.988281 37.0 
1528.044189 47.0 
1528.06665 30.0 
1528.10022 38.0 
1528.122681 33.0 
1528.167358 38.0 
1528.20105 22.0 
1528.234619 33.0 
1528.268188 32.0 
1528.324219 18.0 
1528.357788 32.0 
1528.413818 27.0 
1528.447388 28.0 
1528.480957 28.0 
1528.514526 51.0 
1528.548096 30.0 
1528.581787 23.0 
1528.615356 19.0 
1528.637695 26.0 
1528.671387 46.0 
1528.727295 39.0 
1528.783325 39.0 
1528.828125 31.0 
1528.861694 18.0 
1528.928955 30.0 
1528.962524 26.0 
1529.007324 43.0 
1529.063354 31.0 
1529.096924 51.0 
1529.208984 46.0 
1529.276123 46.0 
1529.309692 36.0 
1529.343384 14.0 
1529.376953 35.0 
1529.410522 22.0 
1529.421753 22.0 
1529.466553 16.0 
1529.500122 17.0 
1529.522583 33.0 
1529.578613 19.0 
1529.600952 18.0 
1529.656982 33.0 
1529.690674 29.0 
1529.746582 41.0 
1529.791504 45.0 
1529.836304 23.0 
1529.858643 20.0 
1529.914673 37.0 
1529.948242 34.0 
1529.981934 36.0 
1530.026733 33.0 
1530.060303 40.0 
1530.105103 28.0 
1530.138794 50.0 
1530.194824 35.0 
1530.217163 36.0 
1530.261963 35.0 
1530.284424 27.0 
1530.317993 39.0 
1530.362915 33.0 
1530.385254 33.0 
1530.430054 36.0 
1530.497314 29.0 
1530.542114 29.0 
1530.564575 27.0 
1530.609375 32.0 
1530.643066 23.0 
1530.687866 41.0 
1530.710205 32.0 
1530.788696 42.0 
1530.867188 47.0 
1530.900757 31.0 
1530.923218 29.0 
1530.968018 43.0 
1530.990479 31.0 
1531.035278 30.0 
1531.068848 24.0 
1531.113647 19.0 
1531.136108 26.0 
1531.158569 22.0 
1531.192139 32.0 
1531.22583 27.0 
1531.248169 30.0 
1531.28186 23.0 
1531.304199 20.0 
1531.31543 20.0 
1531.337891 18.0 
1531.38269 35.0 
1531.416382 20.0 
1531.449951 28.0 
1531.461182 28.0 
1531.494751 26.0 
1531.528442 34.0 
1531.573242 33.0 
1531.595703 29.0 
1531.640503 26.0 
1531.685425 38.0 
1531.775024 53.0 
1531.797485 45.0 
1531.819946 26.0 
1531.853516 43.0 
1531.909546 29.0 
1531.954468 32.0 
1532.010498 40.0 
1532.032959 44.0 
1532.077759 31.0 
1532.111328 47.0 
1532.16748 23.0 
1532.223511 33.0 
1532.245972 23.0 
1532.268311 28.0 
1532.302002 42.0 
1532.346802 39.0 
1532.369263 42.0 
1532.447754 36.0 
1532.481445 28.0 
1532.503784 22.0 
1532.526245 25.0 
1532.571045 37.0 
1532.604736 26.0 
1532.627197 26.0 
1532.683228 30.0 
1532.728027 45.0 
1532.78418 59.0 
1532.85144 35.0 
1532.885132 63.0 
1532.941162 25.0 
1532.997192 48.0 
1533.053345 32.0 
1533.075684 31.0 
1533.109375 23.0 
1533.131836 21.0 
1533.165405 34.0 
1533.210327 29.0 
1533.232788 27.0 
1533.255127 30.0 
1533.277588 47.0 
1533.344971 39.0 
1533.37854 46.0 
1533.423462 37.0 
1533.445923 32.0 
1533.490723 40.0 
1533.546753 35.0 
1533.580444 32.0 
1533.614136 26.0 
1533.647827 27.0 
1533.681396 35.0 
1533.726318 25.0 
1533.80481 44.0 
1533.87207 49.0 
1533.939453 36.0 
1533.961914 45.0 
1534.017944 49.0 
1534.062866 31.0 
1534.085327 36.0 
1534.130127 38.0 
1534.163818 31.0 
1534.19751 40.0 
1534.231079 23.0 
1534.264771 51.0 
1534.320923 34.0 
1534.343262 31.0 
1534.365723 41.0 
1534.433105 36.0 
1534.466797 96.0 
1534.522827 58.0 
1534.556519 39.0 
1534.59021 56.0 
1534.63501 32.0 
1534.691162 56.0 
1534.724854 22.0 
1534.769653 58.0 
1534.837036 30.0 
1534.893188 54.0 
1534.937988 48.0 
1535.005371 35.0 
1535.016602 35.0 
1535.039062 48.0 
1535.083862 28.0 
1535.117554 10.0 
1535.162476 38.0 
1535.196167 29.0 
1535.241089 29.0 
1535.285889 22.0 
1535.31958 62.0 
1535.353271 61.0 
1535.386963 35.0 
1535.431885 33.0 
1535.454224 27.0 
1535.510376 21.0 
1535.532837 33.0 
1535.61145 52.0 
1535.645142 47.0 
1535.723633 42.0 
1535.768555 32.0 
1535.779785 32.0 
1535.835938 33.0 
1535.869629 36.0 
1535.914551 23.0 
1535.93689 32.0 
1535.981812 27.0 
1536.015503 35.0 
1536.049194 64.0 
1536.127808 39.0 
1536.172729 42.0 
1536.240112 35.0 
1536.273682 30.0 
1536.318604 27.0 
1536.341064 23.0 
1536.385986 42.0 
1536.442139 28.0 
1536.487061 38.0 
1536.543213 41.0 
1536.599365 28.0 
1536.644287 47.0 
1536.666748 45.0 
1536.689209 39.0 
1536.745361 53.0 
1536.812622 36.0 
1536.857544 41.0 
1536.891235 28.0 
1536.924927 26.0 
1536.958618 24.0 
1537.00354 32.0 
1537.037231 34.0 
1537.082153 40.0 
1537.115845 28.0 
1537.138306 36.0 
1537.216919 46.0 
1537.273071 34.0 
1537.317993 41.0 
1537.374146 46.0 
1537.419067 37.0 
1537.452759 33.0 
1537.47522 27.0 
1537.497681 23.0 
1537.531372 36.0 
1537.576294 44.0 
1537.621216 25.0 
1537.654907 31.0 
1537.699829 37.0 
1537.767334 42.0 
1537.801025 44.0 
1537.879639 52.0 
1537.9021 30.0 
1537.935791 31.0 
1537.958252 28.0 
1538.003174 44.0 
1538.070557 42.0 
1538.115479 44.0 
1538.171631 20.0 
1538.205322 27.0 
1538.227783 24.0 
1538.272827 41.0 
1538.284058 41.0 
1538.34021 42.0 
1538.385132 50.0 
1538.407593 41.0 
1538.486206 40.0 
1538.519897 24.0 
1538.553589 28.0 
1538.598633 57.0 
1538.643555 30.0 
1538.688477 34.0 
1538.722168 30.0 
1538.744629 24.0 
1538.76709 21.0 
1538.812012 36.0 
1538.834473 27.0 
1538.868286 25.0 
1538.901978 28.0 
1538.96936 43.0 
1539.025513 33.0 
1539.070557 37.0 
1539.14917 40.0 
1539.171631 40.0 
1539.227783 22.0 
1539.250244 25.0 
1539.306519 32.0 
1539.385132 33.0 
1539.418823 31.0 
1539.452637 36.0 
1539.475098 49.0 
1539.553711 39.0 
1539.609985 49.0 
1539.643677 18.0 
1539.666138 35.0 
1539.71106 15.0 
1539.744751 44.0 
1539.789795 28.0 
1539.845947 44.0 
1539.868408 35.0 
1539.913452 24.0 
1539.935913 41.0 
1539.992065 33.0 
1540.025757 36.0 
1540.05957 33.0 
1540.093262 29.0 
1540.115723 31.0 
1540.138184 25.0 
1540.171997 31.0 
1540.205688 30.0 
1540.25061 35.0 
1540.284302 42.0 
1540.351807 25.0 
1540.385498 29.0 
1540.464233 39.0 
1540.497925 47.0 
1540.56543 31.0 
1540.599121 33.0 
1540.621582 28.0 
1540.655396 30.0 
1540.689087 25.0 
1540.700317 25.0 
1540.722778 25.0 
1540.767822 37.0 
1540.812744 33.0 
1540.846436 24.0 
1540.925171 37.0 
1540.970215 26.0 
1541.037598 39.0 
1541.105103 29.0 
1541.150024 33.0 
1541.172607 45.0 
1541.206299 28.0 
1541.251221 29.0 
1541.273804 37.0 
1541.296265 22.0 
1541.318726 23.0 
1541.352539 20.0 
1541.375 45.0 
1541.431152 45.0 
1541.498657 32.0 
1541.543701 25.0 
1541.566162 24.0 
1541.599854 20.0 
1541.633667 36.0 
1541.656128 38.0 
1541.678589 30.0 
1541.70105 18.0 
1541.723633 22.0 
1541.757324 19.0 
1541.791138 34.0 
1541.84729 17.0 
1541.914795 30.0 
1541.959839 38.0 
1541.9823 27.0 
1542.049805 44.0 
1542.072266 39.0 
1542.11731 47.0 
1542.173462 36.0 
1542.240967 54.0 
1542.286011 34.0 
1542.319702 29.0 
1542.364746 27.0 
1542.375977 27.0 
1542.40979 35.0 
1542.443481 26.0 
1542.488525 28.0 
1542.510986 34.0 
1542.544678 38.0 
1542.567261 36.0 
1542.645996 35.0 
1542.679688 40.0 
1542.781006 40.0 
1542.814697 52.0 
1542.859741 31.0 
1542.882202 19.0 
1542.927246 22.0 
1542.960938 27.0 
1542.994751 35.0 
1543.039795 45.0 
1543.096069 22.0 
1543.11853 17.0 
1543.140991 42.0 
1543.152222 42.0 
1543.231079 38.0 
1543.298584 42.0 
1543.332275 46.0 
1543.354858 45.0 
1543.39978 30.0 
1543.433594 42.0 
1543.467407 30.0 
1543.534912 32.0 
1543.557373 35.0 
1543.602417 34.0 
1543.647461 31.0 
1543.692383 44.0 
1543.714966 31.0 
1543.737427 30.0 
1543.77124 55.0 
1543.838745 26.0 
1543.89502 31.0 
1543.984985 39.0 
1544.052612 34.0 
1544.075073 37.0 
1544.120117 51.0 
1544.187622 26.0 
1544.210083 27.0 
1544.232666 36.0 
1544.322754 53.0 
1544.367676 37.0 
1544.401489 40.0 
1544.457764 16.0 
1544.480347 14.0 
1544.525269 17.0 
1544.581665 20.0 
1544.615356 42.0 
1544.64917 34.0 
1544.716675 41.0 
1544.750488 23.0 
1544.829224 28.0 
1544.88562 40.0 
1544.964355 32.0 
1544.998169 47.0 
1545.031982 38.0 
1545.076904 41.0 
1545.110718 34.0 
1545.133301 41.0 
1545.166992 57.0 
1545.189575 40.0 
1545.24585 40.0 
1545.279663 39.0 
1545.358398 49.0 
1545.414795 48.0 
1545.471069 44.0 
1545.49353 39.0 
1545.527344 25.0 
1545.583618 24.0 
1545.606201 47.0 
1545.673706 36.0 
1545.741333 40.0 
1545.775146 27.0 
1545.82019 23.0 
1545.853882 35.0 
1545.887695 35.0 
1545.932739 44.0 
1545.966553 36.0 
1545.989136 21.0 
1546.011597 28.0 
1546.04541 28.0 
1546.112915 27.0 
1546.124268 27.0 
1546.180542 44.0 
1546.225586 23.0 
1546.259399 33.0 
1546.304443 24.0 
1546.327026 26.0 
1546.338257 26.0 
1546.383301 46.0 
1546.405762 32.0 
1546.450928 42.0 
1546.529663 54.0 
1546.574829 60.0 
1546.59729 34.0 
1546.631104 42.0 
1546.676147 42.0 
1546.721191 47.0 
1546.766235 28.0 
1546.800049 59.0 
1546.833862 71.0 
1546.878906 64.0 
1546.91272 50.0 
1546.957764 51.0 
1546.980347 40.0 
1547.002808 49.0 
1547.047974 34.0 
1547.081665 31.0 
1547.104248 34.0 
1547.138062 35.0 
1547.194336 32.0 
1547.205688 32.0 
1547.239502 33.0 
1547.307007 38.0 
1547.363403 22.0 
1547.385864 36.0 
1547.43103 48.0 
1547.476074 20.0 
1547.498657 19.0 
1547.521118 18.0 
1547.554932 19.0 
1547.577515 32.0 
1547.622559 31.0 
1547.633789 31.0 
1547.656372 28.0 
1547.701416 22.0 
1547.757812 29.0 
1547.780273 31.0 
1547.825439 37.0 
1547.870483 43.0 
1547.904297 54.0 
1547.960571 38.0 
1548.028198 28.0 
1548.073364 53.0 
1548.140991 33.0 
1548.186035 49.0 
1548.219849 39.0 
1548.24231 33.0 
1548.276123 23.0 
1548.321289 36.0 
1548.366333 19.0 
1548.400146 26.0 
1548.43396 38.0 
1548.479004 35.0 
1548.546631 50.0 
1548.580444 29.0 
1548.62561 45.0 
1548.670654 28.0 
1548.693237 25.0 
1548.738281 30.0 
1548.772095 31.0 
1548.805908 46.0 
1548.851074 21.0 
1548.896118 32.0 
1548.929932 39.0 
1548.941162 39.0 
1548.963745 25.0 
1548.986328 31.0 
1549.008911 44.0 
1549.053955 32.0 
1549.087769 36.0 
1549.121582 37.0 
1549.166748 49.0 
1549.189209 48.0 
1549.234375 43.0 
1549.268188 28.0 
1549.302002 44.0 
1549.403442 44.0 
1549.426025 22.0 
1549.471069 30.0 
1549.550049 38.0 
1549.561279 38.0 
1549.595093 46.0 
1549.640259 46.0 
1549.66272 65.0 
1549.707886 26.0 
1549.730469 41.0 
1549.798096 31.0 
1549.865723 51.0 
1549.899536 37.0 
1550.001099 45.0 
1550.057495 26.0 
1550.068726 26.0 
1550.102539 31.0 
1550.181519 35.0 
1550.215332 34.0 
1550.249146 40.0 
1550.328125 57.0 
1550.373291 35.0 
1550.395752 39.0 
1550.429565 42.0 
1550.485962 19.0 
1550.508545 42.0 
1550.542358 33.0 
1550.587524 34.0 
1550.655151 37.0 
1550.7229 29.0 
1550.779297 34.0 
1550.835693 32.0 
1550.880737 31.0 
1550.89209 31.0 
1550.925903 39.0 
1550.959717 21.0 
1550.9823 29.0 
1551.004883 28.0 
1551.038696 41.0 
1551.07251 33.0 
1551.106445 14.0 
1551.117676 14.0 
1551.185425 22.0 
1551.207886 20.0 
1551.230469 24.0 
1551.264404 32.0 
1551.343262 70.0 
1551.411011 52.0 
1551.422241 52.0 
1551.456177 69.0 
1551.523804 35.0 
1551.557617 44.0 
1551.602783 38.0 
1551.670532 56.0 
1551.726929 53.0 
1551.817139 51.0 
1551.873657 31.0 
1551.896118 26.0 
1551.930054 34.0 
1551.952637 41.0 
1551.98645 20.0 
1552.009033 30.0 
1552.042847 24.0 
1552.06543 36.0 
1552.121826 42.0 
1552.166992 29.0 
1552.234741 41.0 
1552.279907 51.0 
1552.324951 38.0 
1552.3927 37.0 
1552.437866 24.0 
1552.494263 38.0 
1552.505615 38.0 
1552.539429 31.0 
1552.607178 56.0 
1552.652222 31.0 
1552.70874 25.0 
1552.731323 37.0 
1552.776489 34.0 
1552.844116 53.0 
1552.878052 26.0 
1552.911865 31.0 
1552.957031 29.0 
1553.013428 46.0 
1553.047363 44.0 
1553.058594 44.0 
1553.115112 32.0 
1553.171509 51.0 
1553.239258 30.0 
1553.284424 46.0 
1553.318237 26.0 
1553.352173 62.0 
1553.397339 21.0 
1553.431152 26.0 
1553.476318 38.0 
1553.510132 40.0 
1553.532715 30.0 
1553.555298 28.0 
1553.600464 27.0 
1553.668213 43.0 
1553.713379 52.0 
1553.79248 45.0 
1553.87146 27.0 
1553.905396 18.0 
1553.939209 28.0 
1553.995728 43.0 
1554.063477 28.0 
1554.074707 28.0 
1554.119873 40.0 
1554.142456 35.0 
1554.176392 48.0 
1554.198975 33.0 
1554.244141 41.0 
1554.289307 15.0 
1554.334473 19.0 
1554.368286 20.0 
1554.390869 21.0 
1554.436035 50.0 
1554.492554 30.0 
1554.53772 27.0 
1554.54895 27.0 
1554.594238 43.0 
1554.673218 35.0 
1554.740967 46.0 
1554.786133 43.0 
1554.808716 41.0 
1554.831299 41.0 
1554.865234 38.0 
1554.89917 32.0 
1554.932983 36.0 
1554.978149 14.0 
1555.012085 27.0 
1555.045898 29.0 
1555.091187 25.0 
1555.11377 26.0 
1555.147583 39.0 
1555.204102 34.0 
1555.226685 32.0 
1555.26062 32.0 
1555.305786 38.0 
1555.373535 44.0 
1555.407471 41.0 
1555.48645 48.0 
1555.531738 27.0 
1555.542969 27.0 
1555.610718 21.0 
1555.633423 29.0 
1555.667236 36.0 
1555.701172 38.0 
1555.734985 22.0 
1555.75769 17.0 
1555.814087 47.0 
1555.83667 25.0 
1555.893188 43.0 
1555.96106 46.0 
1555.983643 32.0 
1556.017456 31.0 
1556.073975 23.0 
1556.085327 23.0 
1556.10791 24.0 
1556.141846 23.0 
1556.175659 20.0 
1556.24353 33.0 
1556.266113 33.0 
1556.288696 24.0 
1556.311279 36.0 
1556.345215 33.0 
1556.379028 54.0 
1556.446899 24.0 
1556.480835 25.0 
1556.514648 15.0 
1556.559937 31.0 
1556.616455 35.0 
1556.650269 37.0 
1556.672852 50.0 
1556.740723 20.0 
1556.785889 44.0 
1556.819824 25.0 
1556.85376 38.0 
1556.887573 30.0 
1556.921509 31.0 
1556.98938 33.0 
1557.023315 44.0 
1557.068481 29.0 
1557.102417 19.0 
1557.147583 46.0 
1557.204102 30.0 
1557.238037 40.0 
1557.317139 34.0 
1557.339722 48.0 
1557.351074 48.0 
1557.38501 43.0 
1557.441528 30.0 
1557.486694 17.0 
1557.509277 22.0 
1557.53186 33.0 
1557.599731 47.0 
1557.65625 22.0 
1557.690186 64.0 
1557.735352 37.0 
1557.79187 29.0 
1557.814575 35.0 
1557.859741 62.0 
1557.893677 26.0 
1557.927612 33.0 
1557.961548 39.0 
1557.984131 35.0 
1558.018066 19.0 
1558.063232 23.0 
1558.085815 21.0 
1558.131104 20.0 
1558.153687 19.0 
1558.17627 12.0 
1558.187622 12.0 
1558.210205 24.0 
1558.244141 32.0 
1558.289429 26.0 
1558.345947 38.0 
1558.379883 29.0 
1558.447754 37.0 
1558.504272 39.0 
1558.560791 29.0 
1558.628662 42.0 
1558.651245 38.0 
1558.696411 20.0 
1558.741699 26.0 
1558.798218 42.0 
1558.832153 27.0 
1558.866089 41.0 
1558.900024 42.0 
1558.93396 44.0 
1558.956543 35.0 
1558.990479 33.0 
1559.05835 41.0 
1559.092285 23.0 
1559.148804 33.0 
1559.205444 39.0 
1559.25061 26.0 
1559.273315 22.0 
1559.307251 33.0 
1559.375 42.0 
1559.408936 24.0 
1559.431641 27.0 
1559.465576 40.0 
1559.488159 35.0 
1559.55603 43.0 
1559.601318 31.0 
1559.646484 52.0 
1559.657837 52.0 
1559.703125 43.0 
1559.714355 43.0 
1559.759644 41.0 
1559.816162 32.0 
1559.850098 48.0 
1559.872803 40.0 
1559.929321 53.0 
1559.963257 51.0 
1559.985962 39.0 
1560.031128 50.0 
1560.065063 32.0 
1560.098999 29.0 
1560.132935 40.0 
1560.200928 32.0 
1560.223511 27.0 
1560.268799 36.0 
1560.33667 26.0 
1560.370605 27.0 
1560.393188 39.0 
1560.46106 47.0 
1560.5177 32.0 
1560.540283 37.0 
1560.551636 37.0 
1560.574219 29.0 
1560.630859 53.0 
1560.676147 23.0 
1560.69873 34.0 
1560.755249 28.0 
1560.81189 27.0 
1560.857178 26.0 
1560.891113 25.0 
1560.913696 31.0 
1560.99292 38.0 
1561.026855 13.0 
1561.072144 37.0 
1561.083496 37.0 
1561.106079 35.0 
1561.16272 32.0 
1561.208008 46.0 
1561.264526 28.0 
1561.287231 31.0 
1561.309814 25.0 
1561.321167 25.0 
1561.355103 17.0 
1561.389038 32.0 
1561.422974 26.0 
1561.457031 25.0 
1561.524902 57.0 
1561.558838 23.0 
1561.604126 43.0 
1561.638062 50.0 
1561.671997 42.0 
1561.73999 22.0 
1561.773926 30.0 
1561.796509 22.0 
1561.841797 38.0 
1561.898438 37.0 
1561.932373 35.0 
1561.966309 50.0 
1562.000366 41.0 
1562.045532 63.0 
1562.07959 43.0 
1562.113525 44.0 
1562.158813 50.0 
1562.204102 31.0 
1562.215454 31.0 
1562.24939 26.0 
1562.260742 26.0 
1562.294678 18.0 
1562.328613 38.0 
1562.362549 29.0 
1562.373901 29.0 
1562.396606 28.0 
1562.430542 32.0 
1562.464478 36.0 
1562.47583 36.0 
1562.532471 49.0 
1562.600342 61.0 
1562.634277 21.0 
1562.668335 31.0 
1562.702271 26.0 
1562.736206 22.0 
1562.747559 22.0 
1562.781494 31.0 
1562.815552 35.0 
1562.87207 24.0 
1562.894775 21.0 
1562.928711 34.0 
1562.962646 30.0 
1562.996704 32.0 
1563.053345 46.0 
1563.08728 30.0 
1563.132568 44.0 
1563.166504 46.0 
1563.189209 36.0 
1563.223145 35.0 
1563.268433 30.0 
1563.30249 33.0 
1563.336426 32.0 
1563.381714 44.0 
1563.393066 44.0 
1563.460938 56.0 
1563.506348 35.0 
1563.528931 33.0 
1563.596924 38.0 
1563.642212 33.0 
1563.664917 46.0 
1563.6875 49.0 
1563.710205 28.0 
1563.732788 41.0 
1563.766846 39.0 
1563.812134 44.0 
1563.834717 52.0 
1563.891357 28.0 
1563.970703 29.0 
1563.993408 32.0 
1564.027344 32.0 
1564.072632 47.0 
1564.106689 29.0 
1564.140625 33.0 
1564.174561 42.0 
1564.242554 57.0 
1564.310547 53.0 
1564.344482 38.0 
1564.367188 40.0 
1564.389893 38.0 
1564.423828 50.0 
1564.503174 37.0 
1564.548462 35.0 
1564.559814 35.0 
1564.582397 28.0 
1564.650391 43.0 
1564.707031 22.0 
1564.763672 44.0 
1564.809082 14.0 
1564.888428 33.0 
1564.933716 26.0 
1564.967651 34.0 
1565.001709 48.0 
1565.05835 33.0 
1565.103638 45.0 
1565.126343 40.0 
1565.182983 34.0 
1565.239624 28.0 
1565.262329 39.0 
1565.285034 37.0 
1565.31897 32.0 
1565.37561 53.0 
1565.409668 49.0 
1565.443604 22.0 
1565.489014 44.0 
1565.511597 27.0 
1565.534302 23.0 
1565.557007 25.0 
1565.590942 23.0 
1565.647583 42.0 
1565.692993 37.0 
1565.738281 39.0 
1565.783691 48.0 
1565.806274 57.0 
1565.840332 29.0 
1565.88562 49.0 
1565.942383 29.0 
1565.964966 27.0 
1565.999023 18.0 
1566.021729 24.0 
1566.078369 45.0 
1566.123657 27.0 
1566.157715 28.0 
1566.18042 21.0 
1566.225708 20.0 
1566.248413 22.0 
1566.270996 30.0 
1566.316406 11.0 
1566.350464 41.0 
1566.395752 27.0 
1566.463745 36.0 
1566.531738 31.0 
1566.588501 31.0 
1566.611206 25.0 
1566.645142 25.0 
1566.667847 31.0 
1566.713135 42.0 
1566.758545 37.0 
1566.792603 47.0 
1566.815186 41.0 
1566.826538 41.0 
1566.860596 32.0 
1566.894653 29.0 
1566.917236 28.0 
1566.939941 29.0 
1566.951294 29.0 
1566.962646 29.0 
1566.996582 21.0 
1567.03064 26.0 
1567.053345 30.0 
1567.07605 33.0 
1567.13269 40.0 
1567.178101 13.0 
1567.212036 35.0 
1567.257446 32.0 
1567.336792 42.0 
1567.393555 39.0 
1567.416138 26.0 
1567.450195 33.0 
1567.495605 29.0 
1567.518311 32.0 
1567.563599 15.0 
1567.609009 44.0 
1567.631714 39.0 
1567.665649 35.0 
1567.722412 46.0 
1567.7677 33.0 
1567.824463 55.0 
1567.892456 24.0 
1567.937866 36.0 
1567.960571 26.0 
1567.994629 21.0 
1568.028564 30.0 
1568.062622 31.0 
1568.108032 46.0 
1568.153442 31.0 
1568.244141 47.0 
1568.266846 46.0 
1568.334839 24.0 
1568.368896 13.0 
1568.414307 40.0 
1568.448364 21.0 
1568.4823 39.0 
1568.516357 26.0 
1568.550415 41.0 
1568.595825 38.0 
1568.663818 64.0 
1568.709229 27.0 
1568.743286 38.0 
1568.800049 31.0 
1568.833984 23.0 
1568.913452 53.0 
1568.99292 37.0 
1569.015503 36.0 
1569.072266 33.0 
1569.163086 30.0 
1569.197144 49.0 
1569.242432 40.0 
1569.276489 57.0 
1569.344604 44.0 
1569.36731 46.0 
1569.390015 56.0 
1569.514771 34.0 
1569.582886 32.0 
1569.639648 36.0 
1569.662354 36.0 
1569.685059 28.0 
1569.719116 22.0 
1569.764526 48.0 
1569.809814 24.0 
1569.83252 19.0 
1569.855225 20.0 
1569.889282 49.0 
1569.946045 33.0 
1570.01416 49.0 
1570.048218 58.0 
1570.116333 47.0 
1570.150391 27.0 
1570.195801 28.0 
1570.218506 42.0 
1570.252563 34.0 
1570.309204 33.0 
1570.365967 26.0 
1570.400024 34.0 
1570.434082 39.0 
1570.490845 26.0 
1570.51355 34.0 
1570.536255 31.0 
1570.593018 44.0 
1570.627075 30.0 
1570.672485 31.0 
1570.717896 49.0 
1570.786011 46.0 
1570.820068 29.0 
1570.854126 30.0 
1570.888184 43.0 
1570.910889 46.0 
1570.933594 40.0 
1570.956299 35.0 
1570.990356 23.0 
1571.035767 25.0 
1571.058472 35.0 
1571.092529 19.0 
1571.137939 31.0 
1571.194702 30.0 
1571.22876 38.0 
1571.27417 26.0 
1571.296875 32.0 
1571.31958 28.0 
1571.387695 31.0 
1571.433105 42.0 
1571.48999 35.0 
1571.524048 37.0 
1571.592163 44.0 
1571.626221 19.0 
1571.637573 19.0 
1571.660278 12.0 
1571.705688 29.0 
1571.751099 44.0 
1571.830566 55.0 
1571.875977 51.0 
1571.955566 19.0 
1571.978271 42.0 
1572.023682 21.0 
1572.035034 21.0 
1572.080444 37.0 
1572.137207 32.0 
1572.19397 45.0 
1572.250854 27.0 
1572.284912 43.0 
1572.31897 31.0 
1572.36438 36.0 
1572.432495 40.0 
1572.48938 44.0 
1572.523438 24.0 
1572.557495 24.0 
1572.591553 39.0 
1572.614258 39.0 
1572.693726 23.0 
1572.727905 28.0 
1572.773315 43.0 
1572.807373 36.0 
1572.875488 39.0 
1572.909668 39.0 
1572.966431 29.0 
1572.989136 26.0 
1573.034546 30.0 
1573.080078 32.0 
1573.125488 31.0 
1573.159546 25.0 
1573.182251 29.0 
1573.216309 28.0 
1573.250488 36.0 
1573.261841 36.0 
1573.284546 18.0 
1573.329956 36.0 
1573.364014 24.0 
1573.386719 24.0 
1573.443604 29.0 
1573.500366 24.0 
1573.568604 42.0 
1573.625366 28.0 
1573.659424 25.0 
1573.704956 32.0 
1573.739014 30.0 
1573.784424 29.0 
1573.852661 29.0 
1573.920776 27.0 
1573.989014 40.0 
1574.034424 43.0 
1574.057129 34.0 
1574.114014 51.0 
1574.182129 46.0 
1574.216309 56.0 
1574.250366 31.0 
1574.261719 31.0 
1574.295776 30.0 
1574.329956 55.0 
1574.409546 50.0 
1574.477661 41.0 
1574.534546 43.0 
1574.579956 27.0 
1574.614014 63.0 
1574.693604 31.0 
1574.716309 50.0 
1574.784546 29.0 
1574.795898 29.0 
1574.818726 25.0 
1574.864136 24.0 
1574.921021 51.0 
1574.943726 46.0 
1575.000488 31.0 
1575.023315 29.0 
1575.034668 29.0 
1575.057373 24.0 
1575.102905 36.0 
1575.159668 31.0 
1575.193848 33.0 
1575.239258 45.0 
1575.273315 27.0 
1575.352905 32.0 
1575.432495 41.0 
1575.455322 38.0 
1575.48938 42.0 
1575.523438 61.0 
1575.56897 45.0 
1575.591675 36.0 
1575.64856 24.0 
1575.671265 38.0 
1575.705444 35.0 
1575.716797 35.0 
1575.750854 30.0 
1575.773682 45.0 
1575.830444 23.0 
1575.853271 24.0 
1575.875977 29.0 
1575.932861 41.0 
1575.955566 34.0 
1575.989624 40.0 
1576.023804 36.0 
1576.069214 28.0 
1576.103394 31.0 
1576.148926 44.0 
1576.262573 43.0 
1576.285278 45.0 
1576.330811 48.0 
1576.353516 49.0 
1576.376343 36.0 
1576.455933 45.0 
1576.52417 35.0 
1576.558228 36.0 
1576.592407 52.0 
1576.637939 24.0 
1576.671997 42.0 
1576.762939 38.0 
1576.797119 39.0 
1576.876709 60.0 
1576.944946 29.0 
1576.967773 31.0 
1576.990479 26.0 
1577.058716 19.0 
1577.092896 27.0 
1577.104248 27.0 
1577.115601 27.0 
1577.138306 30.0 
1577.161133 22.0 
1577.183838 30.0 
1577.206665 38.0 
1577.240723 34.0 
1577.286255 45.0 
1577.34314 33.0 
1577.377197 41.0 
1577.400024 54.0 
1577.456909 36.0 
1577.479614 33.0 
1577.513794 37.0 
1577.582031 38.0 
1577.616211 33.0 
1577.650269 25.0 
1577.684448 45.0 
1577.741333 38.0 
1577.786865 37.0 
1577.84375 35.0 
1577.877808 30.0 
1577.900635 38.0 
1577.95752 35.0 
1578.014404 35.0 
1578.037109 34.0 
1578.059937 21.0 
1578.093994 23.0 
1578.150879 32.0 
1578.173706 24.0 
1578.196411 22.0 
1578.253296 44.0 
1578.298828 26.0 
1578.367065 34.0 
1578.389893 26.0 
1578.446777 29.0 
1578.45813 29.0 
1578.515015 39.0 
1578.537842 25.0 
1578.572021 34.0 
1578.617432 38.0 
1578.651611 55.0 
1578.697144 29.0 
1578.719971 37.0 
1578.765381 53.0 
1578.86792 37.0 
1578.936157 25.0 
1578.958862 37.0 
1578.981689 37.0 
1579.027222 30.0 
1579.038574 30.0 
1579.106934 44.0 
1579.129639 37.0 
1579.186523 33.0 
1579.232056 50.0 
1579.289062 35.0 
1579.300415 35.0 
1579.368652 41.0 
1579.402832 27.0 
1579.425659 27.0 
1579.482544 61.0 
1579.528076 45.0 
1579.584961 36.0 
1579.607788 40.0 
1579.687378 41.0 
1579.710205 27.0 
1579.733032 21.0 
1579.789917 29.0 
1579.812622 19.0 
1579.846802 21.0 
1579.915161 48.0 
1579.960693 34.0 
1580.006226 55.0 
1580.074585 33.0 
1580.120117 32.0 
1580.142822 29.0 
1580.165649 21.0 
1580.188354 26.0 
1580.256714 19.0 
1580.302246 32.0 
1580.325073 26.0 
1580.381958 36.0 
1580.404785 32.0 
1580.438843 29.0 
1580.49585 32.0 
1580.541382 32.0 
1580.586914 36.0 
1580.609741 36.0 
1580.655273 39.0 
1580.677979 27.0 
1580.746338 23.0 
1580.769165 19.0 
1580.82605 46.0 
1580.871582 38.0 
1580.917236 51.0 
1580.951416 43.0 
1580.974121 43.0 
1581.04248 38.0 
1581.07666 29.0 
1581.122192 31.0 
1581.167725 43.0 
1581.190552 50.0 
1581.247437 25.0 
1581.270264 24.0 
1581.293091 42.0 
1581.395508 34.0 
1581.452515 28.0 
1581.486694 34.0 
1581.520874 40.0 
1581.555054 28.0 
1581.577759 37.0 
1581.600586 37.0 
1581.680298 37.0 
1581.782837 33.0 
1581.839844 33.0 
1581.862549 42.0 
1581.885376 39.0 
1581.908203 43.0 
1581.942383 66.0 
1581.987915 32.0 
1582.022095 48.0 
1582.033447 48.0 
1582.044922 48.0 
1582.090454 24.0 
1582.124634 27.0 
1582.170166 35.0 
1582.238525 43.0 
1582.272705 23.0 
1582.318359 41.0 
1582.352539 24.0 
1582.386719 26.0 
1582.409546 22.0 
1582.466431 35.0 
1582.489258 27.0 
1582.523438 38.0 
1582.580444 57.0 
1582.591797 57.0 
1582.625977 15.0 
1582.660156 38.0 
1582.682983 44.0 
1582.705688 47.0 
1582.751343 44.0 
1582.77417 57.0 
1582.819702 33.0 
1582.842529 37.0 
1582.876709 31.0 
1582.888062 31.0 
1582.910889 45.0 
1582.956421 45.0 
1582.990601 44.0 
1583.059082 42.0 
1583.081787 43.0 
1583.104614 33.0 
1583.161621 17.0 
1583.218628 28.0 
1583.26416 12.0 
1583.321167 50.0 
1583.378174 25.0 
1583.412354 48.0 
1583.446533 28.0 
1583.526367 55.0 
1583.594727 53.0 
1583.628906 28.0 
1583.674438 34.0 
1583.70874 29.0 
1583.74292 29.0 
1583.7771 29.0 
1583.822632 36.0 
1583.879639 41.0 
1583.925293 40.0 
1583.970825 29.0 
1583.993652 37.0 
1584.016479 28.0 
1584.039307 28.0 
1584.062134 26.0 
1584.119019 35.0 
1584.141846 22.0 
1584.176025 28.0 
1584.198853 28.0 
1584.255859 35.0 
1584.312866 25.0 
1584.335693 30.0 
1584.381348 34.0 
1584.415527 27.0 
1584.438354 23.0 
1584.495361 44.0 
1584.518066 37.0 
1584.563721 33.0 
1584.5979 30.0 
1584.666382 47.0 
1584.711914 35.0 
1584.746216 24.0 
1584.768921 33.0 
1584.803223 29.0 
1584.825928 33.0 
1584.860229 21.0 
1584.894409 17.0 
1584.962769 43.0 
1585.042603 27.0 
1585.06543 34.0 
1585.111084 16.0 
1585.145264 17.0 
1585.156738 17.0 
1585.179443 23.0 
1585.213745 27.0 
1585.270752 38.0 
1585.293579 52.0 
1585.339111 32.0 
1585.373413 87.0 
1585.418945 26.0 
1585.453247 55.0 
1585.521606 34.0 
1585.590088 53.0 
1585.60144 53.0 
1585.647095 53.0 
1585.704102 46.0 
1585.738403 24.0 
1585.761108 22.0 
1585.783936 15.0 
1585.818237 31.0 
1585.852417 35.0 
1585.920898 26.0 
1585.955078 28.0 
1585.977905 26.0 
1586.034912 21.0 
1586.057739 18.0 
1586.091919 34.0 
1586.126221 27.0 
1586.1604 20.0 
1586.206055 30.0 
1586.263062 44.0 
1586.274536 44.0 
1586.297241 45.0 
1586.331543 23.0 
1586.365723 39.0 
1586.411377 27.0 
1586.434204 36.0 
1586.457031 29.0 
1586.491211 36.0 
1586.525513 37.0 
1586.571167 45.0 
1586.605347 39.0 
1586.639526 38.0 
1586.673828 24.0 
1586.708008 45.0 
1586.753662 34.0 
1586.776489 47.0 
1586.787842 47.0 
1586.833496 22.0 
1586.890625 56.0 
1586.913452 51.0 
1586.958984 45.0 
1586.981812 59.0 
1587.016113 31.0 
1587.061768 48.0 
1587.084595 52.0 
1587.107422 38.0 
1587.187256 42.0 
1587.244263 24.0 
1587.289917 29.0 
1587.312744 31.0 
1587.347046 17.0 
1587.381226 31.0 
1587.42688 22.0 
1587.449707 21.0 
1587.472534 12.0 
1587.506836 17.0 
1587.55249 46.0 
1587.609497 40.0 
1587.643799 30.0 
1587.677979 17.0 
1587.700806 18.0 
1587.735107 31.0 
1587.74646 31.0 
1587.769287 34.0 
1587.814941 32.0 
1587.826416 32.0 
1587.849243 23.0 
1587.90625 38.0 
1587.929077 42.0 
1587.974731 48.0 
1588.06604 44.0 
1588.111694 29.0 
1588.134521 21.0 
1588.180176 34.0 
1588.22583 36.0 
1588.248657 41.0 
1588.282959 30.0 
1588.305786 28.0 
1588.328613 43.0 
1588.408569 49.0 
1588.454224 52.0 
1588.477051 35.0 
1588.488403 35.0 
1588.522705 41.0 
1588.568359 50.0 
1588.625366 47.0 
1588.648315 37.0 
1588.69397 40.0 
1588.739624 32.0 
1588.796631 47.0 
1588.865234 43.0 
1588.933716 36.0 
1588.956543 20.0 
1588.990723 37.0 
1589.059326 31.0 
1589.10498 32.0 
1589.173462 31.0 
1589.207764 43.0 
1589.287598 49.0 
1589.321899 35.0 
1589.379028 42.0 
1589.436157 35.0 
1589.458984 36.0 
1589.470337 36.0 
1589.493164 29.0 
1589.550293 36.0 
1589.584595 24.0 
1589.630249 21.0 
1589.664551 50.0 
1589.733032 31.0 
1589.790161 46.0 
1589.824341 47.0 
1589.88147 34.0 
1589.927124 37.0 
1589.984253 47.0 
1590.00708 48.0 
1590.052856 34.0 
1590.098511 29.0 
1590.121338 27.0 
1590.144165 24.0 
1590.178467 25.0 
1590.246948 53.0 
1590.258423 53.0 
1590.315552 24.0 
1590.349854 37.0 
1590.372681 31.0 
1590.475464 40.0 
1590.486816 40.0 
1590.521118 23.0 
1590.55542 25.0 
1590.623901 48.0 
1590.68103 22.0 
1590.715332 29.0 
1590.760986 41.0 
1590.795288 27.0 
1590.82959 23.0 
1590.875244 32.0 
1590.898193 28.0 
1590.909546 28.0 
1590.932373 33.0 
1590.978149 40.0 
1591.012329 33.0 
1591.046631 45.0 
1591.069458 36.0 
1591.126587 52.0 
1591.206665 36.0 
1591.240845 36.0 
1591.286621 44.0 
1591.366577 20.0 
1591.389404 23.0 
1591.446533 29.0 
1591.480835 33.0 
1591.503662 31.0 
1591.537964 13.0 
1591.572266 23.0 
1591.61792 36.0 
1591.652222 28.0 
1591.675171 28.0 
1591.7323 23.0 
1591.755127 27.0 
1591.789429 23.0 
1591.812256 21.0 
1591.85791 31.0 
1591.880859 26.0 
1591.915161 33.0 
1591.983643 47.0 
1592.063721 31.0 
1592.0979 44.0 
1592.132202 28.0 
1592.166504 41.0 
1592.200806 50.0 
1592.235107 47.0 
1592.280884 55.0 
1592.315063 39.0 
1592.36084 56.0 
1592.395142 45.0 
1592.440796 17.0 
1592.498047 46.0 
1592.566528 39.0 
1592.60083 50.0 
1592.635132 33.0 
1592.680908 77.0 
1592.703735 34.0 
1592.71521 34.0 
1592.795166 35.0 
1592.818115 28.0 
1592.86377 45.0 
1592.909546 20.0 
1592.966675 27.0 
1593.000977 23.0 
1593.058105 42.0 
1593.103882 28.0 
1593.138184 41.0 
1593.172485 33.0 
1593.206787 27.0 
1593.241089 28.0 
1593.263916 28.0 
1593.286743 22.0 
1593.321045 24.0 
1593.389648 31.0 
1593.42395 46.0 
1593.458252 29.0 
1593.481201 38.0 
1593.504028 30.0 
1593.595459 58.0 
1593.641235 25.0 
1593.664185 23.0 
1593.698486 40.0 
1593.709839 40.0 
1593.744141 25.0 
1593.778442 43.0 
1593.824219 27.0 
1593.847046 30.0 
1593.904297 24.0 
1593.938599 36.0 
1593.984253 20.0 
1594.030029 34.0 
1594.08728 46.0 
1594.132935 24.0 
1594.167236 28.0 
1594.190186 25.0 
1594.213013 28.0 
1594.235962 25.0 
1594.281616 48.0 
1594.327393 39.0 
1594.35022 40.0 
1594.395996 28.0 
1594.441772 55.0 
1594.510376 20.0 
1594.544678 28.0 
1594.567627 32.0 
1594.590454 29.0 
1594.613403 30.0 
1594.647705 32.0 
1594.670532 38.0 
1594.693359 35.0 
1594.727783 36.0 
1594.784912 34.0 
1594.853516 49.0 
1594.899292 47.0 
1594.956543 26.0 
1595.013672 57.0 
1595.070923 20.0 
1595.09375 17.0 
1595.128052 28.0 
1595.151001 27.0 
1595.196777 33.0 
1595.231079 21.0 
1595.265381 42.0 
1595.299683 45.0 
1595.333984 39.0 
1595.379761 31.0 
1595.425537 35.0 
1595.459839 29.0 
1595.494141 23.0 
1595.539917 38.0 
1595.642944 16.0 
1595.665771 18.0 
1595.688721 21.0 
1595.700195 21.0 
1595.768799 29.0 
1595.814575 21.0 
1595.848877 34.0 
1595.906128 34.0 
1595.951904 44.0 
1595.986206 28.0 
1596.05481 28.0 
1596.077759 24.0 
1596.112061 20.0 
1596.13501 18.0 
1596.157837 24.0 
1596.180786 29.0 
1596.192139 29.0 
1596.260864 42.0 
1596.306641 35.0 
1596.352417 67.0 
1596.375244 37.0 
1596.398193 81.0 
1596.432495 50.0 
1596.455444 100.0 
1596.535522 30.0 
1596.569824 24.0 
1596.604248 48.0 
1596.627075 43.0 
1596.672852 44.0 
1596.695801 42.0 
1596.730103 41.0 
1596.741577 41.0 
1596.775879 47.0 
1596.810181 40.0 
1596.867432 31.0 
1596.901733 40.0 
1596.924683 46.0 
1596.94751 45.0 
1597.016235 42.0 
1597.050537 30.0 
1597.084961 38.0 
1597.119263 17.0 
1597.176514 27.0 
1597.233765 29.0 
1597.245239 29.0 
1597.291016 36.0 
1597.313843 31.0 
1597.336792 27.0 
1597.382568 32.0 
1597.41687 19.0 
1597.439819 20.0 
1597.474121 16.0 
1597.542847 42.0 
1597.577148 26.0 
1597.622925 23.0 
1597.69165 53.0 
1597.7146 37.0 
1597.771851 48.0 
1597.840454 29.0 
1597.897705 36.0 
1598.000854 56.0 
1598.046631 33.0 
1598.080933 29.0 
1598.115356 34.0 
1598.138184 26.0 
1598.161133 27.0 
1598.195435 33.0 
1598.241333 37.0 
1598.26416 42.0 
1598.34436 34.0 
1598.367188 33.0 
1598.390137 40.0 
1598.435913 36.0 
1598.447388 36.0 
1598.458862 36.0 
1598.504639 48.0 
1598.56189 50.0 
1598.596313 21.0 
1598.64209 21.0 
1598.676392 50.0 
1598.72229 35.0 
1598.791016 41.0 
1598.836792 45.0 
1598.894043 43.0 
1598.905518 43.0 
1598.962769 55.0 
1598.974243 55.0 
1599.02002 46.0 
1599.031494 46.0 
1599.065918 36.0 
1599.111694 34.0 
1599.134644 30.0 
1599.18042 24.0 
1599.214722 38.0 
1599.294922 20.0 
1599.317871 37.0 
1599.352173 29.0 
1599.375122 28.0 
1599.420898 23.0 
1599.455322 26.0 
1599.478271 30.0 
1599.501099 25.0 
1599.524048 27.0 
1599.569824 46.0 
1599.627197 36.0 
1599.650024 44.0 
1599.672974 38.0 
1599.753174 39.0 
1599.787598 43.0 
1599.856323 46.0 
1599.890625 35.0 
1599.925049 28.0 
1599.936523 28.0 
1599.970825 41.0 
1600.028198 57.0 
1600.096924 52.0 
1600.154175 31.0 
1600.177124 42.0 
1600.2229 21.0 
1600.257324 25.0 
1600.291626 34.0 
1600.337524 34.0 
1600.371826 40.0 
1600.394775 17.0 
1600.417725 25.0 
1600.452148 23.0 
1600.520874 42.0 
1600.555176 26.0 
1600.5896 38.0 
1600.635498 42.0 
1600.658325 29.0 
1600.715698 52.0 
1600.738525 35.0 
1600.784424 54.0 
1600.818848 44.0 
1600.864624 36.0 
1600.910522 34.0 
1600.944824 31.0 
1600.967773 33.0 
1601.013672 36.0 
1601.059448 38.0 
1601.116821 41.0 
1601.174072 28.0 
1601.231445 28.0 
1601.254272 30.0 
1601.277222 19.0 
1601.300171 17.0 
1601.334595 34.0 
1601.357544 38.0 
1601.391846 45.0 
1601.437744 26.0 
1601.472168 36.0 
1601.483521 36.0 
1601.552368 42.0 
1601.563843 42.0 
1601.609619 30.0 
1601.632568 37.0 
1601.678467 28.0 
1601.701416 24.0 
1601.747192 41.0 
1601.781616 34.0 
1601.81604 35.0 
1601.861816 46.0 
1601.89624 61.0 
1601.919189 44.0 
1601.965088 37.0 
1602.022339 30.0 
1602.068237 49.0 
1602.091187 44.0 
1602.125488 32.0 
1602.136963 32.0 
1602.171387 26.0 
1602.194336 23.0 
1602.251709 39.0 
1602.286011 24.0 
1602.30896 29.0 
1602.331909 26.0 
1602.354858 31.0 
1602.389282 32.0 
1602.469482 27.0 
1602.53833 34.0 
1602.584229 32.0 
1602.61853 26.0 
1602.664429 46.0 
1602.687378 30.0 
1602.733276 34.0 
1602.756226 40.0 
1602.813477 28.0 
1602.8479 26.0 
1602.882324 26.0 
1602.928223 24.0 
1602.951172 24.0 
1602.985596 34.0 
1603.031372 27.0 
1603.054321 25.0 
1603.10022 20.0 
1603.134644 42.0 
1603.146118 42.0 
1603.203491 32.0 
1603.249268 48.0 
1603.32959 36.0 
1603.375488 27.0 
1603.444336 47.0 
1603.47876 43.0 
1603.513062 41.0 
1603.581909 46.0 
1603.616333 47.0 
1603.662231 30.0 
1603.70813 28.0 
1603.754028 32.0 
1603.788452 32.0 
1603.822754 38.0 
1603.857178 43.0 
1603.891602 33.0 
1603.971924 33.0 
1604.006348 33.0 
1604.052246 21.0 
1604.075195 25.0 
1604.109619 33.0 
1604.121094 33.0 
1604.178467 33.0 
1604.201416 63.0 
1604.270264 30.0 
1604.316162 43.0 
1604.339111 34.0 
1604.373413 56.0 
1604.419312 54.0 
1604.453735 28.0 
1604.488159 24.0 
1604.557007 49.0 
1604.579956 39.0 
1604.660278 49.0 
1604.717651 37.0 
1604.775024 37.0 
1604.855347 26.0 
1604.878296 26.0 
1604.901245 30.0 
1604.947144 25.0 
1604.970093 26.0 
1605.027466 29.0 
1605.06189 29.0 
1605.107788 33.0 
1605.176636 22.0 
1605.21106 18.0 
1605.234009 21.0 
1605.291504 36.0 
1605.302979 36.0 
1605.348877 32.0 
1605.371826 44.0 
1605.40625 37.0 
1605.452148 25.0 
1605.475098 29.0 
1605.520996 25.0 
1605.55542 24.0 
1605.624268 24.0 
1605.658691 22.0 
1605.670166 22.0 
1605.716064 29.0 
1605.773438 54.0 
1605.842407 38.0 
1605.876831 51.0 
1605.922729 47.0 
1605.968628 43.0 
1605.991577 32.0 
1606.060425 46.0 
1606.106323 27.0 
1606.129272 29.0 
1606.186768 28.0 
1606.221191 32.0 
1606.290039 21.0 
1606.335938 20.0 
1606.347412 20.0 
1606.370361 25.0 
1606.404785 56.0 
1606.450806 43.0 
1606.496704 40.0 
1606.531128 44.0 
1606.565552 33.0 
1606.634399 38.0 
1606.668945 34.0 
1606.691895 35.0 
1606.737793 39.0 
1606.783691 25.0 
1606.806641 38.0 
1606.82959 29.0 
1606.87561 23.0 
1606.910034 34.0 
1606.955933 28.0 
1606.990356 33.0 
1607.02478 26.0 
1607.070801 32.0 
1607.09375 46.0 
1607.128174 44.0 
1607.162598 34.0 
1607.208618 45.0 
1607.243042 25.0 
1607.265991 31.0 
1607.334839 42.0 
1607.380859 29.0 
1607.438232 36.0 
1607.484131 32.0 
1607.50708 26.0 
1607.541626 31.0 
1607.587524 22.0 
1607.621948 34.0 
1607.656372 18.0 
1607.702393 35.0 
1607.748291 18.0 
1607.794312 38.0 
1607.863159 36.0 
1607.897583 17.0 
1607.966553 28.0 
1608.012451 26.0 
1608.046997 25.0 
1608.081421 22.0 
1608.115845 33.0 
1608.138794 19.0 
1608.161743 24.0 
1608.184814 25.0 
1608.242188 42.0 
1608.311157 61.0 
1608.391602 37.0 
1608.414551 44.0 
1608.4375 37.0 
1608.494873 48.0 
1608.517944 49.0 
1608.540894 45.0 
1608.563843 45.0 
1608.586792 41.0 
1608.609863 26.0 
1608.678711 25.0 
1608.70166 25.0 
1608.713257 25.0 
1608.77063 17.0 
1608.828125 38.0 
1608.885498 34.0 
1608.931519 44.0 
1609.000488 44.0 
1609.046387 25.0 
1609.080811 38.0 
1609.115356 25.0 
1609.14978 59.0 
1609.253174 36.0 
1609.28772 29.0 
1609.322144 37.0 
1609.368164 43.0 
1609.391113 33.0 
1609.425537 45.0 
1609.494507 39.0 
1609.529053 27.0 
1609.563477 37.0 
1609.5979 25.0 
1609.655396 33.0 
1609.689819 37.0 
1609.73584 28.0 
1609.758789 43.0 
1609.80481 41.0 
1609.85083 34.0 
1609.885254 38.0 
1609.919678 22.0 
1609.942749 26.0 
1609.954224 26.0 
1610.011719 21.0 
1610.046143 30.0 
1610.069092 32.0 
1610.092163 27.0 
1610.172607 61.0 
1610.230103 47.0 
1610.276001 36.0 
1610.322021 15.0 
1610.356445 18.0 
1610.390991 27.0 
1610.402466 27.0 
1610.425415 25.0 
1610.471436 27.0 
1610.494385 42.0 
1610.55188 16.0 
1610.563354 16.0 
1610.5979 28.0 
1610.632324 20.0 
1610.655396 23.0 
1610.73584 31.0 
1610.758789 28.0 
1610.80481 35.0 
1610.85083 23.0 
1610.873779 31.0 
1610.896729 31.0 
1610.942749 25.0 
1610.965698 29.0 
1611.011719 45.0 
1611.092163 49.0 
1611.195679 38.0 
1611.218628 34.0 
1611.264648 29.0 
1611.333618 28.0 
1611.368164 24.0 
1611.402588 36.0 
1611.425659 26.0 
1611.448608 30.0 
1611.494629 36.0 
1611.517578 26.0 
1611.552124 32.0 
1611.598145 58.0 
1611.632568 30.0 
1611.667114 33.0 
1611.70166 42.0 
1611.747559 28.0 
1611.81665 48.0 
1611.862549 18.0 
1611.897095 25.0 
1611.920044 17.0 
1611.95459 31.0 
1611.989136 18.0 
1612.035156 20.0 
1612.06958 22.0 
1612.104126 23.0 
1612.127075 28.0 
1612.18457 47.0 
1612.230591 36.0 
1612.265137 37.0 
1612.322632 20.0 
1612.380127 46.0 
1612.426147 31.0 
1612.449097 30.0 
1612.506592 42.0 
1612.529663 30.0 
1612.587158 26.0 
1612.621704 66.0 
1612.644653 70.0 
1612.667725 36.0 
1612.690674 37.0 
1612.713745 33.0 
1612.748169 36.0 
1612.817261 42.0 
1612.88623 23.0 
1612.909302 28.0 
1612.932251 27.0 
1612.966797 41.0 
1613.012817 34.0 
1613.035767 25.0 
1613.081787 40.0 
1613.162354 41.0 
1613.219849 51.0 
1613.28894 51.0 
1613.334961 36.0 
1613.369385 23.0 
1613.403931 21.0 
1613.427002 26.0 
1613.449951 35.0 
1613.495972 32.0 
1613.530518 19.0 
1613.553467 17.0 
1613.611084 37.0 
1613.634033 31.0 
1613.668579 37.0 
1613.691528 41.0 
1613.726074 47.0 
1613.772095 37.0 
1613.806641 26.0 
1613.841187 27.0 
1613.921753 50.0 
1613.990723 42.0 
1614.013794 40.0 
1614.036743 31.0 
1614.059814 39.0 
1614.11731 21.0 
1614.140381 23.0 
1614.174927 25.0 
1614.209351 28.0 
1614.243896 29.0 
1614.289917 35.0 
1614.324463 35.0 
1614.359009 26.0 
1614.393555 34.0 
1614.428101 17.0 
1614.45105 33.0 
1614.520142 57.0 
1614.554688 19.0 
1614.589233 36.0 
1614.635254 27.0 
1614.692749 20.0 
1614.71582 30.0 
1614.784912 15.0 
1614.807861 23.0 
1614.853882 22.0 
1614.922974 42.0 
1615.00354 45.0 
1615.049561 49.0 
1615.118652 31.0 
1615.141724 45.0 
1615.199219 38.0 
1615.233765 31.0 
1615.268311 30.0 
1615.302856 32.0 
1615.348877 38.0 
1615.371948 36.0 
1615.429443 23.0 
1615.44104 23.0 
1615.463989 18.0 
1615.487061 22.0 
1615.510132 18.0 
1615.544678 13.0 
1615.590698 30.0 
1615.625244 42.0 
1615.705811 47.0 
1615.774902 30.0 
1615.83252 33.0 
1615.855469 27.0 
1615.87854 23.0 
1615.901489 24.0 
1615.982178 15.0 
1616.016724 18.0 
1616.062744 19.0 
1616.085815 18.0 
1616.143311 26.0 
1616.177856 29.0 
1616.223999 51.0 
1616.258545 16.0 
1616.304565 33.0 
1616.327637 31.0 
1616.385132 25.0 
1616.419678 42.0 
1616.48877 52.0 
1616.523315 27.0 
1616.592529 41.0 
1616.650024 26.0 
1616.696167 29.0 
1616.730713 25.0 
1616.765259 30.0 
1616.811279 31.0 
1616.834351 27.0 
1616.868896 26.0 
1616.903442 18.0 
1616.914917 18.0 
1616.96106 15.0 
1617.00708 29.0 
1617.053223 21.0 
1617.087769 18.0 
1617.122314 24.0 
1617.15686 24.0 
1617.237427 34.0 
1617.271973 25.0 
1617.318115 37.0 
1617.375732 41.0 
1617.410278 30.0 
1617.456299 40.0 
1617.467896 40.0 
1617.536987 43.0 
1617.583008 33.0 
1617.663696 42.0 
1617.686768 46.0 
1617.767334 50.0 
1617.790405 44.0 
1617.824951 52.0 
1617.848022 52.0 
1617.90564 43.0 
1617.928711 44.0 
1617.986328 14.0 
1618.032349 38.0 
1618.066895 32.0 
1618.147583 40.0 
1618.159058 40.0 
1618.216675 36.0 
1618.274292 38.0 
1618.320435 46.0 
1618.35498 26.0 
1618.389526 27.0 
1618.424072 33.0 
1618.493286 32.0 
1618.504761 32.0 
1618.527832 29.0 
1618.608521 45.0 
1618.643066 30.0 
1618.723755 33.0 
1618.758301 48.0 
1618.804443 32.0 
1618.838989 45.0 
1618.850464 45.0 
1618.885132 28.0 
1618.96582 44.0 
1619.046387 38.0 
1619.115601 41.0 
1619.207764 31.0 
1619.253906 35.0 
1619.311523 55.0 
1619.369141 40.0 
1619.426758 38.0 
1619.449829 41.0 
1619.519043 42.0 
1619.542114 54.0 
1619.57666 46.0 
1619.645874 47.0 
1619.68042 46.0 
1619.714966 38.0 
1619.738037 40.0 
1619.749512 40.0 
1619.795654 51.0 
1619.864868 37.0 
1619.887939 34.0 
1619.911011 33.0 
1619.93396 44.0 
1619.968628 35.0 
1620.003174 19.0 
1620.049316 27.0 
1620.083862 23.0 
1620.130005 27.0 
1620.164551 37.0 
1620.199219 48.0 
1620.268311 22.0 
1620.302979 52.0 
1620.32605 41.0 
1620.383667 50.0 
1620.406738 52.0 
1620.452881 59.0 
1620.521973 33.0 
1620.568115 40.0 
1620.591187 28.0 
1620.602783 28.0 
1620.637329 24.0 
1620.671875 31.0 
1620.706543 37.0 
1620.752686 32.0 
1620.775757 45.0 
1620.856445 24.0 
1620.890991 42.0 
1620.914062 37.0 
1620.971802 34.0 
1621.063965 56.0 
1621.133179 50.0 
1621.179321 36.0 
1621.248535 40.0 
1621.283081 27.0 
1621.317749 27.0 
1621.363892 37.0 
1621.398438 28.0 
1621.433105 33.0 
1621.479248 30.0 
1621.513794 17.0 
1621.548462 37.0 
1621.62915 36.0 
1621.640747 36.0 
1621.675293 29.0 
1621.721436 42.0 
1621.755981 20.0 
1621.779053 101.0 
1621.859863 106.0 
1621.882935 48.0 
1621.929077 49.0 
1621.952148 52.0 
1621.97522 48.0 
1621.998291 23.0 
1622.032837 35.0 
1622.055908 34.0 
1622.090576 32.0 
1622.113647 25.0 
1622.148193 31.0 
1622.171265 34.0 
1622.205933 44.0 
1622.240601 43.0 
1622.275146 38.0 
1622.298218 35.0 
1622.321289 39.0 
1622.34436 36.0 
1622.390503 30.0 
1622.448242 43.0 
1622.517456 42.0 
1622.575073 35.0 
1622.598145 40.0 
1622.644409 18.0 
1622.66748 28.0 
1622.748169 33.0 
1622.77124 24.0 
1622.817383 34.0 
1622.840454 29.0 
1622.875122 50.0 
1622.886719 50.0 
1622.921265 34.0 
1622.955933 50.0 
1622.990479 57.0 
1623.036621 40.0 
1623.071289 34.0 
1623.09436 33.0 
1623.129028 42.0 
1623.175171 38.0 
1623.209717 28.0 
1623.255981 48.0 
1623.279053 26.0 
1623.325195 31.0 
1623.382935 21.0 
1623.440552 30.0 
1623.47522 27.0 
1623.521362 42.0 
1623.579102 34.0 
1623.590576 34.0 
1623.625244 25.0 
1623.694458 30.0 
1623.752197 28.0 
1623.786865 42.0 
1623.833008 42.0 
1623.902222 37.0 
1623.925293 39.0 
1623.948486 36.0 
1623.971558 38.0 
1624.040771 43.0 
1624.121582 37.0 
1624.144653 26.0 
1624.179321 45.0 
1624.213867 32.0 
1624.248535 44.0 
1624.340942 29.0 
1624.387085 35.0 
1624.444824 26.0 
1624.537109 41.0 
1624.583374 39.0 
1624.652588 24.0 
1624.687256 20.0 
1624.733398 23.0 
1624.75647 20.0 
1624.779663 26.0 
1624.791138 26.0 
1624.837402 32.0 
1624.871948 22.0 
1624.906616 20.0 
1624.975952 40.0 
1625.010498 25.0 
1625.056763 41.0 
1625.125977 37.0 
1625.172241 28.0 
1625.195312 33.0 
1625.253052 40.0 
1625.322266 39.0 
1625.356934 37.0 
1625.403198 10.0 
1625.437744 23.0 
1625.472412 24.0 
1625.495483 18.0 
1625.541748 35.0 
1625.576416 18.0 
1625.622559 26.0 
1625.657227 40.0 
1625.761108 44.0 
1625.865112 45.0 
1625.888184 41.0 
1625.934448 30.0 
1625.980591 38.0 
1626.015259 24.0 
1626.049927 18.0 
1626.096069 26.0 
1626.130737 40.0 
1626.165405 37.0 
1626.188477 38.0 
1626.246216 31.0 
1626.269409 43.0 
1626.327148 14.0 
1626.35022 21.0 
1626.396484 41.0 
1626.465698 46.0 
1626.488892 35.0 
1626.500366 35.0 
1626.535034 28.0 
1626.569702 60.0 
1626.639038 35.0 
1626.673706 33.0 
1626.708374 24.0 
1626.743042 22.0 
1626.777588 23.0 
1626.812256 28.0 
1626.835449 16.0 
1626.870117 26.0 
1626.893188 28.0 
1626.91626 32.0 
1626.950928 31.0 
1626.985596 40.0 
1627.03186 13.0 
1627.112671 37.0 
1627.158936 19.0 
1627.193604 36.0 
1627.228271 26.0 
1627.309082 42.0 
1627.401611 25.0 
1627.424683 28.0 
1627.459351 29.0 
1627.482422 22.0 
1627.540283 36.0 
1627.586426 41.0 
1627.644165 30.0 
1627.713623 36.0 
1627.725098 36.0 
1627.782959 26.0 
1627.840698 35.0 
1627.875366 28.0 
1627.898438 37.0 
1627.933105 37.0 
1627.990967 22.0 
1628.014038 29.0 
1628.048706 24.0 
1628.106445 33.0 
1628.129639 47.0 
1628.164307 24.0 
1628.187378 20.0 
1628.210571 30.0 
1628.233643 31.0 
1628.291382 19.0 
1628.32605 24.0 
1628.349243 30.0 
1628.453247 37.0 
1628.510986 38.0 
1628.568848 44.0 
1628.615112 41.0 
1628.638184 27.0 
1628.672852 37.0 
1628.696045 25.0 
1628.753784 37.0 
1628.82312 37.0 
1628.846313 36.0 
1628.880981 22.0 
1628.904053 25.0 
1628.961914 37.0 
1628.984985 38.0 
1629.008057 19.0 
1629.042847 29.0 
1629.054321 29.0 
1629.112183 47.0 
1629.158447 29.0 
1629.20459 42.0 
1629.250854 32.0 
1629.320312 39.0 
1629.378052 85.0 
1629.458984 89.0 
1629.493652 29.0 
1629.516846 13.0 
1629.528442 13.0 
1629.56311 26.0 
1629.597778 31.0 
1629.644043 36.0 
1629.667114 18.0 
1629.690308 20.0 
1629.748047 35.0 
1629.828979 33.0 
1629.898438 35.0 
1629.933105 30.0 
1629.990967 33.0 
1630.014038 36.0 
1630.071899 36.0 
1630.118164 40.0 
1630.152832 37.0 
1630.222168 40.0 
1630.245361 27.0 
1630.256958 27.0 
1630.291626 18.0 
1630.337891 31.0 
1630.395752 40.0 
1630.465088 39.0 
1630.534546 35.0 
1630.580811 33.0 
1630.615479 39.0 
1630.650146 31.0 
1630.684814 34.0 
1630.696411 34.0 
1630.719604 29.0 
1630.754272 29.0 
1630.78894 44.0 
1630.823608 42.0 
1630.858398 42.0 
1630.869873 42.0 
1630.904663 15.0 
1630.939331 28.0 
1630.973999 33.0 
1631.020264 38.0 
1631.078125 35.0 
1631.101318 30.0 
1631.135986 35.0 
1631.15918 33.0 
1631.193848 35.0 
1631.27478 48.0 
1631.30957 58.0 
1631.36731 50.0 
1631.390503 41.0 
1631.436768 37.0 
1631.459961 23.0 
1631.494629 49.0 
1631.506226 49.0 
1631.540894 28.0 
1631.575562 36.0 
1631.621948 33.0 
1631.656616 34.0 
1631.691284 37.0 
1631.737549 58.0 
1631.79541 49.0 
1631.841675 49.0 
1631.888062 42.0 
1631.922729 27.0 
1631.945923 51.0 
1631.992188 44.0 
1632.015259 27.0 
1632.061523 37.0 
1632.10791 23.0 
1632.154175 33.0 
1632.177246 43.0 
1632.235107 31.0 
1632.292969 51.0 
1632.327759 24.0 
1632.35083 29.0 
1632.374023 27.0 
1632.408691 30.0 
1632.431885 32.0 
1632.466675 27.0 
1632.501343 28.0 
1632.524536 28.0 
1632.547607 35.0 
1632.605469 37.0 
1632.628662 30.0 
1632.66333 33.0 
1632.686523 35.0 
1632.709717 44.0 
1632.779053 26.0 
1632.813843 34.0 
1632.871704 40.0 
1632.894897 28.0 
1632.952759 51.0 
1632.999023 46.0 
1633.056885 28.0 
1633.103149 19.0 
1633.126343 19.0 
1633.137939 19.0 
1633.195801 49.0 
1633.242065 36.0 
1633.311523 40.0 
1633.380981 51.0 
1633.404175 30.0 
1633.427368 36.0 
1633.473633 22.0 
1633.508301 31.0 
1633.543091 53.0 
1633.624146 35.0 
1633.658813 41.0 
1633.682007 29.0 
1633.763062 21.0 
1633.809326 36.0 
1633.890381 42.0 
1633.936768 38.0 
1633.994629 39.0 
1634.017822 40.0 
1634.05249 33.0 
1634.08728 33.0 
1634.121948 32.0 
1634.168335 59.0 
1634.226196 46.0 
1634.307251 34.0 
1634.376709 32.0 
1634.411499 15.0 
1634.446167 24.0 
1634.492554 38.0 
1634.538818 24.0 
1634.585205 28.0 
1634.654663 28.0 
1634.677856 21.0 
1634.724121 38.0 
1634.793579 33.0 
1634.805176 33.0 
1634.839966 33.0 
1634.874634 37.0 
1634.921021 43.0 
1634.944214 42.0 
1635.025269 42.0 
1635.071533 13.0 
1635.094727 10.0 
1635.11792 23.0 
1635.141113 30.0 
1635.187378 33.0 
1635.210571 26.0 
1635.245361 43.0 
1635.291626 49.0 
1635.326416 38.0 
1635.372681 45.0 
1635.395874 42.0 
1635.430664 23.0 
1635.488525 45.0 
1635.523315 51.0 
1635.60437 46.0 
1635.650757 21.0 
1635.67395 22.0 
1635.720215 18.0 
1635.755005 25.0 
1635.789795 42.0 
1635.812988 37.0 
1635.83606 27.0 
1635.859253 49.0 
1635.894043 39.0 
1635.94043 24.0 
1635.975098 29.0 
1636.044678 24.0 
1636.079346 40.0 
1636.102539 36.0 
1636.160522 37.0 
1636.195312 28.0 
1636.22998 43.0 
1636.264771 13.0 
1636.287964 27.0 
1636.311157 31.0 
1636.345825 42.0 
1636.392212 45.0 
1636.49646 40.0 
1636.577637 32.0 
1636.60083 27.0 
1636.658691 37.0 
1636.681885 39.0 
1636.739868 43.0 
1636.786255 30.0 
1636.809448 24.0 
1636.844116 36.0 
1636.855713 36.0 
1636.890503 23.0 
1636.925293 28.0 
1636.97168 48.0 
1637.017944 53.0 
1637.052734 41.0 
1637.075928 49.0 
1637.133911 52.0 
1637.191772 20.0 
1637.214966 21.0 
1637.249756 44.0 
1637.319336 43.0 
1637.354126 21.0 
1637.377319 25.0 
1637.423584 25.0 
1637.469971 38.0 
1637.539551 36.0 
1637.585938 37.0 
1637.620728 16.0 
1637.655396 29.0 
1637.678589 26.0 
1637.724976 42.0 
1637.794556 41.0 
1637.840942 30.0 
1637.852539 30.0 
1637.910522 13.0 
1637.991577 23.0 
1638.026367 29.0 
1638.072754 31.0 
1638.142334 49.0 
1638.188721 30.0 
1638.258301 43.0 
1638.316284 42.0 
1638.374146 50.0 
1638.420532 39.0 
1638.443726 21.0 
1638.466919 25.0 
1638.524902 30.0 
1638.582886 36.0 
1638.629272 23.0 
1638.652466 22.0 
1638.710449 28.0 
1638.733643 29.0 
1638.803223 41.0 
1638.861206 17.0 
1638.907593 26.0 
1638.965576 42.0 
1639.02356 42.0 
1639.046753 38.0 
1639.09314 29.0 
1639.12793 35.0 
1639.151123 18.0 
1639.174316 28.0 
1639.220703 13.0 
1639.243896 27.0 
1639.278687 36.0 
1639.348267 41.0 
1639.40625 31.0 
1639.487427 27.0 
1639.54541 26.0 
1639.5802 38.0 
1639.61499 21.0 
1639.661377 37.0 
1639.68457 36.0 
1639.730957 26.0 
1639.777344 48.0 
1639.835327 47.0 
1639.904907 37.0 
1639.928101 29.0 
1639.939697 29.0 
1639.963013 33.0 
1639.986206 35.0 
1640.032593 25.0 
1640.078979 43.0 
1640.14856 49.0 
1640.194946 36.0 
1640.229736 34.0 
1640.25293 35.0 
1640.28772 45.0 
1640.392212 19.0 
1640.450195 38.0 
1640.484985 32.0 
1640.554565 50.0 
1640.577759 41.0 
1640.624146 32.0 
1640.659058 37.0 
1640.682251 43.0 
1640.740234 35.0 
1640.763428 40.0 
1640.821411 49.0 
1640.90271 33.0 
1640.925903 30.0 
1640.960693 42.0 
1641.018677 34.0 
1641.07666 44.0 
1641.134766 27.0 
1641.181152 30.0 
1641.215942 51.0 
1641.250732 33.0 
1641.285522 38.0 
1641.320435 23.0 
1641.355225 52.0 
1641.401611 45.0 
1641.424805 47.0 
1641.506104 50.0 
1641.575684 30.0 
1641.645264 31.0 
1641.680176 28.0 
1641.726562 46.0 
1641.761353 52.0 
1641.796143 27.0 
1641.807861 27.0 
1641.854248 24.0 
1641.877441 24.0 
1641.900635 27.0 
1641.95874 16.0 
1642.005127 28.0 
1642.02832 20.0 
1642.06311 31.0 
1642.109619 40.0 
1642.156006 28.0 
1642.179199 26.0 
1642.202393 16.0 
1642.237305 34.0 
1642.283691 41.0 
1642.330078 24.0 
1642.353394 31.0 
1642.411377 50.0 
1642.446167 40.0 
1642.481079 44.0 
1642.515869 14.0 
1642.562256 37.0 
1642.620361 24.0 
1642.643555 29.0 
1642.678345 24.0 
1642.73645 43.0 
1642.77124 36.0 
1642.829346 39.0 
1642.875732 26.0 
1642.922241 38.0 
1642.957031 19.0 
1642.980225 17.0 
1643.015015 30.0 
1643.03833 24.0 
1643.119507 38.0 
1643.212402 23.0 
1643.235718 39.0 
1643.258911 30.0 
1643.282104 41.0 
1643.328613 35.0 
1643.363403 39.0 
1643.40979 34.0 
1643.467896 28.0 
1643.502686 37.0 
1643.514404 37.0 
1643.549194 26.0 
1643.572388 13.0 
1643.595581 19.0 
1643.630493 28.0 
1643.665283 34.0 
1643.711792 24.0 
1643.746582 25.0 
1643.781494 25.0 
1643.827881 49.0 
1643.851074 20.0 
1643.897583 47.0 
1643.94397 34.0 
1643.967285 35.0 
1643.990479 36.0 
1644.013672 38.0 
1644.048584 25.0 
1644.071777 17.0 
1644.129883 24.0 
1644.153076 26.0 
1644.199585 54.0 
1644.269165 37.0 
1644.327271 38.0 
1644.373779 35.0 
1644.408569 25.0 
1644.443481 33.0 
1644.466675 44.0 
1644.536377 24.0 
1644.55957 27.0 
1644.594482 45.0 
1644.640869 28.0 
1644.664185 27.0 
1644.733887 44.0 
1644.803589 48.0 
1644.849976 19.0 
1644.908081 47.0 
1644.966187 27.0 
1645.035889 37.0 
1645.093994 21.0 
1645.128784 24.0 
1645.221802 52.0 
1645.244995 46.0 
1645.326294 53.0 
1645.395996 22.0 
1645.46582 32.0 
1645.489014 40.0 
1645.535522 32.0 
1645.558716 33.0 
1645.651611 26.0 
1645.674927 28.0 
1645.686523 28.0 
1645.709717 17.0 
1645.744629 28.0 
1645.814331 30.0 
1645.849243 38.0 
1645.884033 15.0 
1645.965454 51.0 
1645.988647 29.0 
1646.046753 47.0 
1646.069946 34.0 
1646.093262 37.0 
1646.104858 37.0 
1646.128174 35.0 
1646.162964 36.0 
1646.209473 22.0 
1646.244385 48.0 
1646.279175 25.0 
1646.314087 36.0 
1646.383789 34.0 
1646.406982 33.0 
1646.430298 25.0 
1646.46521 39.0 
1646.511597 20.0 
1646.546509 40.0 
1646.581421 25.0 
1646.604614 29.0 
1646.639526 27.0 
1646.674316 28.0 
1646.709229 35.0 
1646.744141 34.0 
1646.778931 37.0 
1646.860352 39.0 
1646.90686 27.0 
1646.930054 41.0 
1647.011475 42.0 
1647.057983 45.0 
1647.081177 33.0 
1647.116089 28.0 
1647.139282 31.0 
1647.174194 45.0 
1647.185791 45.0 
1647.243896 53.0 
1647.313721 41.0 
1647.360229 30.0 
1647.406738 27.0 
1647.453247 43.0 
1647.499756 27.0 
1647.534546 34.0 
1647.60437 42.0 
1647.697388 58.0 
1647.778809 29.0 
1647.802002 35.0 
1647.848511 46.0 
1647.918335 39.0 
1647.929932 39.0 
1647.964844 32.0 
1647.999634 37.0 
1648.022949 39.0 
1648.069458 53.0 
1648.10437 66.0 
1648.174072 50.0 
1648.208984 48.0 
1648.243896 43.0 
1648.290405 50.0 
1648.336914 26.0 
1648.371826 37.0 
1648.418335 38.0 
1648.441528 24.0 
1648.464844 27.0 
1648.534668 47.0 
1648.581177 35.0 
1648.60437 43.0 
1648.639282 47.0 
1648.709106 25.0 
1648.7323 25.0 
1648.767212 24.0 
1648.790527 24.0 
1648.813721 32.0 
1648.871948 36.0 
1648.930054 14.0 
1648.964966 43.0 
1649.03479 37.0 
1649.104492 56.0 
1649.127808 44.0 
1649.174316 28.0 
1649.220825 37.0 
1649.244141 37.0 
1649.290649 17.0 
1649.348755 43.0 
1649.360474 43.0 
1649.418579 26.0 
1649.476807 37.0 
1649.523315 32.0 
1649.569824 21.0 
1649.581421 21.0 
1649.604736 19.0 
1649.639648 25.0 
1649.686157 20.0 
1649.697754 20.0 
1649.721069 19.0 
1649.744385 25.0 
1649.767578 33.0 
1649.814087 24.0 
1649.860718 31.0 
1649.89563 26.0 
1649.942139 28.0 
1649.977051 42.0 
1650.011963 31.0 
1650.046875 31.0 
1650.058472 31.0 
1650.081787 30.0 
1650.116699 47.0 
1650.233032 36.0 
1650.267944 40.0 
1650.337769 44.0 
1650.384277 54.0 
1650.430786 26.0 
1650.477417 28.0 
1650.512329 43.0 
1650.547241 48.0 
1650.628662 31.0 
1650.663574 41.0 
1650.68689 32.0 
1650.710083 21.0 
1650.733398 22.0 
1650.791626 29.0 
1650.826538 24.0 
1650.86145 28.0 
1650.931274 43.0 
1651.001099 28.0 
1651.012695 28.0 
1651.036011 32.0 
1651.094116 40.0 
1651.152344 23.0 
1651.175659 18.0 
1651.245483 33.0 
1651.291992 40.0 
1651.315308 38.0 
1651.361938 45.0 
1651.408447 33.0 
1651.454956 27.0 
1651.489868 30.0 
1651.536499 42.0 
1651.571411 31.0 
1651.606323 33.0 
1651.652832 49.0 
1651.71106 43.0 
1651.734375 22.0 
1651.769287 39.0 
1651.815918 39.0 
1651.85083 21.0 
1651.874023 27.0 
1651.94397 25.0 
1652.002075 34.0 
1652.048706 37.0 
1652.072021 49.0 
1652.095215 29.0 
1652.130249 37.0 
1652.176758 33.0 
1652.200073 37.0 
1652.246582 33.0 
1652.293213 35.0 
1652.316528 40.0 
1652.35144 26.0 
1652.374756 28.0 
1652.397949 28.0 
1652.467896 47.0 
1652.491089 39.0 
1652.514404 42.0 
1652.561035 40.0 
1652.642456 23.0 
1652.689087 77.0 
1652.77063 48.0 
1652.817139 18.0 
1652.852051 25.0 
1652.887085 25.0 
1652.921997 13.0 
1652.968506 31.0 
1653.00354 25.0 
1653.061768 41.0 
1653.108276 33.0 
1653.131592 38.0 
1653.178223 43.0 
1653.213135 39.0 
1653.248047 25.0 
1653.282959 22.0 
1653.317993 30.0 
1653.387817 39.0 
1653.411133 31.0 
1653.46936 46.0 
1653.504272 36.0 
1653.5625 53.0 
1653.597534 35.0 
1653.620728 26.0 
1653.667358 46.0 
1653.678955 46.0 
1653.702271 34.0 
1653.760498 34.0 
1653.783813 32.0 
1653.818848 45.0 
1653.865356 39.0 
1653.923584 28.0 
1653.99353 40.0 
1654.016846 39.0 
1654.063477 35.0 
1654.133301 38.0 
1654.179932 27.0 
1654.214844 20.0 
1654.249756 40.0 
1654.28479 21.0 
1654.319702 34.0 
1654.366333 27.0 
1654.447876 55.0 
1654.471191 43.0 
1654.517822 35.0 
1654.541138 28.0 
1654.587646 60.0 
1654.669189 32.0 
1654.692505 40.0 
1654.739136 45.0 
1654.855713 33.0 
1654.925537 44.0 
1654.972168 62.0 
1654.995483 51.0 
1655.018799 42.0 
1655.030518 42.0 
1655.053711 38.0 
1655.100342 62.0 
1655.123657 44.0 
1655.158691 40.0 
1655.2052 51.0 
1655.228516 33.0 
1655.310181 49.0 
1655.391724 48.0 
1655.415039 41.0 
1655.46167 23.0 
1655.496582 39.0 
1655.531616 23.0 
1655.543213 23.0 
1655.60144 34.0 
1655.706421 40.0 
1655.741333 36.0 
1655.776367 42.0 
1655.846191 28.0 
1655.892822 31.0 
1655.904541 31.0 
1655.951172 27.0 
1655.986084 36.0 
1656.009399 19.0 
1656.032715 23.0 
1656.067749 33.0 
1656.102661 25.0 
1656.137695 42.0 
1656.219238 30.0 
1656.242554 30.0 
1656.277588 32.0 
1656.3125 43.0 
1656.382446 25.0 
1656.405762 47.0 
1656.487427 55.0 
1656.522339 38.0 
1656.580688 45.0 
1656.604004 44.0 
1656.650635 23.0 
1656.708862 20.0 
1656.755493 26.0 
1656.802124 34.0 
1656.848755 27.0 
1656.87207 43.0 
1656.895386 43.0 
1656.918701 55.0 
1656.977051 36.0 
1657.011963 23.0 
1657.046997 31.0 
1657.116943 26.0 
1657.151978 28.0 
1657.198608 28.0 
1657.245239 31.0 
1657.29187 45.0 
1657.326782 27.0 
1657.35022 35.0 
1657.373535 27.0 
1657.408447 25.0 
1657.431763 34.0 
1657.455078 40.0 
1657.490112 40.0 
1657.560059 41.0 
1657.606689 26.0 
1657.676636 47.0 
1657.746704 55.0 
1657.804932 22.0 
1657.81665 22.0 
1657.875 37.0 
1657.909912 27.0 
1657.944946 31.0 
1657.979858 26.0 
1657.991577 26.0 
1658.038208 47.0 
1658.119873 36.0 
1658.143188 27.0 
1658.178223 23.0 
1658.201538 21.0 
1658.248169 37.0 
1658.259888 37.0 
1658.2948 32.0 
1658.329834 36.0 
1658.341431 36.0 
1658.388184 40.0 
1658.411499 35.0 
1658.45813 30.0 
1658.469849 30.0 
1658.493164 31.0 
1658.516479 19.0 
1658.528076 19.0 
1658.574829 21.0 
1658.598145 25.0 
1658.62146 18.0 
1658.644775 18.0 
1658.67981 32.0 
1658.761475 39.0 
1658.796387 22.0 
1658.808105 22.0 
1658.84314 42.0 
1658.936401 43.0 
1658.994751 35.0 
1659.029785 47.0 
1659.11145 26.0 
1659.146484 34.0 
1659.1698 28.0 
1659.193115 41.0 
1659.228149 47.0 
1659.298096 41.0 
1659.344727 42.0 
1659.414795 46.0 
1659.461426 38.0 
1659.484741 32.0 
1659.531494 42.0 
1659.566528 23.0 
1659.613159 46.0 
1659.683105 22.0 
1659.71814 21.0 
1659.741455 20.0 
1659.799805 31.0 
1659.823242 23.0 
1659.916504 48.0 
1659.998291 55.0 
1660.044922 34.0 
1660.079956 37.0 
1660.11499 40.0 
1660.126587 40.0 
1660.184937 30.0 
1660.266724 30.0 
1660.301636 28.0 
1660.348389 22.0 
1660.383423 25.0 
1660.441772 47.0 
1660.488403 28.0 
1660.511719 53.0 
1660.558472 39.0 
1660.605103 38.0 
1660.640137 32.0 
1660.675171 29.0 
1660.710205 21.0 
1660.756958 62.0 
1660.826904 36.0 
1660.861938 31.0 
1660.920288 22.0 
1660.990356 49.0 
1661.013672 25.0 
1661.037109 41.0 
1661.048706 41.0 
1661.072021 43.0 
1661.095459 41.0 
1661.130493 40.0 
1661.212158 50.0 
1661.247192 31.0 
1661.270508 19.0 
1661.328857 37.0 
1661.363892 29.0 
1661.410645 25.0 
1661.43396 26.0 
1661.445679 26.0 
1661.480713 33.0 
1661.515747 36.0 
1661.550781 61.0 
1661.597412 28.0 
1661.62085 25.0 
1661.655884 33.0 
1661.714233 47.0 
1661.760864 33.0 
1661.784302 38.0 
1661.830933 35.0 
1661.865967 40.0 
1661.889404 46.0 
1661.91272 40.0 
1661.959473 43.0 
1661.994507 54.0 
1662.041138 25.0 
1662.064575 41.0 
1662.14624 39.0 
1662.181274 36.0 
1662.228027 22.0 
1662.251343 26.0 
1662.309814 36.0 
1662.344849 44.0 
1662.426514 39.0 
1662.461548 29.0 
1662.484985 31.0 
1662.508301 30.0 
1662.543335 22.0 
1662.590088 37.0 
1662.671753 34.0 
1662.706787 21.0 
1662.741821 23.0 
1662.776978 39.0 
1662.823608 34.0 
1662.847046 43.0 
1662.905396 24.0 
1662.917114 24.0 
1662.94043 21.0 
1662.975464 32.0 
1662.998901 30.0 
1663.022217 32.0 
1663.080566 34.0 
1663.092285 34.0 
1663.139038 32.0 
1663.185791 28.0 
1663.244141 32.0 
1663.267456 27.0 
1663.302612 37.0 
1663.407715 34.0 
1663.43103 25.0 
1663.466064 20.0 
1663.489502 29.0 
1663.512817 27.0 
1663.571289 36.0 
1663.618042 39.0 
1663.653076 30.0 
1663.711426 32.0 
1663.723145 32.0 
1663.74646 28.0 
1663.793213 27.0 
1663.828247 25.0 
1663.886719 27.0 
1663.921753 36.0 
1664.00354 36.0 
1664.026855 39.0 
1664.062012 25.0 
1664.097046 28.0 
1664.108765 28.0 
1664.13208 40.0 
1664.178833 28.0 
1664.202148 28.0 
1664.248901 19.0 
1664.295654 32.0 
1664.38916 23.0 
1664.435913 23.0 
1664.470947 35.0 
1664.541016 31.0 
1664.552734 31.0 
1664.611206 26.0 
1664.657959 37.0 
1664.728027 99.0 
1664.77478 36.0 
1664.786499 36.0 
1664.809814 35.0 
1664.833252 89.0 
1664.868286 36.0 
1664.915039 40.0 
1664.985229 54.0 
1665.03186 32.0 
1665.090332 55.0 
1665.137085 31.0 
1665.160522 37.0 
1665.172119 37.0 
1665.218872 30.0 
1665.277344 41.0 
1665.335815 39.0 
1665.382568 22.0 
1665.452759 31.0 
1665.487793 25.0 
1665.534546 27.0 
1665.557861 34.0 
1665.616333 29.0 
1665.663086 50.0 
1665.686523 37.0 
1665.721558 26.0 
1665.780029 64.0 
1665.861816 46.0 
1665.885254 41.0 
1665.943726 46.0 
1666.002197 36.0 
1666.025513 35.0 
1666.060669 41.0 
1666.130737 36.0 
1666.154175 26.0 
1666.17749 41.0 
1666.189209 41.0 
1666.259399 38.0 
1666.282715 35.0 
1666.364624 32.0 
1666.411377 39.0 
1666.434814 39.0 
1666.481567 19.0 
1666.516602 34.0 
1666.551636 27.0 
1666.610107 47.0 
1666.680298 13.0 
1666.715454 27.0 
1666.73877 28.0 
1666.773926 13.0 
1666.797241 14.0 
1666.832397 25.0 
1666.855713 34.0 
1666.890869 35.0 
1666.937622 22.0 
1666.972656 24.0 
1667.007812 48.0 
1667.031128 45.0 
1667.077881 42.0 
1667.113037 41.0 
1667.148071 35.0 
1667.15979 35.0 
1667.194824 43.0 
1667.218262 33.0 
1667.276733 30.0 
1667.288452 30.0 
1667.335205 56.0 
1667.405396 54.0 
1667.475586 25.0 
1667.51062 32.0 
1667.522339 32.0 
1667.557495 26.0 
1667.615967 40.0 
1667.639282 35.0 
1667.674438 24.0 
1667.709473 27.0 
1667.756348 42.0 
1667.791382 13.0 
1667.838257 38.0 
1667.88501 21.0 
1667.920044 29.0 
1667.943481 26.0 
1667.978516 29.0 
1668.025391 35.0 
1668.060425 27.0 
1668.1073 35.0 
1668.130615 37.0 
1668.154053 21.0 
1668.17749 21.0 
1668.212524 8.0 
1668.259399 18.0 
1668.282715 22.0 
1668.341187 36.0 
1668.388062 41.0 
1668.493286 39.0 
1668.528442 41.0 
1668.55188 25.0 
1668.598633 27.0 
1668.633789 26.0 
1668.680542 42.0 
1668.703979 33.0 
1668.762451 29.0 
1668.785889 30.0 
1668.809204 26.0 
1668.84436 33.0 
1668.914551 41.0 
1668.973022 28.0 
1669.043335 43.0 
1669.090088 40.0 
1669.160278 27.0 
1669.207153 38.0 
1669.242188 25.0 
1669.289062 37.0 
1669.359253 36.0 
1669.429443 27.0 
1669.488037 52.0 
1669.523071 22.0 
1669.569946 39.0 
1669.593262 31.0 
1669.663574 56.0 
1669.710327 36.0 
1669.768921 59.0 
1669.827393 34.0 
1669.85083 35.0 
1669.921021 25.0 
1669.956177 43.0 
1670.014648 37.0 
1670.038086 40.0 
1670.108276 42.0 
1670.131714 51.0 
1670.190308 30.0 
1670.213745 34.0 
1670.260498 84.0 
1670.307373 17.0 
1670.342407 45.0 
1670.365845 24.0 
1670.424438 29.0 
1670.506348 34.0 
1670.553223 38.0 
1670.576538 24.0 
1670.623413 25.0 
1670.658569 44.0 
1670.693726 46.0 
1670.72876 22.0 
1670.763916 25.0 
1670.834106 34.0 
1670.904419 51.0 
1670.927856 42.0 
1671.009766 43.0 
1671.068359 31.0 
1671.150269 50.0 
1671.185425 48.0 
1671.2323 39.0 
1671.255737 41.0 
1671.279053 43.0 
1671.314209 55.0 
1671.39624 39.0 
1671.442993 35.0 
1671.478149 39.0 
1671.513306 35.0 
1671.548462 41.0 
1671.618652 57.0 
1671.653809 30.0 
1671.677246 29.0 
1671.700684 27.0 
1671.712402 27.0 
1671.782715 45.0 
1671.829468 52.0 
1671.852905 47.0 
1671.89978 26.0 
1671.946655 45.0 
1672.016846 46.0 
1672.052002 53.0 
1672.098877 34.0 
1672.134033 50.0 
1672.204346 51.0 
1672.239502 41.0 
1672.274536 30.0 
1672.321411 38.0 
1672.368286 29.0 
1672.403442 43.0 
1672.462036 29.0 
1672.485474 27.0 
1672.508911 30.0 
1672.543945 56.0 
1672.614258 48.0 
1672.68457 46.0 
1672.719727 38.0 
1672.754883 28.0 
1672.801758 61.0 
1672.860352 17.0 
1672.895508 29.0 
1672.918823 41.0 
1672.942261 38.0 
1673.000854 21.0 
1673.024292 30.0 
1673.094604 18.0 
1673.106323 18.0 
1673.164917 23.0 
1673.188354 21.0 
1673.211792 30.0 
1673.246948 28.0 
1673.282104 28.0 
1673.328979 42.0 
1673.352417 36.0 
1673.422729 45.0 
1673.481323 53.0 
1673.528198 94.0 
1673.586792 57.0 
1673.633545 97.0 
1673.692139 31.0 
1673.715576 33.0 
1673.750732 33.0 
1673.785889 33.0 
1673.821045 41.0 
1673.856201 17.0 
1673.891357 38.0 
1673.985107 41.0 
1674.020264 35.0 
1674.043823 28.0 
1674.067261 29.0 
1674.125854 37.0 
1674.149292 17.0 
1674.172729 31.0 
1674.219604 42.0 
1674.231323 42.0 
1674.313354 46.0 
1674.360229 44.0 
1674.395386 48.0 
1674.430542 37.0 
1674.477417 38.0 
1674.512573 22.0 
1674.547729 42.0 
1674.594604 37.0 
1674.618042 23.0 
1674.641479 18.0 
1674.676636 28.0 
1674.700073 47.0 
1674.758667 22.0 
1674.793945 35.0 
1674.817383 37.0 
1674.84082 27.0 
1674.875977 24.0 
1674.899414 23.0 
1674.922852 25.0 
1674.958008 35.0 
1674.993164 35.0 
1675.051758 28.0 
1675.110352 24.0 
1675.12207 24.0 
1675.14563 16.0 
1675.180786 33.0 
1675.227661 48.0 
1675.262817 28.0 
1675.309692 22.0 
1675.33313 20.0 
1675.356567 24.0 
1675.380005 28.0 
1675.427002 35.0 
1675.438721 35.0 
1675.532471 34.0 
1675.567627 20.0 
1675.602783 33.0 
1675.649658 52.0 
1675.696655 26.0 
1675.731812 36.0 
1675.778687 43.0 
1675.825562 32.0 
1675.872559 31.0 
1675.895996 37.0 
1675.95459 32.0 
1676.013184 28.0 
1676.04834 38.0 
1676.071899 39.0 
1676.130493 27.0 
1676.200806 48.0 
1676.224243 35.0 
1676.259521 20.0 
1676.306396 33.0 
1676.329834 27.0 
1676.376709 26.0 
1676.411987 21.0 
1676.447144 28.0 
1676.470581 33.0 
1676.517456 24.0 
1676.540894 38.0 
1676.623047 36.0 
1676.693359 25.0 
1676.728638 35.0 
1676.810669 36.0 
1676.845947 63.0 
1676.892822 39.0 
1676.91626 33.0 
1676.963135 41.0 
1677.010132 22.0 
1677.068726 30.0 
1677.092163 27.0 
1677.127441 16.0 
1677.150879 17.0 
1677.174316 27.0 
1677.209473 30.0 
1677.25647 53.0 
1677.291626 26.0 
1677.326782 47.0 
1677.350342 46.0 
1677.397217 31.0 
1677.420654 35.0 
1677.47937 37.0 
1677.491089 37.0 
1677.514526 30.0 
1677.537964 36.0 
1677.573242 43.0 
1677.643555 24.0 
1677.666992 32.0 
1677.725708 50.0 
1677.760864 19.0 
1677.81958 34.0 
1677.878174 44.0 
1677.925171 35.0 
1677.948608 34.0 
1678.04248 41.0 
1678.089478 34.0 
1678.148071 27.0 
1678.195068 25.0 
1678.230225 23.0 
1678.253662 14.0 
1678.300659 31.0 
1678.335815 33.0 
1678.371094 16.0 
1678.394531 35.0 
1678.476685 37.0 
1678.547119 35.0 
1678.629272 33.0 
1678.676147 38.0 
1678.723145 51.0 
1678.817017 19.0 
1678.840454 34.0 
1678.875732 34.0 
1678.910889 26.0 
1678.969604 26.0 
1678.993042 26.0 
1679.028198 29.0 
1679.051758 29.0 
1679.063477 29.0 
1679.098633 25.0 
1679.14563 22.0 
1679.169067 21.0 
1679.227783 45.0 
1679.251221 61.0 
1679.333374 24.0 
1679.368652 30.0 
1679.403809 30.0 
1679.427368 38.0 
1679.474243 13.0 
1679.556396 35.0 
1679.568237 35.0 
1679.626831 38.0 
1679.650391 18.0 
1679.697266 47.0 
1679.732544 38.0 
1679.755981 30.0 
1679.826416 39.0 
1679.885132 44.0 
1679.908691 25.0 
1679.932129 35.0 
1679.967285 25.0 
1680.002563 25.0 
1680.014282 25.0 
1680.03772 26.0 
1680.061279 42.0 
1680.155151 41.0 
1680.225586 28.0 
1680.249146 27.0 
1680.31958 34.0 
1680.354736 36.0 
1680.390015 33.0 
1680.413452 19.0 
1680.460449 54.0 
1680.495728 36.0 
1680.566162 36.0 
1680.601318 26.0 
1680.624878 32.0 
1680.671875 24.0 
1680.695312 34.0 
1680.730591 25.0 
1680.74231 25.0 
1680.765747 15.0 
1680.812744 37.0 
1680.883179 35.0 
1680.953613 52.0 
1680.988892 38.0 
1681.012329 34.0 
1681.071045 36.0 
1681.094604 35.0 
1681.129761 40.0 
1681.176758 34.0 
1681.200317 32.0 
1681.235474 27.0 
1681.294189 35.0 
1681.364746 53.0 
1681.399902 29.0 
1681.423462 36.0 
1681.470459 35.0 
1681.505615 28.0 
1681.552612 30.0 
1681.576172 58.0 
1681.623169 42.0 
1681.693604 36.0 
1681.764038 27.0 
1681.822754 30.0 
1681.846313 36.0 
1681.893311 31.0 
1681.928467 27.0 
1681.963745 45.0 
1681.999023 29.0 
1682.022461 21.0 
1682.069458 33.0 
1682.116455 35.0 
1682.140015 22.0 
1682.187012 42.0 
1682.222168 41.0 
1682.269165 28.0 
1682.304443 32.0 
1682.339722 34.0 
1682.410156 42.0 
1682.457153 40.0 
1682.492432 26.0 
1682.515869 30.0 
1682.562866 30.0 
1682.586426 25.0 
1682.645142 35.0 
1682.668701 33.0 
1682.750854 52.0 
1682.809692 20.0 
1682.856689 23.0 
1682.880127 24.0 
1682.950684 62.0 
1683.021118 40.0 
1683.068115 43.0 
1683.150391 38.0 
1683.185669 19.0 
1683.220947 33.0 
1683.256226 25.0 
1683.291504 21.0 
1683.338501 37.0 
1683.373657 25.0 
1683.420776 24.0 
1683.467773 49.0 
1683.514771 30.0 
1683.550049 25.0 
1683.585205 28.0 
1683.644043 37.0 
1683.726318 42.0 
1683.749756 41.0 
1683.785034 52.0 
1683.808594 51.0 
1683.855591 22.0 
1683.902588 17.0 
1683.961426 28.0 
1683.984863 34.0 
1684.043701 39.0 
1684.067139 33.0 
1684.102417 41.0 
1684.149414 36.0 
1684.208252 29.0 
1684.231689 38.0 
1684.255249 31.0 
1684.278809 33.0 
1684.302246 20.0 
1684.337524 30.0 
1684.372803 33.0 
1684.431519 52.0 
1684.490356 39.0 
1684.549072 39.0 
1684.584351 19.0 
1684.63147 45.0 
1684.678467 38.0 
1684.701904 28.0 
1684.737183 25.0 
1684.749023 25.0 
1684.784302 24.0 
1684.807739 23.0 
1684.831299 18.0 
1684.878296 27.0 
1684.937134 43.0 
1684.99585 28.0 
1685.031128 38.0 
1685.054688 31.0 
1685.066406 31.0 
1685.148804 43.0 
1685.21936 49.0 
1685.278076 36.0 
1685.301636 26.0 
1685.325073 44.0 
1685.336914 44.0 
1685.383911 34.0 
1685.407471 40.0 
1685.430908 34.0 
1685.478027 39.0 
1685.513306 40.0 
1685.536743 44.0 
1685.583862 38.0 
1685.630859 44.0 
1685.654419 26.0 
1685.701416 23.0 
1685.748535 19.0 
1685.760254 19.0 
1685.795532 17.0 
1685.819092 16.0 
1685.842529 20.0 
1685.877808 23.0 
1685.924927 27.0 
1685.960205 32.0 
1685.983643 25.0 
1686.018921 17.0 
1686.06604 13.0 
1686.0896 17.0 
1686.113037 20.0 
1686.148315 22.0 
1686.183594 22.0 
1686.230713 39.0 
1686.265991 23.0 
1686.30127 37.0 
1686.348267 26.0 
1686.395386 47.0 
1686.454224 38.0 
1686.512939 45.0 
1686.560059 39.0 
1686.583618 40.0 
1686.618896 26.0 
1686.642334 15.0 
1686.665894 21.0 
1686.689453 30.0 
1686.748291 24.0 
1686.807129 34.0 
1686.830566 22.0 
1686.877686 37.0 
1686.889404 37.0 
1686.936523 62.0 
1687.018799 36.0 
1687.065918 30.0 
1687.112915 35.0 
1687.124756 35.0 
1687.160034 19.0 
1687.183594 25.0 
1687.230591 21.0 
1687.25415 30.0 
1687.301147 39.0 
1687.336548 28.0 
1687.371826 71.0 
1687.418823 41.0 
1687.442383 44.0 
1687.477661 18.0 
1687.512939 25.0 
1687.54834 37.0 
1687.607178 19.0 
1687.666016 45.0 
1687.713013 29.0 
1687.736572 37.0 
1687.748291 37.0 
1687.771851 46.0 
1687.842529 43.0 
1687.865967 41.0 
1687.889526 38.0 
1687.913086 21.0 
1687.948364 28.0 
1687.971924 23.0 
1688.019043 48.0 
1688.054321 27.0 
1688.101318 30.0 
1688.136719 40.0 
1688.160278 38.0 
1688.254395 32.0 
1688.289673 17.0 
1688.348511 35.0 
1688.37207 27.0 
1688.419189 23.0 
1688.454468 33.0 
1688.489746 21.0 
1688.525024 46.0 
1688.607422 36.0 
1688.630981 31.0 
1688.689819 15.0 
1688.72522 40.0 
1688.807617 28.0 
1688.842896 21.0 
1688.866455 39.0 
1688.913452 26.0 
1688.960571 23.0 
1688.972412 23.0 
1689.00769 46.0 
1689.05481 37.0 
1689.101807 26.0 
1689.125366 56.0 
1689.172485 38.0 
1689.196045 44.0 
1689.254883 36.0 
1689.302002 27.0 
1689.33728 40.0 
1689.372681 31.0 
1689.396118 30.0 
1689.466797 60.0 
1689.537476 27.0 
1689.584595 29.0 
1689.666992 36.0 
1689.737549 39.0 
1689.808228 46.0 
1689.878906 45.0 
1689.949585 39.0 
1690.031982 59.0 
1690.102661 47.0 
1690.137939 37.0 
1690.161499 39.0 
1690.220337 17.0 
1690.243896 29.0 
1690.279297 27.0 
1690.326416 35.0 
1690.396973 52.0 
1690.432373 50.0 
1690.455933 25.0 
1690.503052 30.0 
1690.53833 38.0 
1690.585449 23.0 
1690.632568 29.0 
1690.656128 30.0 
1690.714966 29.0 
1690.738525 25.0 
1690.773926 50.0 
1690.856323 41.0 
1690.879883 50.0 
1690.891724 50.0 
1690.915283 48.0 
1690.950562 40.0 
1690.985962 33.0 
1691.068359 41.0 
1691.174316 37.0 
1691.256836 38.0 
1691.280396 15.0 
1691.339233 23.0 
1691.409912 29.0 
1691.421753 29.0 
1691.480591 52.0 
1691.52771 26.0 
1691.551392 32.0 
1691.574951 38.0 
1691.62207 39.0 
1691.64563 31.0 
1691.680908 15.0 
1691.728027 34.0 
1691.786987 27.0 
1691.845825 33.0 
1691.904785 41.0 
1691.940063 19.0 
1691.975464 34.0 
1692.022583 34.0 
1692.093262 50.0 
1692.128662 33.0 
1692.16394 37.0 
1692.234619 49.0 
1692.30542 40.0 
1692.340698 40.0 
1692.364258 31.0 
1692.387817 35.0 
1692.411377 36.0 
1692.446777 29.0 
1692.493896 23.0 
1692.529297 37.0 
1692.564575 23.0 
1692.611694 25.0 
1692.635376 23.0 
1692.682495 43.0 
1692.741333 37.0 
1692.764893 30.0 
1692.800293 39.0 
1692.812134 39.0 
1692.847412 31.0 
1692.929932 26.0 
1692.965332 43.0 
1693.036011 38.0 
1693.071411 21.0 
1693.106689 22.0 
1693.153931 26.0 
1693.189209 47.0 
1693.248169 34.0 
1693.295288 33.0 
1693.330688 21.0 
1693.377808 30.0 
1693.413208 31.0 
1693.495728 37.0 
1693.554688 57.0 
1693.589966 26.0 
1693.637085 20.0 
1693.672485 21.0 
1693.731445 22.0 
1693.813965 37.0 
1693.884644 57.0 
1693.908325 39.0 
1693.967163 49.0 
1693.990845 33.0 
1694.026123 26.0 
1694.073364 49.0 
1694.132324 60.0 
1694.191162 49.0 
1694.238403 29.0 
1694.261963 24.0 
1694.309082 38.0 
1694.356323 31.0 
1694.391602 23.0 
1694.438843 56.0 
1694.509521 26.0 
1694.568481 44.0 
1694.603882 36.0 
1694.615723 36.0 
1694.686401 44.0 
1694.733643 43.0 
1694.780762 34.0 
1694.816162 46.0 
1694.851562 31.0 
1694.898682 30.0 
1694.922241 29.0 
1694.993042 31.0 
1695.040161 45.0 
1695.075562 29.0 
1695.110962 35.0 
1695.146362 17.0 
1695.169922 28.0 
1695.228882 44.0 
1695.311401 49.0 
1695.334961 27.0 
1695.382202 39.0 
1695.429321 14.0 
1695.464722 38.0 
1695.500122 40.0 
1695.535522 19.0 
1695.582642 30.0 
1695.629883 37.0 
1695.688843 27.0 
1695.736084 18.0 
1695.795044 21.0 
1695.830444 22.0 
1695.854004 29.0 
1695.889404 21.0 
1695.924805 29.0 
1695.960205 30.0 
1695.983765 37.0 
1696.007324 35.0 
1696.030884 31.0 
1696.066284 29.0 
1696.113525 16.0 
1696.184326 32.0 
1696.231445 26.0 
1696.255005 26.0 
1696.290405 21.0 
1696.302246 21.0 
1696.325806 18.0 
1696.373047 39.0 
1696.432007 25.0 
1696.514648 31.0 
1696.550049 26.0 
1696.609009 35.0 
1696.644409 37.0 
1696.67981 33.0 
1696.703369 29.0 
1696.71521 29.0 
1696.762329 45.0 
1696.821411 52.0 
1696.880371 41.0 
1696.939331 33.0 
1696.974731 29.0 
1697.045532 52.0 
1697.104492 32.0 
1697.163574 26.0 
1697.222534 23.0 
1697.246094 20.0 
1697.281494 32.0 
1697.328735 29.0 
1697.352295 24.0 
1697.387817 21.0 
1697.423218 38.0 
1697.470337 33.0 
1697.494019 28.0 
1697.529419 33.0 
1697.552979 21.0 
1697.588379 29.0 
1697.60022 29.0 
1697.65918 43.0 
1697.72998 49.0 
1697.777222 35.0 
1697.848022 32.0 
1697.895264 34.0 
1697.966064 51.0 
1698.072266 34.0 
1698.143066 27.0 
1698.213867 31.0 
1698.237549 22.0 
1698.28479 50.0 
1698.32019 32.0 
1698.34375 53.0 
1698.426392 51.0 
1698.473633 35.0 
1698.532593 59.0 
1698.603516 49.0 
1698.650635 28.0 
1698.674316 32.0 
1698.697876 20.0 
1698.733276 22.0 
1698.780518 27.0 
1698.815918 17.0 
1698.85144 29.0 
1698.875 33.0 
1698.922241 51.0 
1698.945801 35.0 
1698.957642 35.0 
1698.993042 36.0 
1699.028442 39.0 
1699.122925 45.0 
1699.193726 37.0 
1699.240967 52.0 
END IONS

