BEGIN IONS
PEPMASS=247.108
CHARGE=1+
COMPOUNDNAME=MLS000686793-01!
LIBRARYQUALITY=3
SMILES=CC(=O)NC(Cc1c[nH]c2ccccc12)C(=O)O
INCHIKEY=DZTHIGRZJZPRDV-UHFFFAOYSA-N
INCHI=N/A
MSLEVEL=2
SOURCE_INSTRUMENT=LC-ESI-qTof
FILENAME=p1-B07_GB7_01_17891.mzXML
SEQ=*..*
IONMODE=Positive
ORGANISM=GNPS-NIH-NATURALPRODUCTSLIBRARY
NAME=MLS000686793-01! M+H
PI=Dorrestein
DATACOLLECTOR=VVP/LMS
PUBMED=N/A
SUBMITUSER=vphelan
TAGS=
SPECTRUMID=CCMSLIB00000079495
SCANS=1529
95.784729 76.0 
95.965965 188.0 
96.661316 120.0 
96.896271 136.0 
97.031502 108.0 
97.347397 164.0 
98.104889 224.0 
100.341141 152.0 
100.856171 220.0 
100.906143 184.0 
102.045723 212.0 
102.983978 140.0 
103.057938 488.0 
104.136421 40.0 
105.211555 168.0 
105.454636 168.0 
106.064575 140.0 
106.552971 148.0 
107.054848 168.0 
107.087799 184.0 
107.8078 136.0 
107.981461 148.0 
108.876762 216.0 
109.140663 144.0 
109.308952 216.0 
109.39032 176.0 
110.81459 200.0 
111.70681 184.0 
112.201691 132.0 
113.035973 200.0 
113.988068 140.0 
114.48584 144.0 
115.055817 1908.0 
115.215302 148.0 
115.294357 96.0 
115.461113 104.0 
116.057228 744.0 
116.833878 152.0 
116.993126 140.0 
117.059166 1264.0 
117.100784 80.0 
117.199875 60.0 
117.260216 44.0 
117.29039 28.0 
117.404655 84.0 
118.064873 1588.0 
118.275345 116.0 
118.309982 100.0 
118.381432 80.0 
118.474564 164.0 
118.66745 76.0 
119.070023 208.0 
119.218781 200.0 
119.812782 40.0 
119.836746 68.0 
120.069992 124.0 
120.427917 152.0 
121.397423 136.0 
121.691452 152.0 
121.724388 188.0 
121.807846 180.0 
123.226555 160.0 
123.467491 236.0 
123.688744 84.0 
127.060425 192.0 
128.177872 140.0 
129.055893 164.0 
129.139572 204.0 
129.834854 176.0 
130.066879 2004.0 
130.095795 60.0 
130.404709 60.0 
130.547928 160.0 
130.602509 136.0 
131.000854 84.0 
131.072723 340.0 
131.90448 68.0 
132.081909 2468.0 
133.087494 460.0 
133.550812 52.0 
133.919067 128.0 
133.94902 168.0 
136.671585 124.0 
137.508179 136.0 
139.828415 188.0 
140.049194 192.0 
141.05838 188.0 
141.267715 144.0 
141.672516 184.0 
141.826538 80.0 
142.065811 1208.0 
142.099243 64.0 
142.586029 52.0 
142.899902 152.0 
143.072159 1180.0 
143.218903 52.0 
143.805435 200.0 
143.991653 120.0 
144.080811 920.0 
144.173218 140.0 
145.065491 236.0 
145.089951 224.0 
146.060928 2436.0 
146.522293 48.0 
147.05986 280.0 
147.661606 168.0 
148.005234 88.0 
148.063019 144.0 
148.361389 64.0 
154.835312 172.0 
155.057816 168.0 
156.67836 120.0 
156.98494 252.0 
157.014862 76.0 
157.09967 256.0 
157.94397 56.0 
158.056549 180.0 
158.086609 808.0 
159.038925 192.0 
159.091339 3900.0 
159.812927 28.0 
159.838089 28.0 
159.890945 56.0 
160.069672 208.0 
160.096222 308.0 
160.52829 40.0 
160.939575 156.0 
161.045639 140.0 
161.12648 132.0 
166.961212 176.0 
169.074631 188.0 
170.060516 1740.0 
170.783813 80.0 
171.060211 384.0 
171.090866 200.0 
172.802902 72.0 
173.515274 40.0 
175.785156 168.0 
183.092987 124.0 
184.07135 232.0 
184.101059 180.0 
185.077225 152.0 
186.12384 156.0 
187.069687 160.0 
187.077896 144.0 
187.312302 116.0 
188.072006 1280.0 
188.441711 68.0 
188.827133 44.0 
189.071121 196.0 
189.322479 60.0 
190.479889 88.0 
190.537582 76.0 
190.570557 36.0 
199.053833 144.0 
201.109146 168.0 
202.44902 76.0 
203.947006 152.0 
212.093231 108.0 
216.026596 156.0 
224.271759 104.0 
238.428513 48.0 
250.974365 64.0 
279.950531 76.0 
287.736359 36.0 
655.2771 176.0 
715.948608 176.0 
739.92395 156.0 
755.915344 216.0 
836.84668 204.0 
876.644226 172.0 
891.366882 180.0 
925.594971 128.0 
954.746216 44.0 
987.975281 164.0 
990.547363 56.0 
1005.644226 144.0 
1008.853027 164.0 
1022.540588 236.0 
1089.16394 168.0 
1106.202881 156.0 
1144.431152 156.0 
1158.891846 280.0 
1181.392578 208.0 
1184.219604 156.0 
1197.950317 144.0 
1209.059692 200.0 
1218.10083 224.0 
1235.668457 120.0 
1237.985962 168.0 
1238.034302 172.0 
1247.140747 196.0 
1250.580078 132.0 
1256.605103 212.0 
1263.450928 252.0 
1268.074707 164.0 
1271.564087 76.0 
1275.307007 104.0 
1281.063477 156.0 
1285.448242 60.0 
1286.890015 56.0 
1300.024902 180.0 
1309.514526 180.0 
1318.287109 48.0 
1318.908691 44.0 
1328.960205 196.0 
1340.266479 188.0 
1342.154297 160.0 
1344.890015 144.0 
1354.387939 224.0 
1360.327271 184.0 
1361.171631 200.0 
1362.295288 160.0 
1375.697754 176.0 
1380.174805 144.0 
1385.207397 144.0 
1393.278442 144.0 
1395.403931 128.0 
1396.229248 116.0 
1396.489624 180.0 
1398.394287 212.0 
1407.429199 144.0 
1407.74292 44.0 
1407.83252 168.0 
1409.416138 168.0 
1412.65332 168.0 
1413.401367 48.0 
1414.284546 152.0 
1414.786011 168.0 
1416.807983 172.0 
1429.955933 84.0 
1431.7854 160.0 
1434.060669 240.0 
1434.769165 212.0 
1434.867188 232.0 
1436.14917 160.0 
1436.352783 176.0 
1443.073853 44.0 
1444.25354 120.0 
1444.480469 144.0 
1445.910522 200.0 
1448.848389 156.0 
1452.813232 120.0 
1455.469482 148.0 
1462.63855 136.0 
1469.809937 104.0 
1470.550049 56.0 
1484.412231 156.0 
1486.475708 128.0 
1490.230347 148.0 
1491.090942 140.0 
1498.570557 136.0 
1498.701538 156.0 
END IONS

