BEGIN IONS
PEPMASS=924.495
CHARGE=1+
COMPOUNDNAME=Amphotericin B (Abelcet)
LIBRARYQUALITY=1
SMILES=[C@@H]1([C@H](C)[C@@H]([C@H](/C=C/C=C/C=C/C=C/C=C/C=C/C=C/[C@@H](C[C@H]2[C@H]([C@H](C[C@](C[C@H](C[C@H]([C@@H](CC[C@H](C[C@H](CC(=O)O1)O)O)O)O)O)(O2)O)O)C(O)=O)O[C@H]3[C@H]([C@H]([C@@H]([C@H](O3)C)O)N)O)C)O)C
INCHIKEY=APKFDSVGJQXUKY-HZJABQFESA-N
INCHI=N/A
MSLEVEL=2
SOURCE_INSTRUMENT=LC-ESI-qTof
FILENAME=Plate3_61_88_GH1_01_16501.mzXML
SEQ=*..*
IONMODE=Positive
ORGANISM=GNPS-SELLECKCHEM-FDA-PART2
NAME=Amphotericin B (Abelcet) [M+H]
PI=Dorrestein
DATACOLLECTOR=Garg_Neha
PUBMED=N/A
SUBMITUSER=negarg
TAGS=
SPECTRUMID=CCMSLIB00000078219
SCANS=1200
46.61058 160.0 
46.858212 160.0 
47.09967 196.0 
48.840626 160.0 
49.72646 216.0 
54.426178 212.0 
55.470715 152.0 
58.573978 204.0 
59.797371 140.0 
70.188026 160.0 
71.676826 216.0 
71.958191 160.0 
79.138847 168.0 
79.889565 160.0 
83.38707 184.0 
84.827209 156.0 
87.533943 140.0 
89.539619 164.0 
91.058311 156.0 
93.063271 212.0 
95.049599 256.0 
95.092293 180.0 
96.563271 188.0 
97.060684 160.0 
98.918541 184.0 
100.091888 220.0 
100.610268 144.0 
100.730087 196.0 
101.894005 148.0 
102.697189 168.0 
103.284958 156.0 
103.959625 156.0 
105.070206 412.0 
107.050758 184.0 
107.086365 388.0 
108.347702 152.0 
110.067772 148.0 
110.544365 200.0 
111.044441 180.0 
112.75251 180.0 
115.05407 204.0 
115.084946 204.0 
117.067696 284.0 
118.071922 152.0 
119.047997 216.0 
121.772682 180.0 
122.071564 180.0 
123.076363 160.0 
124.820213 140.0 
127.073914 160.0 
129.057388 280.0 
131.08638 444.0 
132.391891 188.0 
133.06369 408.0 
133.101761 532.0 
133.150986 248.0 
135.040054 156.0 
135.089447 168.0 
138.101746 172.0 
139.043594 160.0 
139.080032 168.0 
139.114014 148.0 
139.668564 176.0 
140.158249 204.0 
140.523712 140.0 
141.072479 228.0 
141.09314 372.0 
142.070953 140.0 
143.078186 168.0 
143.443069 212.0 
144.087387 156.0 
145.10289 240.0 
145.680511 216.0 
147.085236 168.0 
149.058197 140.0 
149.135971 176.0 
151.040283 192.0 
151.077744 328.0 
152.079178 152.0 
153.067459 172.0 
154.077271 124.0 
155.070541 308.0 
155.085983 364.0 
157.063507 316.0 
157.103989 268.0 
157.976822 160.0 
158.967636 216.0 
159.115814 384.0 
161.068741 192.0 
161.131897 168.0 
161.356827 204.0 
163.076096 212.0 
163.327209 144.0 
165.058868 348.0 
165.096252 148.0 
166.029404 216.0 
167.072784 584.0 
168.075562 180.0 
168.097321 216.0 
169.046051 188.0 
169.082291 280.0 
170.100906 152.0 
171.062607 180.0 
171.121033 168.0 
172.119934 184.0 
173.096451 328.0 
173.124542 416.0 
175.076523 192.0 
176.084991 212.0 
177.128754 224.0 
179.077942 152.0 
181.089005 200.0 
183.071518 152.0 
183.115875 428.0 
184.142181 192.0 
184.315063 160.0 
184.82341 188.0 
185.080139 756.0 
185.13443 328.0 
186.132233 176.0 
187.106873 268.0 
187.152267 212.0 
187.446442 172.0 
188.111923 164.0 
189.128769 184.0 
190.439377 160.0 
191.111923 276.0 
193.089844 648.0 
194.087677 160.0 
194.648178 144.0 
195.072647 164.0 
195.117157 172.0 
197.134323 280.0 
199.102707 292.0 
199.148193 112.0 
201.089996 220.0 
201.23114 160.0 
203.098511 304.0 
205.088348 160.0 
207.116974 360.0 
208.144592 236.0 
209.073105 152.0 
209.104065 184.0 
209.136597 316.0 
210.088928 180.0 
210.121948 152.0 
211.096329 928.0 
211.149048 436.0 
211.306473 164.0 
211.491684 148.0 
213.087921 124.0 
213.111069 348.0 
216.271042 152.0 
217.082489 152.0 
217.159317 160.0 
217.370041 160.0 
219.111755 404.0 
221.128281 204.0 
223.070282 172.0 
223.110504 204.0 
223.143982 176.0 
224.15361 192.0 
224.845459 152.0 
225.094513 196.0 
225.132065 328.0 
225.164917 340.0 
226.09169 144.0 
226.121613 192.0 
227.08934 156.0 
227.125336 208.0 
229.111176 720.0 
229.911362 144.0 
230.125687 176.0 
231.050507 148.0 
231.114029 292.0 
232.122696 164.0 
233.119644 284.0 
234.118896 228.0 
235.098938 320.0 
235.146606 188.0 
235.86438 160.0 
237.100891 204.0 
237.136749 240.0 
239.19252 184.0 
243.100372 148.0 
245.122177 188.0 
246.156006 144.0 
247.053024 228.0 
247.148621 276.0 
249.164871 296.0 
250.912308 132.0 
251.107697 180.0 
251.128052 260.0 
251.187042 168.0 
251.733047 224.0 
253.115616 196.0 
253.200912 124.0 
255.130356 152.0 
259.121857 168.0 
259.142029 176.0 
260.485504 188.0 
261.138 196.0 
263.116516 148.0 
263.142151 204.0 
264.836853 144.0 
265.160828 144.0 
266.650513 224.0 
267.096802 108.0 
267.125214 160.0 
267.177246 460.0 
268.183472 164.0 
269.139069 444.0 
270.140686 172.0 
271.111816 140.0 
273.111786 124.0 
273.153473 172.0 
274.138428 156.0 
275.174744 164.0 
276.284576 192.0 
277.092377 236.0 
277.118896 156.0 
277.161957 260.0 
278.140289 180.0 
279.12265 248.0 
280.120087 156.0 
283.131195 260.0 
285.060425 148.0 
285.109039 164.0 
286.118408 184.0 
287.1409 172.0 
287.839478 188.0 
291.129242 172.0 
293.161499 144.0 
293.182312 160.0 
293.243652 152.0 
295.12674 196.0 
295.151703 148.0 
296.572693 216.0 
297.140411 236.0 
298.154877 260.0 
299.106873 224.0 
299.744751 184.0 
301.157227 184.0 
303.124695 368.0 
303.161102 280.0 
304.12915 152.0 
305.111023 204.0 
305.144318 184.0 
305.773926 168.0 
306.149902 196.0 
309.144104 176.0 
311.195709 144.0 
312.953674 164.0 
313.052277 152.0 
313.098053 176.0 
313.133057 124.0 
313.167755 960.0 
313.767548 172.0 
314.166931 284.0 
314.974426 184.0 
315.142029 188.0 
315.171448 352.0 
316.201324 140.0 
317.183624 140.0 
317.707245 160.0 
318.140198 236.0 
320.161621 144.0 
321.138306 296.0 
321.921417 176.0 
322.147186 196.0 
323.154602 216.0 
325.138397 148.0 
325.197205 292.0 
327.167023 176.0 
329.151398 340.0 
329.236664 196.0 
331.160706 140.0 
332.171997 148.0 
333.155762 168.0 
333.186829 172.0 
335.161469 140.0 
337.175415 304.0 
338.208069 208.0 
339.129028 112.0 
339.160858 160.0 
341.137665 196.0 
341.180267 176.0 
342.214935 144.0 
343.980804 192.0 
345.184692 252.0 
347.155273 212.0 
348.168365 160.0 
351.136505 164.0 
351.190796 316.0 
351.253876 156.0 
353.185822 172.0 
354.270569 180.0 
355.162689 220.0 
355.187134 148.0 
356.172394 148.0 
357.153442 144.0 
361.163483 140.0 
362.211426 148.0 
363.183014 184.0 
365.145386 144.0 
365.183411 256.0 
367.129272 176.0 
367.202148 208.0 
367.972809 144.0 
369.18924 136.0 
371.191742 184.0 
372.161896 168.0 
373.14502 164.0 
375.146912 144.0 
376.180725 164.0 
377.210663 356.0 
377.239197 196.0 
379.178131 120.0 
381.149719 156.0 
381.18277 280.0 
383.169067 140.0 
383.19632 152.0 
383.231384 180.0 
383.940826 148.0 
385.162476 144.0 
385.222656 216.0 
385.256226 160.0 
386.221741 148.0 
387.171906 192.0 
388.168365 160.0 
389.188019 136.0 
389.215851 288.0 
390.2099 228.0 
391.165833 152.0 
393.168091 184.0 
393.247009 144.0 
395.174408 172.0 
395.212158 156.0 
397.16156 156.0 
399.062317 172.0 
399.222137 184.0 
400.198547 152.0 
401.16687 140.0 
401.204865 252.0 
403.190186 188.0 
403.220428 212.0 
405.174805 188.0 
407.157806 184.0 
407.228546 112.0 
407.274628 148.0 
415.173828 172.0 
415.232147 276.0 
416.228149 148.0 
417.109741 188.0 
417.195099 160.0 
421.234955 216.0 
423.192413 292.0 
423.229248 180.0 
424.950714 188.0 
427.165009 148.0 
428.540039 144.0 
429.253113 220.0 
433.204193 152.0 
435.236511 148.0 
439.225281 116.0 
441.188751 220.0 
441.228302 244.0 
443.234192 200.0 
446.246338 156.0 
455.310333 140.0 
456.16861 144.0 
457.189392 172.0 
457.257477 148.0 
459.277008 100.0 
467.300751 168.0 
469.277649 140.0 
472.227051 316.0 
473.962982 176.0 
478.227539 156.0 
479.210968 188.0 
479.280518 284.0 
481.2005 208.0 
485.277863 108.0 
486.221283 148.0 
487.281555 324.0 
488.202606 148.0 
489.452332 200.0 
493.203339 128.0 
499.227631 140.0 
499.270752 160.0 
503.233215 184.0 
505.262268 144.0 
505.303406 124.0 
509.260773 144.0 
510.271851 140.0 
513.257019 152.0 
520.260681 168.0 
522.856079 164.0 
526.30896 124.0 
532.250244 192.0 
532.534973 148.0 
534.783264 160.0 
535.280457 152.0 
537.259705 228.0 
538.273132 168.0 
545.954407 208.0 
549.328491 140.0 
551.267578 292.0 
552.27002 336.0 
555.306274 180.0 
556.258789 140.0 
558.947083 204.0 
559.502441 184.0 
559.601318 140.0 
563.307068 184.0 
563.51593 152.0 
566.941772 172.0 
569.287842 256.0 
570.27533 256.0 
572.314209 156.0 
573.281189 176.0 
582.260742 144.0 
587.310425 168.0 
589.292603 164.0 
589.324951 140.0 
594.392212 156.0 
597.282837 168.0 
604.958679 140.0 
605.30957 124.0 
609.322021 152.0 
616.092407 196.0 
623.85791 156.0 
625.363708 116.0 
629.443054 144.0 
635.340088 148.0 
641.353149 220.0 
645.351135 108.0 
646.385315 144.0 
647.932495 192.0 
649.32251 180.0 
653.335938 172.0 
654.347656 168.0 
655.977112 148.0 
669.472717 208.0 
671.023682 140.0 
671.371033 484.0 
677.794617 184.0 
677.967896 428.0 
678.115906 148.0 
681.379822 140.0 
683.012146 152.0 
689.361328 280.0 
690.364014 268.0 
691.150635 144.0 
699.437317 148.0 
701.834351 160.0 
705.186523 156.0 
707.18573 172.0 
707.377136 752.0 
708.390015 320.0 
709.389832 148.0 
710.380371 144.0 
724.674011 148.0 
725.385681 1124.0 
726.38855 380.0 
727.39032 312.0 
728.22522 196.0 
728.445435 152.0 
734.927368 156.0 
735.923096 124.0 
736.849487 184.0 
738.417053 152.0 
738.893066 168.0 
741.833679 160.0 
742.378845 176.0 
742.516907 192.0 
742.698059 116.0 
743.100952 268.0 
743.401062 6468.0 
743.67572 148.0 
744.404114 4492.0 
744.577881 116.0 
744.923645 96.0 
745.187561 156.0 
745.401306 916.0 
746.409729 408.0 
747.423096 104.0 
747.792297 140.0 
748.211426 152.0 
752.676819 184.0 
758.475952 168.0 
759.386108 148.0 
760.746887 140.0 
761.2547 232.0 
761.410034 1512.0 
762.417053 1096.0 
763.403015 488.0 
763.451294 152.0 
764.409729 112.0 
785.153992 176.0 
789.991821 520.0 
790.270752 184.0 
790.99762 140.0 
807.665344 164.0 
808.332886 152.0 
869.884949 140.0 
888.481812 196.0 
889.48291 216.0 
895.089233 248.0 
898.647217 108.0 
901.962036 140.0 
903.379211 144.0 
906.485474 2876.0 
906.69928 172.0 
907.486084 2912.0 
907.622131 188.0 
908.492859 836.0 
909.4953 240.0 
911.699158 148.0 
915.503418 148.0 
921.595825 140.0 
921.689941 152.0 
921.901978 164.0 
922.008362 6060.0 
922.23407 244.0 
922.62323 188.0 
923.014404 2592.0 
923.131165 152.0 
923.518188 176.0 
923.936035 160.0 
924.015259 500.0 
924.518127 160.0 
924.982483 148.0 
925.061157 176.0 
925.996399 96.0 
926.466125 144.0 
926.51123 152.0 
927.502319 168.0 
927.668152 124.0 
1120.661499 148.0 
1246.953247 180.0 
1298.334595 156.0 
1461.32666 192.0 
1479.682007 224.0 
1541.118164 204.0 
1568.09729 228.0 
1663.198975 148.0 
1726.608521 188.0 
1737.965454 144.0 
1760.373535 164.0 
1847.657959 184.0 
1856.771851 148.0 
1861.586304 156.0 
1864.756348 192.0 
1932.064575 144.0 
1945.209351 268.0 
1951.921631 212.0 
1952.396484 196.0 
END IONS

