BEGIN IONS
TITLE=Scan Number: 13680
PEPMASS=480.25
CHARGE=0+
COMPOUNDNAME=andrimid
LIBRARYQUALITY=3
SMILES=C/C=C/C=C/C=C/C(=O)N[C@@H](CC(=O)N[C@@H](C(C)C)C(=O)[C@H]1[C@@H](C(=O)NC1=O)C)c2ccccc2
INCHIKEY=OHDXGZAYYBMHCY-QSUIEZAASA-N
INCHI=
MSLEVEL=2
SOURCE_INSTRUMENT=LC-ESI-Hybrid FT
FILENAME=f.rboiteau/150204_Rene_vibrio_9515_19_2_pos.mzXML;
SEQ=*..*
NOTES=
IONMODE=Positive
ORGANISM=GNPS-LIBRARY
NAME=andrimid M+H
SPECTRUMID=CCMSLIB00000424925
ACTIVATION=CID
INSTRUMENT=ion trap
SCANS=13680
129.098099 1403.064819 
131.046967 4721.431152 
131.050217 40461.46875 
138.091766 9866.767578 
139.781998 1644.010864 
146.828049 1452.323853 
148.076202 11409.654297 
149.787399 1789.559937 
149.798447 2543.84668 
149.804916 2484.397705 
149.8125 2761.891113 
149.840057 1769.84668 
150.091888 22850.375 
159.591721 2118.200439 
167.118332 11392.476562 
172.076218 2060.250488 
177.236496 1572.48877 
178.086609 8726.52832 
181.101273 2453.064209 
183.08078 7952.130859 
183.117203 3331.551758 
195.113281 181043.3125 
206.13324 2193.337891 
213.124084 9206.09668 
226.123215 2710948.25 
237.123764 9932.702148 
239.103317 117858.539062 
242.162247 3526.496582 
267.127197 3776.239014 
268.133636 22263906.0 
301.155487 90243.578125 
325.156006 22835.876953 
342.180817 3605.255859 
343.165955 1498251.5 
360.192657 81075.695312 
386.171936 28365.492188 
386.208435 2524.408691 
412.150269 2301.645264 
434.340851 2103.46582 
462.239807 78097.414062 
463.223511 10813.576172 
480.250031 4503.521484 
END IONS

