BEGIN IONS
PEPMASS=321.133
CHARGE=1+
COMPOUNDNAME=Mycophenolic (Mycophenolate)
LIBRARYQUALITY=1
SMILES=C12=C(C(=C(C(=C1O)C/C=C(\C)CCC(=O)O)OC)C)COC2=O
INCHIKEY=HPNSFSBZBAHARI-RUDMXATFSA-N
INCHI=N/A
MSLEVEL=2
SOURCE_INSTRUMENT=LC-ESI-qTof
FILENAME=Plate7_61_80_GD5_01_15771.mzXML
SEQ=*..*
IONMODE=Positive
ORGANISM=GNPS-SELLECKCHEM-FDA-PART2
NAME=Mycophenolic (Mycophenolate) [M+H]
PI=Dorrestein
DATACOLLECTOR=Garg_Neha
PUBMED=N/A
SUBMITUSER=negarg
TAGS=
SPECTRUMID=CCMSLIB00000078487
SCANS=1380
45.068203 212.0 
45.806114 168.0 
46.83699 148.0 
47.409477 256.0 
47.802242 160.0 
49.737015 192.0 
52.894814 200.0 
53.468155 196.0 
53.507458 156.0 
53.637115 172.0 
54.749214 184.0 
55.319168 152.0 
56.574165 204.0 
57.270943 188.0 
58.424473 140.0 
62.297634 164.0 
62.839222 196.0 
63.232708 140.0 
63.37048 176.0 
64.174744 164.0 
64.430115 156.0 
64.790085 144.0 
64.838158 184.0 
65.371346 152.0 
66.031189 152.0 
66.395599 176.0 
66.998665 168.0 
67.994499 204.0 
68.440002 140.0 
68.824203 156.0 
69.607445 156.0 
70.363396 164.0 
72.445518 176.0 
74.038162 168.0 
74.472092 196.0 
74.895226 188.0 
75.064125 160.0 
75.202148 180.0 
76.218742 172.0 
76.416962 156.0 
77.683609 164.0 
77.946976 176.0 
79.120094 168.0 
79.440697 140.0 
80.009392 148.0 
80.057465 148.0 
80.371208 140.0 
80.472946 172.0 
83.749893 180.0 
84.419708 172.0 
84.994919 180.0 
86.319382 140.0 
87.633591 184.0 
87.974892 148.0 
89.82148 200.0 
89.938469 152.0 
90.397736 212.0 
91.054581 408.0 
91.393974 148.0 
93.151009 156.0 
93.809143 152.0 
94.570229 164.0 
94.694145 172.0 
95.116844 148.0 
95.427689 152.0 
95.452965 188.0 
97.071831 144.0 
97.745621 188.0 
98.113953 180.0 
103.053169 1160.0 
103.088448 192.0 
103.11647 180.0 
104.056686 148.0 
104.099327 212.0 
105.06617 152.0 
106.414932 164.0 
107.056496 188.0 
107.958344 144.0 
108.697899 204.0 
109.062462 464.0 
109.896454 148.0 
109.94445 148.0 
110.316246 180.0 
112.705956 156.0 
113.103561 176.0 
115.493164 172.0 
117.032959 136.0 
118.791183 212.0 
118.930061 140.0 
119.188499 180.0 
119.373276 180.0 
120.819405 180.0 
121.426178 176.0 
123.2313 192.0 
124.629433 160.0 
125.000786 160.0 
125.522049 144.0 
126.534241 248.0 
127.34153 168.0 
127.626938 184.0 
129.432114 220.0 
130.457642 224.0 
130.998032 236.0 
131.047943 472.0 
131.841217 152.0 
132.892288 164.0 
133.062134 176.0 
133.59993 164.0 
134.524048 252.0 
134.845123 160.0 
135.041656 176.0 
135.077957 536.0 
135.361023 172.0 
135.894165 148.0 
136.058945 204.0 
136.08783 172.0 
137.058487 188.0 
138.594269 212.0 
138.873245 148.0 
139.077393 144.0 
140.074402 184.0 
141.145905 152.0 
142.077835 180.0 
143.082062 148.0 
145.06015 292.0 
145.096115 172.0 
146.06633 168.0 
147.046036 160.0 
147.114594 172.0 
147.228073 172.0 
147.307785 176.0 
148.656403 156.0 
149.056915 268.0 
149.635986 172.0 
149.850327 160.0 
150.062302 148.0 
151.038467 196.0 
151.073288 156.0 
152.483429 176.0 
152.896622 152.0 
153.298035 176.0 
154.075287 168.0 
154.34964 148.0 
155.600922 160.0 
156.090408 140.0 
156.68779 160.0 
157.223892 188.0 
157.60347 156.0 
158.038544 176.0 
158.81015 180.0 
158.925552 308.0 
158.963181 152.0 
159.043533 28304.0 
160.04747 3456.0 
160.248108 220.0 
161.056137 304.0 
161.197845 104.0 
161.260056 148.0 
161.581207 252.0 
161.687485 216.0 
162.021729 180.0 
162.064804 356.0 
163.073624 168.0 
164.037018 140.0 
166.647491 140.0 
168.088333 144.0 
168.649887 160.0 
169.103424 172.0 
170.022598 144.0 
171.374832 160.0 
171.828506 140.0 
173.061234 124.0 
173.596725 216.0 
175.073318 924.0 
175.121841 256.0 
176.079895 172.0 
176.443146 160.0 
177.053131 9664.0 
177.496948 156.0 
177.711807 144.0 
178.056259 2120.0 
178.144562 168.0 
179.068924 1780.0 
180.077713 340.0 
180.321564 144.0 
181.082291 160.0 
181.126953 164.0 
182.692001 180.0 
182.869598 176.0 
184.228653 204.0 
185.093033 116.0 
186.021408 176.0 
187.034897 144.0 
187.106888 332.0 
187.146973 224.0 
187.569244 200.0 
189.093658 288.0 
189.131958 352.0 
189.323364 148.0 
190.893097 212.0 
191.066391 204.0 
193.048584 244.0 
194.053406 328.0 
195.028442 160.0 
195.063858 5116.0 
196.066208 768.0 
196.521912 144.0 
197.063629 120.0 
197.08873 284.0 
199.246155 164.0 
200.088638 148.0 
201.045456 180.0 
202.096664 168.0 
203.106491 260.0 
204.631317 160.0 
205.055527 140.0 
206.055984 236.0 
206.543381 204.0 
206.58342 200.0 
206.812485 148.0 
206.86673 184.0 
206.923996 140.0 
206.961212 196.0 
207.064758 80064.0 
207.143921 116.0 
207.178009 108.0 
207.284439 232.0 
207.41687 100.0 
207.624969 104.0 
208.06749 8952.0 
208.111465 152.0 
209.068741 1144.0 
209.119263 124.0 
209.345932 124.0 
209.421906 192.0 
209.519333 168.0 
209.641434 140.0 
209.776001 112.0 
210.068329 184.0 
210.632339 176.0 
211.423218 152.0 
211.912598 180.0 
212.080032 108.0 
213.134155 152.0 
213.44809 176.0 
215.073776 156.0 
215.103226 892.0 
216.064438 180.0 
216.111206 340.0 
217.123367 188.0 
217.644241 172.0 
218.858627 152.0 
219.057526 132.0 
219.483307 172.0 
220.061218 144.0 
221.079514 432.0 
222.044312 172.0 
222.08287 192.0 
223.060593 1080.0 
223.116287 176.0 
224.057037 300.0 
224.078644 136.0 
224.699341 112.0 
225.081161 152.0 
226.100739 144.0 
228.126862 184.0 
229.083847 144.0 
229.116791 196.0 
231.056702 136.0 
231.139404 152.0 
233.082138 128.0 
235.072174 196.0 
235.744019 156.0 
239.106293 1116.0 
241.087646 316.0 
241.118317 284.0 
243.062515 136.0 
244.073593 152.0 
245.08522 152.0 
247.092178 300.0 
248.095062 264.0 
249.272079 252.0 
251.091721 156.0 
252.506653 152.0 
254.052444 160.0 
254.08606 176.0 
254.677795 160.0 
257.123413 300.0 
259.093475 588.0 
260.096558 236.0 
261.110443 572.0 
262.112183 144.0 
263.116211 172.0 
263.726746 204.0 
264.101837 156.0 
265.014771 140.0 
268.982483 180.0 
269.082947 172.0 
270.088043 544.0 
271.085297 140.0 
273.112854 112.0 
274.830963 144.0 
275.057159 216.0 
275.126617 17224.0 
275.527527 124.0 
275.590393 152.0 
276.131256 4244.0 
277.132568 564.0 
278.379517 160.0 
280.09906 168.0 
284.204559 172.0 
285.047394 184.0 
285.07428 196.0 
285.111115 3204.0 
286.114044 600.0 
287.116516 316.0 
294.223358 200.0 
294.927094 156.0 
296.563202 164.0 
301.865204 152.0 
302.218018 140.0 
302.422211 196.0 
302.858032 208.0 
303.122589 38616.0 
303.260284 116.0 
303.491302 172.0 
303.680786 148.0 
304.014954 144.0 
304.124908 5596.0 
305.128906 1276.0 
306.013489 136.0 
306.0896 140.0 
306.136566 316.0 
306.188751 132.0 
317.038605 160.0 
321.131836 8512.0 
321.384094 160.0 
322.13736 2192.0 
322.687805 148.0 
323.139038 540.0 
323.167084 152.0 
324.457153 100.0 
340.650604 148.0 
1477.732788 212.0 
1625.460815 172.0 
1695.859985 164.0 
1717.765625 144.0 
1728.655273 152.0 
1755.012695 180.0 
1761.489014 192.0 
1784.931396 200.0 
1827.632202 172.0 
1839.282471 152.0 
1847.648804 148.0 
1867.860352 216.0 
1889.998413 164.0 
1891.452393 216.0 
1897.109131 196.0 
1941.281372 172.0 
1951.476196 180.0 
1988.171143 192.0 
1998.826294 252.0 
END IONS

