BEGIN IONS
TITLE=Scan Number: 2880
PEPMASS=578.38
CHARGE=1+
COMPOUNDNAME=BE-43547B
LIBRARYQUALITY=3
SMILES=O=C(CNC(C(O)(C)C1=O)=O)NC(/C=C/C(N(C)CC(OC(CCCCCCCCCCCC(C)C)C1C)=O)=O)=C
INCHIKEY=HQFFZMGHAJTRBU-VHEBQXMUSA-N
INCHI=InChI=1S/C31H51N3O7/c1-22(2)16-14-12-10-8-7-9-11-13-15-17-25-24(4)29(38)31(5,40)30(39)32-20-26(35)33-23(3)18-19-27(36)34(6)21-28(37)41-25/h18-19,22,24-25,40H,3,7-17,20-21H2,1-2,4-6H3,(H,32,39)(H,33,35)/b19-18+
MSLEVEL=2
SOURCE_INSTRUMENT=LC-ESI-qTof
FILENAME=f.thomast/BE-43547/BE43547B_40eV.mzML;
SEQ=*..*
NOTES=
IONMODE=Positive
ORGANISM=GNPS-LIBRARY
NAME=BE-43547B M+H
SPECTRUMID=CCMSLIB00000839189
ACTIVATION=CID
INSTRUMENT=ion trap
SCANS=2880
45.096062 100.0 
45.193569 68.0 
45.30304 136.0 
45.41663 96.0 
45.706505 116.0 
45.786079 144.0 
45.798027 124.0 
45.893627 108.0 
46.027897 144.0 
46.218342 152.0 
46.399841 72.0 
46.581673 128.0 
46.686131 104.0 
46.884636 172.0 
47.10915 100.0 
47.315296 168.0 
47.784519 140.0 
48.042427 100.0 
48.092724 156.0 
48.234276 64.0 
48.346008 116.0 
48.401928 108.0 
48.595844 144.0 
48.87376 68.0 
48.923115 124.0 
48.961536 84.0 
48.976738 200.0 
49.22258 136.0 
49.654167 52.0 
49.795197 124.0 
49.865799 100.0 
49.961388 132.0 
49.997421 264.0 
50.323814 132.0 
50.383648 140.0 
50.398968 96.0 
50.704304 116.0 
50.747612 72.0 
50.772747 148.0 
50.788113 172.0 
50.876202 116.0 
50.89019 124.0 
51.122677 112.0 
51.513203 136.0 
51.594864 160.0 
51.703377 172.0 
51.869907 108.0 
52.035275 128.0 
52.10461 140.0 
52.131512 128.0 
52.244839 172.0 
52.678051 100.0 
52.772026 136.0 
52.906025 84.0 
53.199196 60.0 
53.304722 112.0 
53.394951 152.0 
53.423618 128.0 
53.466621 172.0 
53.495312 100.0 
53.511082 160.0 
53.519695 124.0 
53.647446 148.0 
53.745171 88.0 
53.91349 172.0 
53.992718 128.0 
54.034519 100.0 
54.040283 96.0 
54.136913 100.0 
54.300083 68.0 
54.483746 116.0 
54.622803 64.0 
54.959541 152.0 
54.97554 116.0 
55.053566 224.0 
55.155987 100.0 
55.220089 88.0 
55.319218 104.0 
55.545513 148.0 
55.551373 84.0 
55.571842 60.0 
55.732738 184.0 
55.908554 176.0 
56.049408 132.0 
56.056744 184.0 
56.115498 116.0 
56.122837 136.0 
56.161037 176.0 
56.222786 112.0 
56.256618 76.0 
56.300743 116.0 
56.347839 92.0 
56.405262 96.0 
56.564438 88.0 
56.598354 128.0 
56.652954 120.0 
56.861263 116.0 
57.000343 136.0 
57.012184 160.0 
57.032967 124.0 
57.06958 1088.0 
57.08033 80.0 
57.258236 204.0 
57.265671 96.0 
57.302776 100.0 
57.402271 132.0 
57.446857 92.0 
57.548126 144.0 
57.588142 104.0 
57.79665 224.0 
57.817532 172.0 
57.974205 144.0 
58.013035 128.0 
58.039932 88.0 
58.0653 344.0 
58.187923 100.0 
58.442501 88.0 
58.550476 140.0 
58.685608 104.0 
58.71566 96.0 
58.757736 120.0 
58.849464 116.0 
58.968365 136.0 
59.052113 108.0 
59.102482 52.0 
59.218601 132.0 
59.285019 136.0 
59.502647 116.0 
59.546532 72.0 
59.555603 108.0 
59.594944 184.0 
59.632801 152.0 
59.802532 116.0 
60.004379 184.0 
60.043896 108.0 
60.053013 96.0 
60.176163 124.0 
60.228577 100.0 
60.479259 152.0 
60.500637 52.0 
60.546375 160.0 
60.602859 96.0 
60.71283 76.0 
60.721989 108.0 
61.144466 136.0 
61.159801 144.0 
61.184338 168.0 
61.340897 144.0 
61.360859 192.0 
61.426949 84.0 
61.436783 128.0 
61.459221 120.0 
61.573044 88.0 
61.583805 128.0 
61.600731 144.0 
61.628437 148.0 
61.740871 128.0 
61.952145 160.0 
61.964497 124.0 
62.018532 148.0 
62.142159 68.0 
62.183895 92.0 
62.371132 180.0 
62.433102 132.0 
62.498199 120.0 
62.547821 108.0 
62.833527 52.0 
63.018616 136.0 
63.140106 100.0 
63.305378 136.0 
63.497433 136.0 
63.924759 80.0 
63.956104 156.0 
64.050957 132.0 
64.237144 72.0 
64.274864 120.0 
64.326752 116.0 
64.334442 172.0 
64.364502 132.0 
64.517204 92.0 
64.616463 168.0 
64.689003 132.0 
64.785263 72.0 
64.826294 132.0 
64.876816 176.0 
65.014313 140.0 
65.038704 304.0 
65.049103 160.0 
65.090225 160.0 
65.170952 84.0 
65.457802 100.0 
65.495888 92.0 
65.502228 132.0 
65.514923 124.0 
65.599075 124.0 
65.723022 108.0 
65.896431 76.0 
65.993584 52.0 
66.009491 132.0 
66.033394 104.0 
66.071632 148.0 
66.103531 100.0 
66.237526 80.0 
66.279015 136.0 
66.323753 52.0 
66.339706 100.0 
66.381966 172.0 
66.438759 144.0 
66.502716 108.0 
66.629105 148.0 
66.75563 92.0 
66.940002 148.0 
67.009003 176.0 
67.017471 832.0 
67.040833 340.0 
67.053886 4032.0 
67.096611 112.0 
67.163208 112.0 
67.192139 124.0 
67.295044 156.0 
67.319183 120.0 
67.427032 96.0 
67.596207 136.0 
67.730095 116.0 
67.79789 140.0 
67.83342 104.0 
67.839897 56.0 
67.862488 148.0 
67.87381 96.0 
67.933594 100.0 
67.946518 128.0 
67.95401 212.0 
67.998268 88.0 
68.04911 24756.0 
68.064781 152.0 
68.137398 112.0 
68.26696 100.0 
68.289627 184.0 
68.503716 124.0 
68.636887 64.0 
68.685631 72.0 
68.703499 108.0 
68.711624 112.0 
68.744148 80.0 
68.838463 148.0 
68.901932 152.0 
68.98497 168.0 
69.015923 140.0 
69.033302 1464.0 
69.052704 600.0 
69.069649 18504.0 
69.115356 64.0 
69.12677 68.0 
69.133926 52.0 
69.141876 164.0 
69.464676 76.0 
69.51207 104.0 
69.548058 68.0 
69.562767 96.0 
69.584023 116.0 
69.651123 72.0 
69.705139 60.0 
69.77227 112.0 
69.823051 144.0 
69.862381 124.0 
70.02803 128.0 
70.036819 176.0 
70.064613 2944.0 
70.073158 1324.0 
70.115044 64.0 
70.23822 192.0 
70.29084 112.0 
70.506378 128.0 
70.537666 128.0 
70.690903 176.0 
70.781639 88.0 
70.796471 148.0 
70.851448 152.0 
70.956619 108.0 
71.035927 124.0 
71.048637 1556.0 
71.060699 236.0 
71.08519 11716.0 
71.133469 148.0 
71.229446 72.0 
71.290703 64.0 
71.31221 112.0 
71.350311 88.0 
71.580734 116.0 
71.62886 100.0 
71.64547 60.0 
71.680313 128.0 
71.711861 132.0 
71.784943 116.0 
71.946205 88.0 
72.011093 92.0 
72.044701 424.0 
72.079536 540.0 
72.088074 840.0 
72.102638 100.0 
72.130951 96.0 
72.300926 100.0 
72.329269 120.0 
72.342636 52.0 
72.456093 64.0 
72.532883 112.0 
72.593033 68.0 
72.627426 140.0 
72.636482 72.0 
72.813728 112.0 
72.909164 56.0 
73.025131 112.0 
73.051537 120.0 
73.064865 952.0 
73.081703 148.0 
73.121971 56.0 
73.143745 152.0 
73.16053 92.0 
73.298134 100.0 
73.345139 120.0 
73.521584 148.0 
73.545143 64.0 
73.555237 64.0 
73.631554 148.0 
73.644386 108.0 
73.74369 188.0 
73.799286 124.0 
73.816154 60.0 
73.822876 120.0 
73.829613 128.0 
73.898712 140.0 
73.923996 148.0 
73.97628 96.0 
74.0252 124.0 
74.031944 140.0 
74.059929 1620.0 
74.074142 96.0 
74.124786 88.0 
74.138283 128.0 
74.246384 128.0 
74.430679 112.0 
74.530556 52.0 
74.544083 76.0 
74.571182 72.0 
74.608429 112.0 
74.666046 64.0 
74.676201 88.0 
74.774521 84.0 
74.784676 156.0 
74.886482 84.0 
74.894287 52.0 
74.978142 92.0 
75.044365 140.0 
75.063034 264.0 
75.098732 164.0 
75.131027 144.0 
75.141235 120.0 
75.241562 120.0 
75.280693 88.0 
75.289215 64.0 
75.389618 136.0 
75.706635 176.0 
75.841507 108.0 
75.865433 56.0 
76.010674 96.0 
76.039001 472.0 
76.056839 96.0 
76.121834 108.0 
76.159477 116.0 
76.409538 124.0 
76.474686 160.0 
76.68576 156.0 
76.701225 120.0 
76.752769 76.0 
76.787109 168.0 
76.928078 196.0 
76.94529 120.0 
77.038177 332.0 
77.162178 136.0 
77.194908 160.0 
77.306953 100.0 
77.375931 112.0 
77.605522 96.0 
77.67981 140.0 
77.723038 96.0 
77.73687 104.0 
77.761078 92.0 
77.819893 64.0 
77.854477 124.0 
78.022415 88.0 
78.032738 904.0 
78.167961 188.0 
78.230408 96.0 
78.593307 180.0 
78.730705 192.0 
78.869972 152.0 
78.893028 168.0 
79.018608 280.0 
79.033768 132.0 
79.053391 2824.0 
79.13665 168.0 
79.45623 84.0 
79.699371 168.0 
79.809708 112.0 
79.900826 140.0 
79.967453 112.0 
80.028839 120.0 
80.035873 80.0 
80.049149 14364.0 
80.088501 116.0 
80.095535 64.0 
80.130104 168.0 
80.155212 84.0 
80.163986 104.0 
80.214905 112.0 
80.267601 116.0 
80.402962 56.0 
80.439888 72.0 
80.499664 192.0 
80.515518 100.0 
80.553329 164.0 
80.622902 80.0 
80.658813 148.0 
80.67572 108.0 
80.765564 140.0 
80.774406 52.0 
80.796021 156.0 
80.906601 212.0 
80.918976 96.0 
81.033623 340.0 
81.052467 1384.0 
81.06942 33084.0 
81.14492 116.0 
81.152 80.0 
81.424263 116.0 
81.449455 172.0 
81.470284 80.0 
81.477371 72.0 
81.491516 120.0 
81.513474 128.0 
81.56234 120.0 
81.58432 164.0 
81.592468 60.0 
81.619011 164.0 
81.68103 148.0 
81.697006 76.0 
81.705849 160.0 
81.840645 60.0 
81.877876 152.0 
82.041214 108.0 
82.051521 140.0 
82.064774 5436.0 
82.156693 164.0 
82.186928 100.0 
82.302528 88.0 
82.368355 128.0 
82.396843 108.0 
82.412857 116.0 
82.466278 100.0 
82.47876 56.0 
82.60704 52.0 
82.6409 68.0 
82.651581 124.0 
82.685455 112.0 
82.706154 84.0 
82.808548 96.0 
82.942421 160.0 
82.951004 144.0 
83.012421 908.0 
83.022812 144.0 
83.036011 108.0 
83.048225 1280.0 
83.058548 152.0 
83.069473 404.0 
83.085152 39088.0 
83.117538 124.0 
83.169388 144.0 
83.218819 108.0 
83.278519 144.0 
83.391327 52.0 
83.550766 80.0 
83.563309 112.0 
83.583015 164.0 
83.606331 112.0 
83.72522 128.0 
83.733673 176.0 
83.753426 128.0 
83.792908 152.0 
83.859337 132.0 
83.90963 136.0 
83.950966 76.0 
83.963547 80.0 
84.017448 116.0 
84.044205 4000.0 
84.088356 2072.0 
84.118126 140.0 
84.127121 132.0 
84.292686 116.0 
84.326889 124.0 
84.436775 128.0 
84.553963 60.0 
84.66037 104.0 
84.669792 72.0 
84.683823 108.0 
84.703682 92.0 
84.869789 144.0 
84.896889 140.0 
84.956528 156.0 
85.028679 224.0 
85.046791 368.0 
85.064407 3320.0 
85.100601 12764.0 
85.137383 100.0 
85.198914 108.0 
85.253212 132.0 
85.331108 68.0 
85.338341 112.0 
85.372787 52.0 
85.41626 96.0 
85.679245 120.0 
85.719185 132.0 
85.851776 124.0 
86.022438 532.0 
86.060265 784.0 
86.104439 660.0 
86.228325 60.0 
86.421425 136.0 
86.578285 96.0 
86.685966 128.0 
86.695122 56.0 
86.795547 120.0 
86.881439 108.0 
86.899719 100.0 
87.0438 416.0 
87.06517 148.0 
87.080338 388.0 
87.186958 96.0 
87.324348 92.0 
87.441666 88.0 
87.488365 196.0 
87.50769 84.0 
87.608635 52.0 
87.693062 108.0 
87.779373 160.0 
87.876785 140.0 
87.891685 116.0 
87.908028 180.0 
88.027588 124.0 
88.038918 5552.0 
88.099388 60.0 
88.237457 124.0 
88.390419 116.0 
88.403343 64.0 
88.567505 96.0 
88.576721 132.0 
88.76326 56.0 
88.91478 176.0 
88.955482 112.0 
88.962898 60.0 
89.022064 176.0 
89.043556 156.0 
89.059715 2340.0 
89.12574 68.0 
89.188683 96.0 
89.370293 52.0 
89.412903 144.0 
89.433311 100.0 
89.449402 108.0 
89.474113 120.0 
89.544624 76.0 
89.575081 196.0 
89.585434 148.0 
89.593147 168.0 
89.657852 96.0 
89.694984 120.0 
89.743263 168.0 
89.773003 116.0 
89.804581 160.0 
89.823174 120.0 
89.83902 144.0 
89.851067 92.0 
89.883034 388.0 
89.893806 144.0 
89.904968 136.0 
89.930679 172.0 
89.951462 120.0 
89.960754 144.0 
89.98391 100.0 
89.991615 92.0 
90.000656 168.0 
90.012154 164.0 
90.0345 168.0 
90.054924 488448.0 
90.07119 308.0 
90.088303 156.0 
90.117073 108.0 
90.12825 88.0 
90.14077 84.0 
90.14756 76.0 
90.159729 88.0 
90.177223 100.0 
90.210182 96.0 
90.224174 212.0 
90.241837 116.0 
90.270363 128.0 
90.284698 96.0 
90.305206 64.0 
90.312668 52.0 
90.341759 236.0 
90.360985 800.0 
90.396538 84.0 
90.454361 52.0 
90.469269 80.0 
90.523651 196.0 
90.542007 128.0 
90.565109 112.0 
90.573746 88.0 
90.657066 76.0 
90.686325 116.0 
90.710022 140.0 
90.745537 68.0 
90.797829 116.0 
90.835228 68.0 
90.852028 124.0 
90.947456 72.0 
90.969826 112.0 
90.982887 284.0 
91.009109 100.0 
91.02594 144.0 
91.057854 11276.0 
91.095207 52.0 
91.113884 192.0 
91.132629 80.0 
91.164444 140.0 
91.213982 144.0 
91.233765 56.0 
91.256248 52.0 
91.263725 80.0 
91.344269 180.0 
91.417397 104.0 
91.434258 172.0 
91.471764 164.0 
91.499153 88.0 
91.552444 100.0 
91.565598 68.0 
91.590683 116.0 
91.599358 120.0 
91.618141 68.0 
91.636917 72.0 
91.646416 68.0 
91.666939 112.0 
91.680511 68.0 
91.693253 52.0 
91.711998 124.0 
91.737267 140.0 
91.760979 60.0 
91.796532 112.0 
91.85479 108.0 
92.046585 116.0 
92.05957 1664.0 
92.072945 84.0 
92.087982 132.0 
92.106804 120.0 
92.185867 112.0 
92.261124 100.0 
92.289444 148.0 
92.311272 96.0 
92.317047 164.0 
92.336548 128.0 
92.3554 124.0 
92.48172 80.0 
92.560936 96.0 
92.636406 156.0 
92.78746 136.0 
92.878166 104.0 
92.900215 156.0 
93.03698 124.0 
93.046448 100.0 
93.058441 320.0 
93.06958 7036.0 
93.099419 92.0 
93.156181 124.0 
93.175102 164.0 
93.212967 132.0 
93.283028 152.0 
93.328506 104.0 
93.355019 148.0 
93.392921 132.0 
93.550972 100.0 
93.633766 96.0 
93.669823 104.0 
93.757133 136.0 
93.852104 140.0 
93.886307 120.0 
93.994637 132.0 
94.006081 52.0 
94.028954 192.0 
94.066292 916.0 
94.262917 92.0 
94.451492 100.0 
94.539169 148.0 
94.609726 160.0 
94.61927 136.0 
94.697495 144.0 
94.716599 80.0 
94.729935 172.0 
94.781494 92.0 
94.934303 68.0 
94.970772 144.0 
95.048737 972.0 
95.07312 452.0 
95.08551 42400.0 
95.115875 152.0 
95.182823 148.0 
95.245979 116.0 
95.255577 56.0 
95.35704 56.0 
95.378067 184.0 
95.40873 112.0 
95.428757 88.0 
95.531349 140.0 
95.539017 132.0 
95.563957 76.0 
95.594635 72.0 
95.65023 96.0 
95.717361 120.0 
95.726105 108.0 
95.774956 56.0 
95.78717 96.0 
95.833557 96.0 
95.857498 60.0 
95.885803 240.0 
95.897766 264.0 
95.906799 360.0 
95.914818 124.0 
95.924011 80.0 
95.939156 184.0 
95.946243 120.0 
95.955315 64.0 
95.970795 88.0 
95.977753 108.0 
96.001495 216.0 
96.015022 584.0 
96.02552 280.0 
96.044891 566224.0 
96.062393 208.0 
96.079613 420.0 
96.090019 868.0 
96.109161 92.0 
96.15406 68.0 
96.165436 100.0 
96.178833 136.0 
96.191154 180.0 
96.2089 132.0 
96.21949 100.0 
96.227882 152.0 
96.23909 188.0 
96.255211 140.0 
96.259964 128.0 
96.312332 120.0 
96.324303 168.0 
96.342804 600.0 
96.361183 5312.0 
96.392883 136.0 
96.417015 68.0 
96.461319 52.0 
96.470627 136.0 
96.486588 64.0 
96.50425 68.0 
96.521027 64.0 
96.535507 84.0 
96.547997 72.0 
96.583794 76.0 
96.604454 100.0 
96.613518 72.0 
96.634048 116.0 
96.681 56.0 
96.705421 64.0 
96.729179 132.0 
96.744614 132.0 
96.752342 92.0 
96.805687 104.0 
96.817932 100.0 
96.833382 68.0 
96.847771 84.0 
96.858948 124.0 
96.906319 56.0 
96.946213 96.0 
96.958839 104.0 
96.980072 136.0 
96.987808 96.0 
97.010979 104.0 
97.027885 332.0 
97.047707 36128.0 
97.064758 4800.0 
97.077011 452.0 
97.101112 55140.0 
97.121712 124.0 
97.161713 68.0 
97.169441 68.0 
97.199455 76.0 
97.220757 116.0 
97.231041 56.0 
97.249992 140.0 
97.264549 244.0 
97.281578 104.0 
97.301704 132.0 
97.328003 96.0 
97.365715 56.0 
97.382187 80.0 
97.393799 88.0 
97.420898 76.0 
97.428116 100.0 
97.4422 56.0 
97.473145 148.0 
97.484756 144.0 
97.50248 64.0 
97.52932 80.0 
97.547707 96.0 
97.554825 128.0 
97.591293 92.0 
97.599655 104.0 
97.63501 160.0 
97.644676 108.0 
97.663002 60.0 
97.673492 188.0 
97.683876 124.0 
97.701797 180.0 
97.712715 208.0 
97.732765 84.0 
97.740524 80.0 
97.757393 124.0 
97.776833 88.0 
97.786171 124.0 
97.800636 72.0 
97.953918 52.0 
97.992714 104.0 
98.05043 1384.0 
98.059784 11236.0 
98.083122 644.0 
98.10463 3832.0 
98.286057 108.0 
98.379425 52.0 
98.466965 60.0 
98.519508 60.0 
98.612206 84.0 
98.642166 76.0 
98.657738 108.0 
98.678459 76.0 
98.708382 116.0 
98.768814 56.0 
98.854576 76.0 
98.874077 64.0 
98.891609 100.0 
99.043839 688.0 
99.062523 592.0 
99.080315 2656.0 
99.116676 2936.0 
99.135529 88.0 
99.203857 164.0 
99.316383 76.0 
99.328918 112.0 
99.368011 100.0 
99.436722 60.0 
99.555771 76.0 
99.737831 64.0 
99.792671 64.0 
99.855354 96.0 
100.038727 12344.0 
100.073677 416.0 
100.081619 380.0 
100.119995 240.0 
100.131859 68.0 
100.222122 140.0 
100.257484 72.0 
100.42572 156.0 
100.610123 96.0 
100.622498 148.0 
100.839523 88.0 
100.857254 84.0 
100.931351 256.0 
101.023636 1664.0 
101.041557 360.0 
101.059654 13692.0 
101.085823 92.0 
101.095665 160.0 
101.215988 104.0 
101.223885 104.0 
101.387695 140.0 
101.407417 264.0 
101.557594 96.0 
101.60305 100.0 
101.763206 132.0 
101.775093 96.0 
101.78302 72.0 
101.81073 52.0 
101.828529 60.0 
102.014603 128.0 
102.027275 280.0 
102.039467 136.0 
102.054878 20492.0 
102.078407 164.0 
102.101791 64.0 
102.1315 100.0 
102.165192 100.0 
102.2108 72.0 
102.228653 64.0 
102.288116 112.0 
102.487701 124.0 
102.612091 100.0 
102.629547 72.0 
102.667297 76.0 
102.766663 96.0 
102.893929 96.0 
102.91185 64.0 
103.037186 144.0 
103.057831 1304.0 
103.078491 420.0 
103.240349 76.0 
103.26226 88.0 
103.306084 144.0 
103.318085 56.0 
103.591309 116.0 
103.687164 64.0 
103.715096 112.0 
103.774063 144.0 
103.828979 76.0 
103.922913 84.0 
103.95491 56.0 
103.980911 52.0 
103.992889 80.0 
104.042862 180.0 
104.058899 76.0 
104.066879 124.0 
104.103592 84.0 
104.116928 56.0 
104.367195 64.0 
104.425301 60.0 
104.487427 76.0 
104.7341 140.0 
104.764236 60.0 
104.87664 144.0 
105.043999 260.0 
105.070557 2604.0 
105.227196 104.0 
105.286728 112.0 
105.310867 132.0 
105.318939 80.0 
105.38028 84.0 
105.440804 84.0 
105.596863 52.0 
105.647224 100.0 
105.925545 140.0 
106.028503 128.0 
106.050728 96.0 
106.064835 192.0 
106.073318 388.0 
106.099205 92.0 
106.275772 68.0 
106.438828 76.0 
106.588585 100.0 
106.602745 132.0 
106.643227 180.0 
106.685799 68.0 
106.819534 60.0 
106.877052 148.0 
107.008064 160.0 
107.060204 1720.0 
107.085716 12524.0 
107.119659 164.0 
107.165627 120.0 
107.29837 80.0 
107.320732 56.0 
107.351837 108.0 
107.444679 68.0 
107.578888 60.0 
107.588997 248.0 
107.623589 200.0 
107.650055 116.0 
107.658203 100.0 
107.68335 100.0 
107.768105 104.0 
107.933067 84.0 
107.945267 176.0 
108.004402 60.0 
108.044556 27836.0 
108.067223 1096.0 
108.088318 1540.0 
108.17157 80.0 
108.216446 72.0 
108.240921 92.0 
108.285797 120.0 
108.319855 300.0 
108.36338 64.0 
108.376694 56.0 
108.546097 108.0 
108.79657 84.0 
108.804749 92.0 
108.814964 116.0 
108.8293 76.0 
108.841568 100.0 
109.02169 64.0 
109.035995 136.0 
109.047737 2264.0 
109.065018 5980.0 
109.086327 240.0 
109.101494 37104.0 
109.125938 128.0 
109.133896 164.0 
109.156395 128.0 
109.177353 76.0 
109.210144 68.0 
109.244949 172.0 
109.266479 52.0 
109.30497 76.0 
109.326965 116.0 
109.372078 132.0 
109.439796 60.0 
109.52803 56.0 
109.606003 104.0 
109.659386 112.0 
109.698425 72.0 
109.779579 60.0 
109.791405 128.0 
109.818588 52.0 
109.887474 60.0 
109.895653 172.0 
109.903923 52.0 
109.973801 112.0 
110.060692 4112.0 
110.086365 144.0 
110.104401 2668.0 
110.189842 108.0 
110.305168 60.0 
110.418106 224.0 
110.616364 100.0 
110.717468 56.0 
110.755882 96.0 
110.830986 56.0 
110.894997 56.0 
110.905281 140.0 
110.932175 52.0 
110.990807 68.0 
111.010628 152.0 
111.023041 100.0 
111.045097 604.0 
111.053322 628.0 
111.067375 324.0 
111.080742 19600.0 
111.102699 188.0 
111.117088 32200.0 
111.149124 80.0 
111.17392 124.0 
111.209091 76.0 
111.233887 128.0 
111.262856 96.0 
111.317787 52.0 
111.418045 100.0 
111.440819 88.0 
111.687309 76.0 
111.751556 92.0 
111.766083 68.0 
111.973495 64.0 
112.037514 992.0 
112.062706 140.0 
112.07605 2604.0 
112.082642 1740.0 
112.120155 2348.0 
112.287018 128.0 
112.544838 124.0 
112.559441 52.0 
112.725914 108.0 
112.763382 124.0 
112.877983 56.0 
112.915451 124.0 
112.948814 80.0 
113.042572 208.0 
113.059464 4936.0 
113.096916 752.0 
113.107407 1172.0 
113.121284 120.0 
113.132607 1400.0 
113.230362 52.0 
113.30336 152.0 
113.311745 64.0 
113.334679 128.0 
113.391678 96.0 
113.531006 112.0 
113.915802 88.0 
113.972328 80.0 
114.007904 116.0 
114.034157 52.0 
114.055 58668.0 
114.091713 1176.0 
114.110367 136.0 
114.137352 208.0 
114.15271 64.0 
114.225784 80.0 
114.238373 56.0 
114.33268 116.0 
114.345268 100.0 
114.403984 112.0 
114.56765 112.0 
114.592857 68.0 
114.693649 60.0 
114.716721 112.0 
114.737762 52.0 
114.832634 116.0 
114.847961 152.0 
114.880592 156.0 
114.956322 52.0 
114.964729 56.0 
114.989937 100.0 
115.013054 132.0 
115.057167 3004.0 
115.075745 1264.0 
115.111382 436.0 
115.13298 84.0 
115.154015 104.0 
115.335045 140.0 
115.354027 80.0 
115.36454 108.0 
115.716545 132.0 
115.771439 52.0 
115.824173 96.0 
115.838943 92.0 
115.851608 88.0 
115.912819 112.0 
115.987801 140.0 
116.033882 288.0 
116.059959 368.0 
116.070023 636.0 
116.081711 160.0 
116.094482 64.0 
116.105034 84.0 
116.227615 92.0 
116.263535 160.0 
116.413727 112.0 
116.658684 108.0 
116.905113 120.0 
116.953888 108.0 
116.968719 156.0 
116.987831 84.0 
117.038727 132.0 
117.065002 140.0 
117.074791 124.0 
117.085411 108.0 
117.096031 80.0 
117.240356 112.0 
117.414566 60.0 
117.890968 188.0 
117.995346 112.0 
118.049583 1240.0 
118.078423 156.0 
118.08696 112.0 
118.242561 140.0 
118.59684 60.0 
118.731422 56.0 
118.851089 100.0 
119.060738 132.0 
119.085312 5712.0 
119.118858 108.0 
119.131302 116.0 
119.21907 140.0 
119.669144 120.0 
120.041649 228.0 
120.057091 64.0 
120.090202 700.0 
120.234009 80.0 
120.597687 68.0 
120.71064 76.0 
120.770035 56.0 
120.806664 72.0 
120.888557 124.0 
121.013641 124.0 
121.064568 1248.0 
121.075714 2940.0 
121.101059 14624.0 
121.125854 100.0 
121.233772 132.0 
121.592461 148.0 
121.62706 140.0 
121.668167 104.0 
121.717911 136.0 
121.756866 120.0 
121.9842 64.0 
122.022263 228.0 
122.06015 2012.0 
122.083939 2672.0 
122.104172 1620.0 
122.298447 68.0 
122.402519 176.0 
122.502396 52.0 
122.78035 88.0 
122.849884 92.0 
122.865128 56.0 
122.897697 124.0 
122.939018 88.0 
122.953362 128.0 
122.989044 68.0 
122.999886 144.0 
123.015114 128.0 
123.024399 280.0 
123.047836 244.0 
123.056931 416.0 
123.063354 272.0 
123.079956 8828.0 
123.09169 58136.0 
123.116974 24364.0 
123.141556 264.0 
123.278465 60.0 
123.299026 96.0 
123.439575 208.0 
123.491898 120.0 
123.502823 64.0 
123.585648 72.0 
123.59436 84.0 
123.631424 88.0 
123.753532 148.0 
123.853905 124.0 
123.901917 148.0 
123.925972 60.0 
124.038467 1452.0 
124.077324 2004.0 
124.094727 4240.0 
124.119698 2252.0 
124.137779 120.0 
124.146545 68.0 
124.16185 60.0 
124.279846 108.0 
124.295181 52.0 
124.315331 136.0 
124.352028 60.0 
124.386993 96.0 
124.454788 132.0 
124.581734 68.0 
124.614525 168.0 
124.686821 60.0 
124.696671 72.0 
124.743767 60.0 
124.761261 100.0 
124.880493 84.0 
124.947517 92.0 
124.967224 136.0 
124.986397 108.0 
125.002289 172.0 
125.015503 52.0 
125.038559 128.0 
125.060326 6912.0 
125.070862 42588.0 
125.096077 13368.0 
125.13282 12820.0 
125.164635 60.0 
125.186577 56.0 
125.219429 228.0 
125.243591 144.0 
125.284653 148.0 
125.294113 56.0 
125.302872 84.0 
125.320427 100.0 
125.379738 52.0 
125.412659 76.0 
125.645515 148.0 
125.665321 96.0 
125.735687 80.0 
125.812668 72.0 
125.918236 128.0 
125.933685 56.0 
126.017281 120.0 
126.039963 132.0 
126.057526 832.0 
126.074425 2336.0 
126.100014 1356.0 
126.135971 1120.0 
126.204468 120.0 
126.413857 84.0 
126.561607 120.0 
126.645439 160.0 
126.735947 116.0 
126.879486 120.0 
126.917046 100.0 
126.925903 68.0 
126.95462 68.0 
127.050064 960.0 
127.076035 3412.0 
127.092857 120.0 
127.112701 1000.0 
127.148346 1380.0 
127.416809 116.0 
127.602829 84.0 
127.647095 200.0 
127.913147 76.0 
128.034042 1664.0 
128.050888 248.0 
128.070007 1032.0 
128.10759 280.0 
128.117233 148.0 
128.148315 132.0 
128.272339 228.0 
128.301544 116.0 
128.428223 56.0 
128.56601 120.0 
128.861938 64.0 
129.035599 96.0 
129.053955 548.0 
129.066895 508.0 
129.08963 300.0 
129.10054 112.0 
129.125931 708.0 
129.238388 96.0 
129.358765 180.0 
129.415771 104.0 
129.512741 104.0 
129.541779 64.0 
129.566299 104.0 
129.676346 72.0 
129.713654 156.0 
129.925934 92.0 
130.006409 92.0 
130.049774 37300.0 
130.083862 484.0 
130.135315 260.0 
130.162949 144.0 
130.187592 84.0 
130.203247 84.0 
130.33078 224.0 
130.43161 64.0 
130.503281 68.0 
130.516724 64.0 
130.568222 112.0 
130.646622 260.0 
130.727386 76.0 
130.834991 172.0 
130.924744 124.0 
130.960648 144.0 
131.053329 1696.0 
131.085495 540.0 
131.11554 108.0 
131.140289 52.0 
131.149246 84.0 
131.351425 112.0 
131.51326 180.0 
131.535782 104.0 
131.58078 80.0 
131.821564 120.0 
131.909393 80.0 
131.927399 112.0 
131.967957 84.0 
131.997253 80.0 
132.065323 6600.0 
132.175308 56.0 
132.18428 176.0 
132.33989 168.0 
132.365097 132.0 
132.72142 148.0 
133.006226 128.0 
133.037903 104.0 
133.070541 608.0 
133.085709 952.0 
133.100677 3360.0 
133.307205 92.0 
133.400055 88.0 
133.540497 140.0 
133.856018 116.0 
134.018402 136.0 
134.056412 96.0 
134.070465 252.0 
134.089539 260.0 
134.105927 844.0 
134.200775 88.0 
134.343887 164.0 
134.473495 112.0 
134.514465 72.0 
134.701019 64.0 
134.746536 84.0 
134.792068 68.0 
134.969727 56.0 
135.017563 80.0 
135.054977 2688.0 
135.081177 804.0 
135.088715 812.0 
135.116577 18972.0 
135.149719 156.0 
135.181641 116.0 
135.282028 52.0 
135.33902 96.0 
135.393784 76.0 
135.437119 128.0 
135.594666 72.0 
135.679169 68.0 
135.791107 88.0 
135.852829 60.0 
135.892685 116.0 
135.905411 52.0 
135.925919 172.0 
135.987671 124.0 
136.039169 72864.0 
136.077011 448.0 
136.09906 160.0 
136.119308 2576.0 
136.143265 52.0 
136.184418 124.0 
136.22847 128.0 
136.266846 68.0 
136.289703 120.0 
136.346939 136.0 
136.36528 84.0 
136.41568 64.0 
136.479813 72.0 
136.500443 52.0 
136.539368 80.0 
136.576035 76.0 
136.651672 76.0 
136.684296 148.0 
136.908539 76.0 
136.938354 112.0 
136.952133 104.0 
136.977386 68.0 
136.995697 176.0 
137.007233 64.0 
137.041931 4696.0 
137.05899 3288.0 
137.096115 5932.0 
137.132507 13056.0 
137.165649 72.0 
137.199234 120.0 
137.296585 88.0 
137.379318 76.0 
137.457413 248.0 
137.514938 108.0 
137.542587 52.0 
137.754211 96.0 
137.797958 76.0 
137.866989 156.0 
137.884308 52.0 
137.899246 116.0 
137.924576 100.0 
137.943039 60.0 
137.954544 60.0 
137.971741 140.0 
138.005188 108.0 
138.019348 516.0 
138.043503 504.0 
138.055084 2172.0 
138.075974 240.0 
138.09462 564.0 
138.136124 1216.0 
138.189529 152.0 
138.21489 136.0 
138.22876 80.0 
138.273178 88.0 
138.325577 140.0 
138.38327 88.0 
138.417847 124.0 
138.50325 84.0 
138.662537 88.0 
138.681015 68.0 
138.967514 76.0 
139.006805 96.0 
139.020676 92.0 
139.056305 248.0 
139.075958 3556.0 
139.086624 12040.0 
139.111465 4904.0 
139.147415 4840.0 
139.272827 80.0 
139.393188 80.0 
139.511261 136.0 
139.826477 80.0 
139.926224 52.0 
139.981888 72.0 
140.002777 68.0 
140.033813 792.0 
140.071136 5736.0 
140.08728 1068.0 
140.115509 452.0 
140.150604 260.0 
140.198532 92.0 
140.211685 60.0 
140.367264 136.0 
140.399811 84.0 
140.499695 188.0 
140.578766 108.0 
140.653168 160.0 
140.755554 80.0 
140.953369 96.0 
141.036697 280.0 
141.056488 168.0 
141.075287 784.0 
141.091431 5172.0 
141.126923 748.0 
141.14035 136.0 
141.162842 836.0 
141.356445 64.0 
141.428726 64.0 
141.727341 164.0 
141.832474 52.0 
141.998306 108.0 
142.049973 300.0 
142.086029 2336.0 
142.126999 104.0 
142.13855 100.0 
142.168518 188.0 
142.412247 52.0 
142.519867 116.0 
142.606537 72.0 
142.819687 120.0 
142.9133 52.0 
143.053192 140.0 
143.072388 264.0 
143.089203 412.0 
143.107025 320.0 
143.144714 608.0 
143.295807 132.0 
143.68338 156.0 
143.944473 64.0 
144.067459 148.0 
144.081009 120.0 
144.092697 104.0 
144.103867 128.0 
144.144516 64.0 
144.464874 92.0 
144.592148 160.0 
144.712433 144.0 
144.728958 124.0 
145.007462 136.0 
145.061066 156.0 
145.065536 116.0 
145.087784 84.0 
145.101288 404.0 
145.130295 120.0 
145.674164 88.0 
145.759354 148.0 
145.951187 160.0 
146.034088 248.0 
146.0448 228.0 
146.062561 128.0 
146.084076 140.0 
146.098129 96.0 
146.387451 100.0 
146.484741 88.0 
146.591537 156.0 
146.905121 128.0 
146.943146 124.0 
147.00975 60.0 
147.057266 128.0 
147.07663 13252.0 
147.117142 5056.0 
147.159531 144.0 
147.219055 72.0 
147.259491 104.0 
147.285629 168.0 
147.327438 88.0 
147.661911 124.0 
147.733414 104.0 
148.036087 144.0 
148.061508 752.0 
148.080338 864.0 
148.107864 100.0 
148.120361 1032.0 
148.291718 60.0 
148.432602 116.0 
148.540131 120.0 
148.633362 104.0 
148.678818 56.0 
148.767258 124.0 
148.784012 96.0 
148.822281 124.0 
148.862976 76.0 
148.939499 172.0 
149.070633 1584.0 
149.08371 284.0 
149.096481 848.0 
149.132599 15304.0 
149.193298 140.0 
149.260406 76.0 
149.531281 56.0 
149.780746 72.0 
149.867142 112.0 
149.89595 96.0 
149.99678 156.0 
150.054733 572.0 
150.072449 232.0 
150.093216 376.0 
150.13475 1808.0 
150.667633 80.0 
150.70134 76.0 
150.749481 76.0 
150.826492 204.0 
151.049667 7016.0 
151.0755 3576.0 
151.111664 4612.0 
151.14772 8996.0 
151.175949 80.0 
151.318253 68.0 
151.487137 88.0 
151.532974 120.0 
151.610214 152.0 
151.624725 120.0 
151.815598 52.0 
151.987183 60.0 
152.040192 160.0 
152.051666 812.0 
152.071838 1692.0 
152.114044 396.0 
152.137054 132.0 
152.152191 812.0 
152.749619 124.0 
152.783569 88.0 
152.86116 80.0 
152.916946 60.0 
152.926636 68.0 
152.967834 96.0 
152.999374 100.0 
153.065933 24312.0 
153.090775 928.0 
153.127029 2800.0 
153.163345 1972.0 
153.191086 52.0 
153.220215 56.0 
153.237183 76.0 
153.58606 124.0 
153.628281 60.0 
153.803314 68.0 
153.832474 128.0 
153.893845 144.0 
154.050812 2352.0 
154.069 1932.0 
154.085983 2128.0 
154.125259 148.0 
154.166138 260.0 
154.29007 120.0 
154.419205 88.0 
154.472794 156.0 
154.767899 56.0 
154.811768 112.0 
154.853287 68.0 
154.894745 92.0 
154.994858 64.0 
155.044159 592.0 
155.07338 292.0 
155.083817 412.0 
155.106293 2072.0 
155.141922 1204.0 
155.180267 676.0 
155.273254 116.0 
155.380798 96.0 
155.556854 88.0 
155.581329 68.0 
155.630249 80.0 
156.004761 84.0 
156.027588 208.0 
156.037659 92.0 
156.064514 972.0 
156.099762 632.0 
156.154587 140.0 
156.180527 308.0 
156.203247 52.0 
156.266968 60.0 
156.301285 60.0 
156.372375 72.0 
156.384644 72.0 
156.600525 60.0 
156.811615 96.0 
156.93689 68.0 
157.060196 440.0 
157.096802 11332.0 
157.119537 284.0 
157.158508 544.0 
157.186462 80.0 
157.289597 84.0 
157.340027 76.0 
157.549149 136.0 
157.595947 72.0 
157.625488 80.0 
157.778122 196.0 
158.012238 108.0 
158.022125 76.0 
158.044403 12816.0 
158.080948 11928.0 
158.12323 52.0 
158.140457 100.0 
158.151276 84.0 
158.164093 76.0 
158.18486 68.0 
158.278595 68.0 
158.339386 120.0 
158.399506 72.0 
158.433426 56.0 
158.45874 80.0 
158.811935 68.0 
159.048218 1252.0 
159.08313 1372.0 
159.112595 440.0 
159.14325 72.0 
159.170456 84.0 
159.271896 112.0 
159.566513 144.0 
159.970581 68.0 
160.007782 88.0 
160.049789 104.0 
160.057404 168.0 
160.075974 152.0 
160.093582 240.0 
160.1259 80.0 
160.206284 88.0 
160.491867 56.0 
160.852264 96.0 
160.994034 140.0 
161.035004 108.0 
161.074539 224.0 
161.092087 328.0 
161.102951 280.0 
161.131485 3480.0 
161.561859 88.0 
161.596786 56.0 
162.090652 444.0 
162.130508 348.0 
162.140076 532.0 
162.155624 92.0 
162.542923 80.0 
162.725494 72.0 
162.935699 52.0 
162.945663 116.0 
163.0513 608.0 
163.084839 208.0 
163.089478 380.0 
163.112381 764.0 
163.147949 8220.0 
163.183609 56.0 
163.193573 116.0 
163.260971 72.0 
163.27124 132.0 
163.296341 68.0 
163.674896 140.0 
163.843033 132.0 
163.853104 96.0 
164.033829 196.0 
164.061798 132.0 
164.073502 432.0 
164.0858 216.0 
164.108215 380.0 
164.1521 980.0 
164.257492 88.0 
164.496307 116.0 
164.53656 112.0 
164.614517 172.0 
164.652283 120.0 
164.705139 100.0 
164.750458 92.0 
164.770584 88.0 
165.063507 272.0 
165.090652 1352.0 
165.127151 2880.0 
165.16333 5568.0 
165.191208 124.0 
165.223984 92.0 
165.294571 100.0 
165.375259 88.0 
165.438354 52.0 
165.536682 128.0 
165.559372 172.0 
165.622482 104.0 
165.930527 88.0 
166.034119 76.0 
166.049271 80.0 
166.059341 164.0 
166.09079 588.0 
166.119171 288.0 
166.130249 448.0 
166.150299 248.0 
166.16803 972.0 
166.195862 100.0 
166.216095 76.0 
166.236298 104.0 
166.304565 136.0 
166.370361 68.0 
166.388016 160.0 
166.403229 84.0 
166.438629 112.0 
166.451294 96.0 
166.471527 96.0 
166.514557 72.0 
166.544922 84.0 
166.572769 76.0 
166.590485 76.0 
166.613266 68.0 
166.623367 96.0 
166.636047 72.0 
166.646149 92.0 
166.711945 156.0 
166.739777 204.0 
166.787964 76.0 
166.808212 80.0 
166.823441 52.0 
166.837051 88.0 
166.84874 76.0 
166.86142 64.0 
166.876602 96.0 
166.918442 100.0 
166.932358 68.0 
166.953629 80.0 
166.960846 96.0 
166.9823 112.0 
167.016418 164.0 
167.03923 132.0 
167.056473 160.0 
167.081879 296916.0 
167.118713 220.0 
167.128586 380.0 
167.142914 976.0 
167.156143 156.0 
167.180191 1492.0 
167.204483 56.0 
167.228928 56.0 
167.257645 88.0 
167.291611 68.0 
167.304977 332.0 
167.319946 124.0 
167.345566 100.0 
167.377045 64.0 
167.385452 96.0 
167.414093 64.0 
167.451553 68.0 
167.468124 136.0 
167.498306 56.0 
167.535889 88.0 
167.56633 120.0 
167.585693 56.0 
167.601852 148.0 
167.622223 56.0 
167.638138 60.0 
167.687592 80.0 
167.734467 172.0 
167.794098 176.0 
167.813782 72.0 
167.850754 104.0 
167.859344 68.0 
167.872253 80.0 
167.901596 84.0 
167.932083 80.0 
167.94986 96.0 
167.985443 96.0 
167.998123 136.0 
168.024979 72.0 
168.066483 3088.0 
168.084473 23176.0 
168.110519 400.0 
168.132874 124.0 
168.147415 144.0 
168.161728 80.0 
168.184891 72.0 
168.191635 144.0 
168.262619 68.0 
168.308838 108.0 
168.487259 96.0 
168.506912 64.0 
168.557816 72.0 
168.578644 88.0 
168.766586 172.0 
168.837967 100.0 
168.886368 124.0 
168.896576 96.0 
168.920364 172.0 
169.003601 140.0 
169.039337 68.0 
169.07106 432.0 
169.087112 1640.0 
169.12146 440.0 
169.141296 132.0 
169.158646 848.0 
169.184662 120.0 
169.200485 172.0 
169.213638 108.0 
169.222931 116.0 
169.238266 68.0 
169.256119 72.0 
169.268814 172.0 
169.331802 80.0 
169.346588 68.0 
169.410095 92.0 
169.741196 72.0 
169.917557 52.0 
170.045349 88.0 
170.080978 4340.0 
170.116806 232.0 
170.161255 236.0 
170.191879 120.0 
170.203918 108.0 
170.275574 92.0 
170.342133 60.0 
170.418915 68.0 
170.488052 52.0 
170.79538 148.0 
170.832474 68.0 
170.977402 116.0 
171.081833 956.0 
171.104935 152.0 
171.136444 172.0 
171.171158 356.0 
171.208282 88.0 
171.385406 52.0 
171.457291 52.0 
171.521423 152.0 
171.624222 60.0 
172.077744 100.0 
172.094833 344.0 
172.135788 116.0 
172.305649 96.0 
172.552856 104.0 
172.985901 80.0 
173.055817 2324.0 
173.082153 236.0 
173.095352 176.0 
173.114883 80.0 
173.131775 276.0 
173.33429 52.0 
173.763077 104.0 
173.979416 76.0 
174.0383 336.0 
174.060913 280.0 
174.109619 128.0 
174.140701 84.0 
174.456543 92.0 
174.518723 72.0 
174.700119 60.0 
174.801163 152.0 
174.94902 76.0 
175.029419 104.0 
175.042374 140.0 
175.052765 100.0 
175.113373 348.0 
175.147263 2484.0 
175.187698 120.0 
175.221481 60.0 
175.470749 80.0 
175.707199 112.0 
175.951675 52.0 
176.053986 404.0 
176.068695 116.0 
176.106323 268.0 
176.117233 140.0 
176.151108 340.0 
176.21402 128.0 
176.253525 68.0 
176.279556 60.0 
176.399323 88.0 
176.667709 60.0 
176.897095 140.0 
176.91803 52.0 
176.936218 160.0 
177.063477 344.0 
177.09053 620.0 
177.105316 228.0 
177.125351 304.0 
177.135666 136.0 
177.163818 5768.0 
177.225891 128.0 
177.348602 120.0 
177.81636 136.0 
177.936691 96.0 
178.015167 104.0 
178.049194 84.0 
178.08316 192.0 
178.095474 212.0 
178.12146 112.0 
178.130249 256.0 
178.168869 956.0 
178.245483 120.0 
178.324036 120.0 
178.583389 96.0 
178.77475 76.0 
178.911118 84.0 
178.945206 100.0 
178.97403 164.0 
179.000305 92.0 
179.04509 9112.0 
179.081665 9400.0 
179.107132 692.0 
179.144119 1620.0 
179.179703 4748.0 
179.228653 68.0 
179.265411 56.0 
179.302139 96.0 
179.330994 164.0 
179.349411 92.0 
179.396698 76.0 
179.499161 68.0 
179.606827 152.0 
179.630508 124.0 
179.704102 120.0 
179.974594 124.0 
180.009918 56.0 
180.030243 92.0 
180.048203 888.0 
180.065628 436.0 
180.085678 1096.0 
180.101349 1192.0 
180.113129 1324.0 
180.143341 304.0 
180.165848 180.0 
180.182159 1388.0 
180.359299 64.0 
180.427765 80.0 
180.786148 124.0 
180.894272 116.0 
180.907471 104.0 
180.964523 80.0 
181.05162 132.0 
181.068695 412.0 
181.09845 688.0 
181.120682 588.0 
181.158371 1712.0 
181.194199 880.0 
181.229431 64.0 
181.374619 92.0 
181.385208 72.0 
181.395798 52.0 
181.852982 68.0 
182.081558 124.0 
182.09317 268.0 
182.116486 632.0 
182.128601 264.0 
182.16188 448.0 
182.188492 120.0 
182.204834 96.0 
182.215408 124.0 
182.403442 60.0 
182.618042 56.0 
182.745255 60.0 
182.755844 68.0 
182.832672 176.0 
182.906982 72.0 
183.069595 216.0 
183.080154 312.0 
183.097961 88.0 
183.112488 140.0 
183.13385 220.0 
183.174576 1112.0 
183.368759 52.0 
183.41655 60.0 
183.443085 84.0 
183.599854 56.0 
183.679565 64.0 
183.69545 164.0 
183.772583 80.0 
183.809799 80.0 
183.84967 96.0 
183.937408 108.0 
183.952164 80.0 
183.977325 80.0 
183.990601 116.0 
184.059723 200.0 
184.073105 64.0 
184.100693 728.0 
184.124939 136.0 
184.142578 156.0 
184.158203 136.0 
184.172119 76.0 
184.18483 116.0 
184.208801 80.0 
184.219345 336.0 
184.263046 228.0 
184.28067 88.0 
184.32196 92.0 
184.375183 96.0 
184.389816 112.0 
184.400482 80.0 
184.413803 80.0 
184.445755 80.0 
184.461548 132.0 
184.483795 272.0 
184.52298 96.0 
184.53363 120.0 
184.546982 76.0 
184.560318 52.0 
184.570938 92.0 
184.583878 116.0 
184.601669 200.0 
184.636444 128.0 
184.666855 112.0 
184.677505 108.0 
184.688202 72.0 
184.698822 128.0 
184.714844 84.0 
184.73349 92.0 
184.74678 160.0 
184.776169 60.0 
184.793381 64.0 
184.822968 164.0 
184.832184 120.0 
184.848663 96.0 
184.85704 164.0 
184.881805 148.0 
184.890778 336.0 
184.911346 208.0 
184.962799 60.0 
184.976456 116.0 
185.023483 80.0 
185.092606 585356.0 
185.12645 392.0 
185.156464 444.0 
185.185165 540.0 
185.194519 400.0 
185.217209 140.0 
185.230804 160.0 
185.246658 104.0 
185.257965 64.0 
185.272888 184.0 
185.295822 108.0 
185.318237 252.0 
185.333023 300.0 
185.363541 248.0 
185.390625 128.0 
185.409195 236.0 
185.440598 168.0 
185.455475 84.0 
185.464691 136.0 
185.488174 120.0 
185.502777 160.0 
185.532791 952.0 
185.551376 180.0 
185.572922 92.0 
185.595383 104.0 
185.607651 88.0 
185.632812 68.0 
185.642807 68.0 
185.662186 84.0 
185.691544 128.0 
185.714859 100.0 
185.745026 76.0 
185.769104 64.0 
185.790451 108.0 
185.810318 84.0 
185.822525 108.0 
185.865341 60.0 
185.891922 80.0 
185.913437 88.0 
185.925613 52.0 
185.936371 52.0 
185.948151 148.0 
185.961594 56.0 
186.002457 108.0 
186.012695 112.0 
186.047165 72.0 
186.07785 3168.0 
186.095001 47084.0 
186.136383 100.0 
186.15683 80.0 
186.16954 192.0 
186.190247 328.0 
186.223709 104.0 
186.236328 136.0 
186.301331 92.0 
186.317429 56.0 
186.340363 88.0 
186.359695 80.0 
186.386978 112.0 
186.492844 76.0 
186.528885 148.0 
186.559158 52.0 
186.57373 100.0 
186.600174 52.0 
186.767349 92.0 
186.799469 160.0 
186.810211 128.0 
186.866562 52.0 
186.898682 112.0 
186.965729 80.0 
187.019379 68.0 
187.039673 112.0 
187.096466 5204.0 
187.146606 64.0 
187.165497 104.0 
187.178955 192.0 
187.23172 164.0 
187.282242 100.0 
187.297974 108.0 
187.331299 140.0 
187.344116 140.0 
187.360123 52.0 
187.400314 140.0 
187.423843 116.0 
187.438431 176.0 
187.459396 112.0 
187.47644 72.0 
187.488007 104.0 
187.500809 140.0 
187.549698 56.0 
187.564178 60.0 
187.575577 260.0 
187.658127 132.0 
187.66893 56.0 
187.956482 60.0 
188.021011 64.0 
188.03447 52.0 
188.085129 220.0 
188.097733 260.0 
188.201157 128.0 
188.284546 140.0 
188.411057 116.0 
188.421875 56.0 
188.465683 72.0 
189.064041 264.0 
189.111496 216.0 
189.125366 240.0 
189.163528 1904.0 
189.19519 76.0 
189.951172 92.0 
190.061981 120.0 
190.101532 140.0 
190.124146 136.0 
190.166016 312.0 
190.235031 140.0 
190.50563 84.0 
190.546204 112.0 
190.72496 52.0 
190.81163 60.0 
191.080231 96.0 
191.099747 116.0 
191.112366 132.0 
191.138565 224.0 
191.180298 4180.0 
191.236374 124.0 
191.391754 60.0 
191.413422 88.0 
191.524658 108.0 
191.608841 60.0 
191.665802 116.0 
192.089539 136.0 
192.103683 336.0 
192.181137 564.0 
192.832275 68.0 
193.060074 372.0 
193.080154 72.0 
193.121063 776.0 
193.157089 1456.0 
193.19516 3160.0 
193.467255 100.0 
193.849274 160.0 
194.077438 76.0 
194.095047 216.0 
194.120667 304.0 
194.161697 324.0 
194.201523 472.0 
194.264557 72.0 
194.352005 96.0 
194.376617 92.0 
194.628265 52.0 
194.704849 72.0 
194.942947 112.0 
195.077087 1668.0 
195.10173 212.0 
195.121353 176.0 
195.142883 248.0 
195.173752 1336.0 
195.20961 236.0 
195.258835 132.0 
196.058914 80.0 
196.079956 308.0 
196.108871 292.0 
196.137115 196.0 
196.168381 236.0 
196.178375 232.0 
196.196198 128.0 
196.20723 64.0 
196.242935 76.0 
196.366547 96.0 
196.432526 72.0 
196.787216 88.0 
196.842255 68.0 
196.905502 116.0 
197.029373 76.0 
197.043137 76.0 
197.091309 2568.0 
197.109467 336.0 
197.135559 124.0 
197.150894 264.0 
197.18988 2384.0 
197.241379 76.0 
197.345978 208.0 
197.398346 160.0 
197.447968 104.0 
197.897385 80.0 
198.024246 172.0 
198.04364 68.0 
198.075729 256.0 
198.098938 768.0 
198.111206 376.0 
198.122406 156.0 
198.152359 128.0 
198.176071 140.0 
198.194321 436.0 
198.225769 124.0 
198.245117 92.0 
198.42186 104.0 
198.71196 196.0 
198.823776 188.0 
199.010651 124.0 
199.072342 492.0 
199.09642 124.0 
199.122147 108.0 
199.149017 96.0 
199.169037 236.0 
199.190491 140.0 
199.205261 380.0 
199.23204 92.0 
199.25145 56.0 
199.281876 88.0 
199.342773 100.0 
199.444107 56.0 
199.608582 228.0 
199.653015 72.0 
199.824799 116.0 
199.949539 164.0 
200.06601 188.0 
200.165924 92.0 
200.213074 112.0 
200.53508 108.0 
200.943542 56.0 
201.088272 340.0 
201.124268 60.0 
201.136566 116.0 
201.157623 84.0 
201.170212 112.0 
201.388489 132.0 
201.421936 76.0 
201.494278 104.0 
201.990036 136.0 
202.082062 80.0 
202.095963 120.0 
202.522751 84.0 
202.656693 132.0 
202.927628 56.0 
203.011429 64.0 
203.117584 92.0 
203.142212 160.0 
203.179749 2476.0 
203.514648 88.0 
203.551025 76.0 
203.926117 60.0 
204.007294 112.0 
204.102539 96.0 
204.137009 128.0 
204.182785 460.0 
204.489349 84.0 
205.058609 156.0 
205.109512 120.0 
205.156998 152.0 
205.193787 2320.0 
205.24437 96.0 
205.449478 136.0 
205.556335 76.0 
205.696899 128.0 
206.093811 1216.0 
206.119049 64.0 
206.135864 152.0 
206.159958 116.0 
206.190613 104.0 
206.20787 132.0 
206.356979 96.0 
206.383759 72.0 
206.45697 124.0 
206.524673 52.0 
206.572266 144.0 
206.83757 72.0 
206.848785 168.0 
206.967285 124.0 
207.054749 128.0 
207.075684 9676.0 
207.119629 164.0 
207.132706 456.0 
207.140564 288.0 
207.173172 1240.0 
207.210358 2580.0 
207.232468 396.0 
207.882385 76.0 
207.904953 148.0 
208.05722 124.0 
208.077347 1556.0 
208.111298 412.0 
208.137619 220.0 
208.178101 440.0 
208.213165 388.0 
208.230209 116.0 
208.26709 68.0 
208.360458 108.0 
208.524643 132.0 
209.000671 96.0 
209.065887 88.0 
209.080933 224.0 
209.092209 252.0 
209.112396 152.0 
209.152359 244.0 
209.191238 1304.0 
209.230621 344.0 
209.360901 64.0 
209.451721 56.0 
209.540649 60.0 
209.783875 84.0 
210.092819 232.0 
210.119141 92.0 
210.173172 72.0 
210.190857 344.0 
210.218231 148.0 
210.690887 96.0 
211.069214 232.0 
211.110886 136.0 
211.157867 280.0 
211.167145 268.0 
211.176834 192.0 
211.204697 560.0 
211.266281 68.0 
211.962265 152.0 
211.982239 148.0 
212.01944 60.0 
212.033676 92.0 
212.076019 168.0 
212.091278 108.0 
212.131393 228.0 
212.210526 100.0 
212.219971 204.0 
212.232666 344.0 
212.247925 60.0 
213.042862 88.0 
213.054352 56.0 
213.089523 244.0 
213.125885 72.0 
213.166855 176.0 
213.190384 112.0 
213.211777 76.0 
213.240417 72.0 
213.343475 124.0 
214.118515 264.0 
214.212234 124.0 
214.275391 104.0 
214.536667 132.0 
215.062622 124.0 
215.099106 236.0 
215.130264 88.0 
215.174118 160.0 
215.678482 120.0 
216.099213 64.0 
216.243286 168.0 
216.872437 96.0 
217.03418 100.0 
217.054367 136.0 
217.079315 804.0 
217.100616 120.0 
217.120834 132.0 
217.157104 332.0 
217.193848 1708.0 
217.300064 76.0 
217.511093 140.0 
217.612335 124.0 
217.69046 108.0 
217.722275 124.0 
217.780182 84.0 
218.08551 212.0 
218.098892 136.0 
218.147842 100.0 
218.168106 112.0 
218.204178 292.0 
218.237854 108.0 
218.518768 64.0 
219.008881 132.0 
219.130783 140.0 
219.174591 100.0 
219.211609 2340.0 
219.23233 324.0 
219.302094 116.0 
219.354446 52.0 
219.464722 164.0 
220.127609 112.0 
220.21431 388.0 
220.954727 56.0 
221.095581 244.0 
221.133148 128.0 
221.15329 324.0 
221.165726 256.0 
221.189484 1968.0 
221.227829 1820.0 
221.698624 96.0 
221.751221 56.0 
221.943954 84.0 
222.089584 508.0 
222.112961 100.0 
222.136795 116.0 
222.152786 92.0 
222.190826 312.0 
222.207047 112.0 
222.234375 420.0 
222.923737 76.0 
222.97934 96.0 
223.002777 80.0 
223.072083 1680.0 
223.111923 180.0 
223.142654 696.0 
223.169159 388.0 
223.207077 492.0 
223.231171 212.0 
223.272186 224.0 
223.304474 128.0 
223.533173 52.0 
223.741318 112.0 
223.893936 60.0 
223.990753 72.0 
224.073929 516.0 
224.100769 1892.0 
224.148483 724.0 
224.199097 204.0 
224.209534 132.0 
224.235001 420.0 
224.322479 108.0 
224.525208 92.0 
224.633957 64.0 
224.701569 68.0 
224.816193 100.0 
224.869934 172.0 
225.054428 88.0 
225.087128 6516.0 
225.148499 224.0 
225.160309 140.0 
225.189224 500.0 
225.212265 248.0 
225.239731 192.0 
225.453659 80.0 
225.59314 56.0 
225.628433 104.0 
225.725677 68.0 
225.740433 56.0 
225.902496 68.0 
226.087585 740.0 
226.108856 64.0 
226.144196 112.0 
226.163116 112.0 
226.194687 120.0 
226.222488 84.0 
226.232651 148.0 
226.249695 216.0 
226.268097 80.0 
226.362534 52.0 
226.380188 100.0 
226.572052 56.0 
226.601501 144.0 
226.864304 128.0 
226.976608 72.0 
226.988342 188.0 
227.074081 100.0 
227.085876 132.0 
227.099487 120.0 
227.177521 104.0 
227.195938 376.0 
227.221848 104.0 
227.236618 116.0 
227.26619 104.0 
227.47319 96.0 
227.55307 72.0 
227.775009 56.0 
227.848938 128.0 
228.062149 84.0 
228.100632 96.0 
228.209259 80.0 
228.731888 112.0 
229.08989 120.0 
229.117508 364.0 
229.197754 116.0 
229.251251 64.0 
229.518524 84.0 
229.604675 92.0 
230.008972 84.0 
230.098206 80.0 
230.401672 152.0 
230.905029 100.0 
231.112885 136.0 
231.12851 172.0 
231.173279 108.0 
231.207596 1300.0 
231.411896 80.0 
231.432724 132.0 
231.453629 112.0 
231.522308 60.0 
232.194077 136.0 
232.212646 336.0 
232.280777 88.0 
233.049561 52.0 
233.092789 120.0 
233.152588 100.0 
233.191193 800.0 
233.226074 4056.0 
233.307022 108.0 
233.549164 144.0 
233.807449 192.0 
233.825546 56.0 
233.858521 60.0 
233.882629 132.0 
233.954483 76.0 
234.08873 308.0 
234.109268 128.0 
234.123108 140.0 
234.136581 156.0 
234.161407 196.0 
234.188889 260.0 
234.230164 668.0 
234.257553 56.0 
234.272507 92.0 
234.410614 76.0 
234.572723 124.0 
234.602798 80.0 
235.069244 152.0 
235.101654 96.0 
235.114395 116.0 
235.13768 160.0 
235.163391 312.0 
235.174805 232.0 
235.204803 2160.0 
235.241577 3724.0 
235.288116 92.0 
235.441544 96.0 
235.525803 92.0 
235.676315 80.0 
235.808807 72.0 
235.875015 108.0 
235.980469 80.0 
235.992554 52.0 
236.055786 76.0 
236.070847 76.0 
236.112671 124.0 
236.130386 84.0 
236.141083 144.0 
236.160675 208.0 
236.207932 404.0 
236.245056 984.0 
236.396408 52.0 
236.441559 108.0 
237.051056 112.0 
237.093338 88.0 
237.140747 108.0 
237.18251 196.0 
237.222305 1544.0 
237.259628 332.0 
237.463135 68.0 
237.594879 60.0 
237.724808 120.0 
237.815506 148.0 
237.848755 176.0 
238.176895 104.0 
238.222458 268.0 
238.253021 424.0 
238.508621 52.0 
239.069153 116.0 
239.101364 128.0 
239.123886 268.0 
239.201233 572.0 
239.240906 472.0 
239.277283 216.0 
239.29364 56.0 
239.323929 92.0 
239.703278 104.0 
240.097305 300.0 
240.163452 84.0 
240.20462 100.0 
240.241028 432.0 
240.272446 128.0 
240.468964 124.0 
241.101944 68.0 
241.162842 80.0 
241.199371 96.0 
241.216278 104.0 
241.242004 92.0 
241.510086 116.0 
241.644226 88.0 
241.665543 120.0 
241.766205 60.0 
241.824081 120.0 
242.00708 124.0 
242.031525 92.0 
242.113464 3304.0 
242.199295 140.0 
242.50769 84.0 
242.877274 156.0 
243.045456 80.0 
243.074814 144.0 
243.10733 204.0 
243.123871 188.0 
243.173859 88.0 
243.210495 164.0 
243.222748 136.0 
243.320618 148.0 
243.669479 112.0 
243.770523 104.0 
243.994064 108.0 
244.064514 120.0 
244.11293 120.0 
244.171814 64.0 
244.214706 72.0 
244.530426 96.0 
244.748215 80.0 
245.064346 52.0 
245.101089 140.0 
245.127792 100.0 
245.144073 144.0 
245.185944 96.0 
245.202789 128.0 
245.226501 496.0 
245.248474 132.0 
245.457443 52.0 
245.706268 132.0 
246.09993 76.0 
246.19838 84.0 
246.210663 100.0 
246.231369 244.0 
246.321457 100.0 
246.604645 144.0 
246.752579 56.0 
246.771027 80.0 
246.877808 96.0 
247.089722 528.0 
247.116089 168.0 
247.162323 196.0 
247.18399 72.0 
247.200516 88.0 
247.241211 20816.0 
247.335052 104.0 
247.472565 68.0 
247.526276 144.0 
247.551697 72.0 
247.578659 296.0 
247.626526 68.0 
247.717636 88.0 
247.834946 76.0 
248.15921 72.0 
248.214752 140.0 
248.243118 3748.0 
248.28273 136.0 
248.34462 52.0 
248.455811 120.0 
248.483704 60.0 
248.557907 52.0 
248.585709 64.0 
248.641388 52.0 
248.771225 84.0 
248.870178 128.0 
248.904251 80.0 
249.108429 128.0 
249.127975 176.0 
249.18248 464.0 
249.219162 2028.0 
249.256943 16756.0 
249.33754 112.0 
249.455231 92.0 
249.503799 64.0 
249.585342 92.0 
249.607025 84.0 
249.664551 60.0 
249.678284 88.0 
249.836304 128.0 
250.082031 1204.0 
250.116501 84.0 
250.130844 136.0 
250.186096 112.0 
250.195496 304.0 
250.226929 380.0 
250.260529 3112.0 
250.301498 92.0 
250.360489 60.0 
250.3759 176.0 
250.434875 140.0 
250.447281 160.0 
250.56839 80.0 
250.618042 96.0 
250.978287 92.0 
250.993866 56.0 
251.015549 116.0 
251.056366 140.0 
251.082031 448.0 
251.126038 432.0 
251.147537 316.0 
251.183395 68.0 
251.203171 264.0 
251.236694 1088.0 
251.260635 264.0 
251.310791 108.0 
251.534622 188.0 
251.83815 116.0 
251.867615 68.0 
251.901779 140.0 
251.964096 68.0 
251.998322 84.0 
252.034958 148.0 
252.048126 84.0 
252.098892 220.0 
252.138489 124.0 
252.175797 72.0 
252.190414 116.0 
252.216217 152.0 
252.240585 468.0 
252.259796 196.0 
252.350189 100.0 
252.845657 220.0 
253.048462 100.0 
253.080902 2228.0 
253.118576 136.0 
253.148361 52.0 
253.18573 104.0 
253.199036 224.0 
253.213608 288.0 
253.251358 2860.0 
253.294937 120.0 
253.432358 56.0 
253.469818 60.0 
253.541534 164.0 
253.810226 68.0 
253.89772 56.0 
253.917725 104.0 
254.081711 308.0 
254.166504 64.0 
254.178925 160.0 
254.207108 96.0 
254.226135 112.0 
254.254868 624.0 
254.391602 96.0 
254.432297 76.0 
254.679474 64.0 
254.691956 92.0 
254.864166 60.0 
255.058945 212.0 
255.084305 284.0 
255.130264 116.0 
255.221146 80.0 
255.254211 96.0 
255.797897 92.0 
255.967255 120.0 
256.02063 88.0 
256.190094 100.0 
256.265472 56.0 
256.701996 68.0 
256.723938 112.0 
257.074829 176.0 
257.116211 120.0 
257.176636 80.0 
257.220612 112.0 
257.252045 136.0 
257.532104 84.0 
257.573029 72.0 
258.127167 168.0 
258.146149 76.0 
258.236359 108.0 
258.300476 136.0 
258.470734 112.0 
259.107117 120.0 
259.164825 76.0 
259.202637 136.0 
259.237 396.0 
259.411041 160.0 
259.540619 96.0 
259.941986 96.0 
260.059021 68.0 
260.115845 192.0 
260.150696 100.0 
260.204468 88.0 
260.22345 80.0 
260.243774 132.0 
260.580261 136.0 
260.745697 64.0 
261.090912 104.0 
261.123749 176.0 
261.185944 144.0 
261.218445 540.0 
261.257935 844.0 
261.290558 128.0 
261.303284 88.0 
261.436432 92.0 
261.787354 124.0 
262.092285 164.0 
262.153717 96.0 
262.17572 112.0 
262.213745 220.0 
262.256165 292.0 
262.589111 88.0 
262.642639 144.0 
262.686157 120.0 
262.855652 112.0 
263.086975 104.0 
263.108459 84.0 
263.127808 104.0 
263.141907 76.0 
263.154572 124.0 
263.198639 660.0 
263.2341 2316.0 
263.273529 9168.0 
263.332794 88.0 
263.364563 160.0 
263.552368 112.0 
263.619263 104.0 
263.644745 92.0 
263.676605 68.0 
263.702057 88.0 
263.800812 56.0 
263.870819 132.0 
263.896301 112.0 
263.960083 76.0 
264.071564 108.0 
264.170532 80.0 
264.200256 212.0 
264.234283 660.0 
264.27536 2012.0 
264.323334 156.0 
264.358459 76.0 
264.517914 72.0 
264.556183 76.0 
264.575317 92.0 
264.626312 128.0 
264.661407 140.0 
264.737915 200.0 
264.77951 68.0 
264.815613 120.0 
264.887787 64.0 
264.961395 100.0 
265.060394 72.0 
265.079529 76.0 
265.117859 84.0 
265.181702 92.0 
265.197693 72.0 
265.214722 84.0 
265.252563 33384.0 
265.305023 176.0 
265.322144 188.0 
265.33783 156.0 
265.392548 52.0 
265.41803 112.0 
265.4935 80.0 
265.569824 96.0 
265.67688 100.0 
265.702484 80.0 
265.715332 52.0 
265.734467 64.0 
265.824829 100.0 
265.843201 52.0 
266.003052 84.0 
266.111664 276.0 
266.134186 92.0 
266.156616 52.0 
266.189819 60.0 
266.20993 172.0 
266.255219 6300.0 
266.285767 748.0 
266.340851 184.0 
266.463776 88.0 
266.553406 96.0 
266.819275 60.0 
266.864044 112.0 
266.963409 80.0 
267.003082 72.0 
267.107635 68.0 
267.134705 120.0 
267.203735 96.0 
267.228119 212.0 
267.268616 4572.0 
267.300079 268.0 
267.662292 148.0 
267.98645 92.0 
268.008911 120.0 
268.089996 1412.0 
268.130005 104.0 
268.166321 60.0 
268.182281 128.0 
268.226074 196.0 
268.271118 780.0 
268.295044 544.0 
268.380066 88.0 
268.500397 60.0 
268.9086 88.0 
268.950409 88.0 
269.10141 72.0 
269.136963 80.0 
269.178772 92.0 
269.198059 104.0 
269.260956 80.0 
269.276489 116.0 
269.294739 96.0 
269.397583 116.0 
269.510223 132.0 
269.632538 176.0 
269.877411 76.0 
269.899963 68.0 
269.970856 60.0 
270.089966 208.0 
270.115906 52.0 
270.170624 96.0 
270.196411 84.0 
270.20932 92.0 
270.228668 80.0 
270.476959 68.0 
270.605865 180.0 
270.683441 52.0 
271.085632 148.0 
271.148193 76.0 
271.241241 396.0 
271.532593 72.0 
271.859039 88.0 
272.014191 168.0 
272.124268 68.0 
272.137207 56.0 
272.218018 120.0 
272.24231 212.0 
272.273041 100.0 
272.315094 116.0 
272.42514 104.0 
272.530029 68.0 
272.933594 52.0 
273.014526 108.0 
273.118286 64.0 
273.19278 108.0 
273.221893 188.0 
273.256958 24832.0 
273.325653 132.0 
273.437256 56.0 
273.452118 140.0 
273.539734 64.0 
273.615356 120.0 
273.667419 156.0 
273.708344 136.0 
273.77002 120.0 
273.802521 64.0 
273.880371 88.0 
273.945282 76.0 
274.068604 100.0 
274.107574 108.0 
274.188782 64.0 
274.222931 156.0 
274.260559 4868.0 
274.288422 200.0 
274.364197 52.0 
274.981598 116.0 
275.193024 120.0 
275.205994 144.0 
275.234436 240.0 
275.254333 496.0 
275.274353 1172.0 
275.433777 148.0 
275.83432 56.0 
275.902588 180.0 
275.9646 72.0 
276.039551 60.0 
276.062286 112.0 
276.098114 112.0 
276.143738 124.0 
276.242035 104.0 
276.274994 424.0 
276.430603 80.0 
276.44693 68.0 
276.691467 112.0 
276.91983 128.0 
276.975311 132.0 
277.070007 84.0 
277.118958 112.0 
277.18103 76.0 
277.215149 988.0 
277.252502 1548.0 
277.296326 152.0 
278.050079 140.0 
278.08609 88.0 
278.11499 140.0 
278.215942 424.0 
278.259583 224.0 
278.283844 848.0 
278.462341 60.0 
278.671814 56.0 
279.090973 68.0 
279.133545 84.0 
279.153229 60.0 
279.166321 68.0 
279.208893 188.0 
279.26828 1204.0 
279.477692 56.0 
279.684204 100.0 
279.71048 72.0 
280.140259 92.0 
280.165222 1776.0 
280.192719 152.0 
280.219055 84.0 
280.234589 220.0 
280.262695 296.0 
280.27533 184.0 
280.324066 108.0 
280.530975 88.0 
280.590057 124.0 
280.843109 68.0 
281.115265 600.0 
281.16925 360.0 
281.207977 100.0 
281.235931 96.0 
281.251373 84.0 
281.284576 5656.0 
281.662048 52.0 
281.77713 136.0 
282.115082 120.0 
282.139435 52.0 
282.173157 96.0 
282.1987 76.0 
282.211792 180.0 
282.247711 436.0 
282.284698 1928.0 
282.571075 64.0 
282.824951 84.0 
283.125122 80.0 
283.184509 96.0 
283.211426 120.0 
283.237152 420.0 
283.264099 500.0 
283.507965 128.0 
284.099396 56.0 
284.222137 84.0 
284.258026 84.0 
284.274536 112.0 
284.291046 124.0 
284.327423 132.0 
284.624207 148.0 
285.048798 80.0 
285.221985 144.0 
285.259827 224.0 
285.376648 92.0 
285.585327 140.0 
286.079346 124.0 
286.162323 64.0 
286.238586 88.0 
286.806183 104.0 
286.822815 92.0 
286.965637 100.0 
287.015472 84.0 
287.115173 64.0 
287.266876 272.0 
287.281403 112.0 
287.593872 64.0 
287.630371 128.0 
288.032959 116.0 
288.096191 104.0 
288.116241 52.0 
288.234497 104.0 
288.27829 264.0 
288.295898 144.0 
288.385925 56.0 
288.622375 80.0 
288.638977 124.0 
288.715698 56.0 
288.80899 64.0 
288.832245 120.0 
288.958923 92.0 
289.032257 124.0 
289.05899 60.0 
289.072266 116.0 
289.185486 440.0 
289.212311 104.0 
289.251831 880.0 
289.294312 128.0 
289.352386 108.0 
289.405853 60.0 
289.532654 52.0 
289.722809 80.0 
289.77951 120.0 
289.839691 64.0 
289.856354 76.0 
289.982574 84.0 
290.126831 80.0 
290.140198 84.0 
290.158844 172.0 
290.209717 64.0 
290.222717 128.0 
290.255432 704.0 
290.293793 164.0 
290.360657 124.0 
290.427551 64.0 
290.474243 148.0 
290.694824 252.0 
290.718353 84.0 
290.766785 136.0 
290.810516 92.0 
290.848724 124.0 
290.860657 80.0 
290.882233 64.0 
290.908966 84.0 
290.947601 84.0 
291.050171 136.0 
291.066162 96.0 
291.081787 76.0 
291.096252 120.0 
291.131531 128.0 
291.153107 176.0 
291.183197 184.0 
291.195923 88.0 
291.207825 104.0 
291.22818 108.0 
291.268829 114016.0 
291.329132 112.0 
291.349609 280.0 
291.388275 124.0 
291.496704 124.0 
291.507904 176.0 
291.57016 56.0 
291.600311 148.0 
291.633728 84.0 
291.693085 124.0 
291.739075 68.0 
291.787476 72.0 
291.824005 144.0 
291.875885 112.0 
291.903198 88.0 
291.986816 336.0 
292.020447 100.0 
292.062683 124.0 
292.087402 212.0 
292.14679 88.0 
292.200195 120.0 
292.216278 100.0 
292.229645 332.0 
292.271759 20784.0 
292.328857 80.0 
292.35022 56.0 
292.473053 80.0 
292.516663 60.0 
292.550232 52.0 
292.577026 68.0 
292.597107 120.0 
292.61731 52.0 
292.662994 52.0 
292.69101 132.0 
292.801819 60.0 
292.838745 56.0 
292.897797 60.0 
292.989746 76.0 
293.050201 56.0 
293.137482 56.0 
293.223206 132.0 
293.240753 112.0 
293.278046 3204.0 
293.406158 52.0 
293.688324 76.0 
293.88324 108.0 
294.048035 76.0 
294.10788 256.0 
294.148895 100.0 
294.204315 168.0 
294.227203 76.0 
294.245636 168.0 
294.280518 1124.0 
294.315613 112.0 
294.465088 132.0 
294.49881 68.0 
294.633453 72.0 
294.764709 92.0 
294.892578 208.0 
294.974731 56.0 
295.067871 52.0 
295.098053 140.0 
295.117554 212.0 
295.129028 252.0 
295.258331 516.0 
295.268219 540.0 
295.283997 268.0 
295.312836 72.0 
295.340698 88.0 
295.559784 96.0 
295.775543 164.0 
295.893677 80.0 
296.099487 80.0 
296.121552 80.0 
296.155304 80.0 
296.217499 160.0 
296.261536 428.0 
296.291595 652.0 
296.322205 88.0 
296.362671 128.0 
297.095764 68.0 
297.113373 124.0 
297.22757 100.0 
297.290741 112.0 
297.303009 268.0 
297.399994 116.0 
297.92099 164.0 
298.042908 100.0 
298.246033 132.0 
298.269318 512.0 
298.323975 84.0 
298.54422 72.0 
298.825409 172.0 
298.906799 124.0 
298.937317 116.0 
299.232605 184.0 
299.249329 132.0 
299.266876 76.0 
299.281067 268.0 
299.303558 176.0 
299.524261 52.0 
300.111664 60.0 
300.186401 68.0 
300.247528 104.0 
300.267853 164.0 
300.92746 136.0 
301.080536 168.0 
301.250946 1576.0 
301.284729 172.0 
301.55719 68.0 
301.86377 68.0 
301.969391 64.0 
302.023926 60.0 
302.258118 536.0 
302.286224 356.0 
303.180328 72.0 
303.228088 108.0 
303.264404 896.0 
304.271423 300.0 
304.285889 164.0 
304.308502 252.0 
304.677734 72.0 
304.89679 112.0 
305.078247 168.0 
305.114349 100.0 
305.16394 108.0 
305.242706 144.0 
305.27301 200.0 
305.288727 416.0 
305.528259 112.0 
305.767181 80.0 
305.84787 56.0 
305.890564 136.0 
305.91806 88.0 
306.041595 56.0 
306.14447 100.0 
306.238983 136.0 
306.278107 4080.0 
306.360687 80.0 
306.425873 100.0 
306.463654 100.0 
306.559845 52.0 
306.712097 108.0 
306.74527 64.0 
306.789856 120.0 
306.904938 100.0 
306.927277 88.0 
306.944427 136.0 
307.059906 56.0 
307.102478 124.0 
307.263336 2380.0 
307.291992 620.0 
307.339722 76.0 
307.44632 52.0 
307.515076 68.0 
307.580414 76.0 
307.62381 88.0 
307.642303 84.0 
307.688293 64.0 
307.711151 56.0 
307.755829 68.0 
307.965729 60.0 
308.013885 84.0 
308.055237 60.0 
308.089508 212.0 
308.158936 1708.0 
308.188416 212.0 
308.228485 172.0 
308.271484 756.0 
308.292236 1672.0 
308.354675 100.0 
308.37558 176.0 
308.416595 188.0 
308.455536 100.0 
308.478699 80.0 
308.501251 84.0 
308.540588 164.0 
308.564819 72.0 
308.58551 56.0 
308.60257 220.0 
308.646301 152.0 
308.67157 92.0 
308.687286 104.0 
308.702606 68.0 
308.768646 92.0 
308.792145 124.0 
308.838013 124.0 
308.874817 164.0 
308.899048 60.0 
308.914551 108.0 
308.935486 108.0 
308.990936 92.0 
309.064453 104.0 
309.093903 196.0 
309.123749 232.0 
309.143585 72.0 
309.162445 632.0 
309.193329 152.0 
309.231293 68.0 
309.27948 119296.0 
309.342163 152.0 
309.352844 284.0 
309.380768 172.0 
309.402069 72.0 
309.414276 136.0 
309.443512 92.0 
309.504303 72.0 
309.523224 52.0 
309.566681 100.0 
309.580688 192.0 
309.629761 112.0 
309.671387 100.0 
309.696045 132.0 
309.72464 72.0 
309.77179 84.0 
309.78891 68.0 
309.810059 88.0 
309.845978 324.0 
309.899353 64.0 
309.91449 92.0 
309.942871 68.0 
309.982117 136.0 
310.022491 156.0 
310.03537 72.0 
310.051239 84.0 
310.072021 52.0 
310.089233 72.0 
310.172089 424.0 
310.204437 240.0 
310.235748 356.0 
310.281952 23604.0 
310.37146 104.0 
310.408844 96.0 
310.436035 52.0 
310.457642 136.0 
310.479584 68.0 
310.652405 52.0 
310.742279 60.0 
310.780273 64.0 
310.801025 60.0 
310.825165 96.0 
310.901276 80.0 
310.957306 60.0 
311.055328 160.0 
311.077667 56.0 
311.120361 80.0 
311.212463 172.0 
311.23877 84.0 
311.285309 3700.0 
311.372406 96.0 
311.613953 80.0 
311.638214 72.0 
311.690155 56.0 
311.776672 84.0 
311.838989 112.0 
311.897827 140.0 
311.91861 124.0 
312.01355 64.0 
312.08844 56.0 
312.114105 424.0 
312.131592 220.0 
312.151093 236.0 
312.216583 88.0 
312.230469 68.0 
312.246826 72.0 
312.294739 588.0 
312.327972 144.0 
312.344788 96.0 
312.445374 52.0 
312.556274 60.0 
312.649811 124.0 
312.875275 92.0 
313.121918 200.0 
313.177185 60.0 
313.249023 208.0 
313.28125 76.0 
313.312469 104.0 
313.333313 84.0 
313.454803 92.0 
313.635406 72.0 
313.788239 64.0 
314.119873 120.0 
314.194733 116.0 
314.253876 72.0 
314.285187 60.0 
314.479858 80.0 
314.532043 84.0 
314.747681 108.0 
314.799835 128.0 
314.911285 56.0 
315.008698 76.0 
315.262817 80.0 
315.280212 88.0 
315.597198 64.0 
315.802673 128.0 
316.262848 120.0 
316.50354 108.0 
316.747772 144.0 
316.775787 72.0 
316.856049 80.0 
316.874512 128.0 
317.051544 76.0 
317.194763 60.0 
317.246826 1380.0 
317.276581 264.0 
317.460144 152.0 
317.841125 116.0 
317.995026 84.0 
318.251953 324.0 
318.279144 616.0 
318.376312 84.0 
318.390198 176.0 
318.614349 52.0 
318.643951 56.0 
318.666718 152.0 
318.76474 168.0 
318.809143 132.0 
318.843964 64.0 
318.897827 124.0 
318.929413 64.0 
318.957458 60.0 
319.065979 92.0 
319.187958 168.0 
319.202637 64.0 
319.216675 60.0 
319.263245 45972.0 
319.329132 120.0 
319.349976 260.0 
319.363281 208.0 
319.393402 76.0 
319.419861 84.0 
319.45639 64.0 
319.4841 52.0 
319.51889 52.0 
319.55661 56.0 
319.613342 100.0 
319.706146 88.0 
319.74234 120.0 
319.776733 100.0 
319.80545 128.0 
319.845703 76.0 
319.893188 84.0 
319.956268 148.0 
319.970306 140.0 
319.988556 124.0 
320.00296 108.0 
320.01947 84.0 
320.208893 104.0 
320.266327 10168.0 
320.292786 5032.0 
320.349274 116.0 
320.45462 84.0 
320.552948 64.0 
320.626587 124.0 
320.644226 72.0 
320.66806 76.0 
320.767151 60.0 
320.851471 60.0 
320.981415 76.0 
321.037567 124.0 
321.231384 148.0 
321.270386 1624.0 
321.293945 1088.0 
321.360931 104.0 
321.469849 180.0 
321.55072 176.0 
321.793518 64.0 
321.934265 52.0 
322.104706 52.0 
322.233337 104.0 
322.287323 680.0 
322.307007 748.0 
322.355774 64.0 
322.455231 56.0 
322.507965 112.0 
322.588989 88.0 
322.7229 60.0 
323.018829 80.0 
323.064728 52.0 
323.159821 92.0 
323.240936 72.0 
323.288239 464.0 
323.306274 224.0 
323.332062 160.0 
323.709991 84.0 
323.833496 88.0 
324.024109 76.0 
324.059326 132.0 
324.121826 120.0 
324.155853 240.0 
324.174774 60.0 
324.246002 220.0 
324.289215 6812.0 
324.320343 276.0 
324.398346 108.0 
324.430115 108.0 
324.560913 52.0 
324.589172 52.0 
324.681 84.0 
324.864807 52.0 
324.980408 68.0 
325.062744 64.0 
325.25 236.0 
325.293518 1256.0 
325.352661 120.0 
325.693878 84.0 
325.940186 56.0 
326.010956 76.0 
326.2854 96.0 
326.300507 256.0 
326.357117 76.0 
326.730133 80.0 
327.088165 136.0 
327.194641 72.0 
327.279755 100.0 
327.318695 180.0 
327.343597 104.0 
328.220551 100.0 
329.486542 96.0 
330.063293 76.0 
330.127655 56.0 
330.278473 2856.0 
330.851227 132.0 
331.143829 84.0 
331.280182 1048.0 
331.425781 116.0 
331.543671 64.0 
332.179535 84.0 
332.26944 284.0 
332.294312 624.0 
332.333191 104.0 
332.626465 64.0 
332.683685 72.0 
333.030762 56.0 
333.173828 116.0 
333.22757 76.0 
333.26532 148.0 
333.287384 100.0 
333.303406 192.0 
333.829193 92.0 
333.890167 64.0 
334.275208 568.0 
334.289642 260.0 
334.310028 104.0 
335.120331 80.0 
335.188568 72.0 
335.253113 128.0 
335.274933 172.0 
335.297485 144.0 
336.032837 52.0 
336.180176 80.0 
336.252106 72.0 
336.288422 5060.0 
336.356323 128.0 
336.514648 88.0 
336.910431 104.0 
336.996887 72.0 
337.140869 100.0 
337.272858 2468.0 
337.450623 84.0 
337.854187 92.0 
338.171478 80.0 
338.279297 952.0 
338.306519 6836.0 
338.355316 164.0 
338.391479 88.0 
338.449127 132.0 
338.602875 76.0 
338.837738 80.0 
338.947296 52.0 
339.073578 116.0 
339.267639 112.0 
339.304321 1492.0 
339.510742 52.0 
339.680481 112.0 
339.763641 104.0 
339.843231 56.0 
339.911926 60.0 
340.311066 452.0 
340.403809 52.0 
341.114288 96.0 
341.260071 92.0 
342.119324 100.0 
342.280823 84.0 
342.526642 132.0 
343.7005 92.0 
344.293243 220.0 
344.569916 120.0 
345.535278 76.0 
345.797852 52.0 
345.936432 56.0 
346.045837 56.0 
346.082306 72.0 
346.266693 156.0 
346.366882 88.0 
346.45816 68.0 
346.655334 56.0 
346.863464 60.0 
346.91449 128.0 
346.983887 132.0 
347.087555 84.0 
347.177582 88.0 
347.236053 72.0 
347.254364 60.0 
347.279877 100.0 
347.409698 72.0 
347.586975 64.0 
347.608887 72.0 
347.656464 52.0 
347.736847 92.0 
347.886841 56.0 
347.923279 156.0 
348.047638 200.0 
348.066071 64.0 
348.121979 104.0 
348.180969 124.0 
348.21756 128.0 
348.251648 96.0 
348.290375 54556.0 
348.353302 168.0 
348.408234 64.0 
348.426514 124.0 
348.479645 56.0 
348.550629 76.0 
348.642548 56.0 
348.658997 76.0 
348.681 60.0 
348.724731 92.0 
348.820374 80.0 
348.876068 84.0 
348.893921 52.0 
348.926361 76.0 
348.970306 80.0 
348.992249 108.0 
349.083832 108.0 
349.138855 68.0 
349.186462 76.0 
349.293549 12748.0 
349.389343 120.0 
349.589661 88.0 
349.654785 84.0 
349.681396 56.0 
349.72699 80.0 
349.780396 56.0 
349.930695 124.0 
350.258789 160.0 
350.303253 3664.0 
350.338898 104.0 
350.389313 188.0 
350.411438 96.0 
350.55304 76.0 
350.602386 72.0 
350.712585 56.0 
350.727264 68.0 
350.81543 56.0 
350.877838 64.0 
350.940308 68.0 
351.207001 112.0 
351.252625 60.0 
351.271515 192.0 
351.304962 1036.0 
351.425385 60.0 
351.458405 120.0 
351.491486 104.0 
351.505951 124.0 
351.616547 80.0 
351.751129 68.0 
351.99176 52.0 
352.155029 1056.0 
352.19397 200.0 
352.285797 1040.0 
352.312622 196.0 
353.153168 280.0 
353.294647 204.0 
353.316895 136.0 
353.446533 52.0 
353.89267 120.0 
354.151031 64.0 
354.2995 1384.0 
354.331787 132.0 
354.346558 128.0 
354.424164 72.0 
354.449921 116.0 
354.501678 72.0 
355.129608 92.0 
355.240448 108.0 
355.30426 348.0 
356.31311 116.0 
356.439087 52.0 
356.616821 52.0 
357.291046 92.0 
357.328156 72.0 
357.465302 84.0 
358.025391 76.0 
358.272797 140.0 
358.307404 116.0 
359.198792 136.0 
359.273102 180.0 
359.816101 80.0 
360.177032 68.0 
360.255157 84.0 
360.292328 260.0 
360.348206 84.0 
360.504578 80.0 
361.25708 100.0 
361.285248 160.0 
361.305542 80.0 
361.321106 108.0 
361.618744 76.0 
362.014099 96.0 
362.316376 108.0 
362.372375 112.0 
362.775696 68.0 
362.850403 76.0 
363.100708 80.0 
363.186615 104.0 
363.332336 144.0 
364.282471 92.0 
364.328125 64.0 
364.915222 116.0 
364.993988 68.0 
365.152954 92.0 
365.289368 124.0 
365.338623 152.0 
365.421204 72.0 
365.447449 72.0 
365.496216 52.0 
365.537415 68.0 
365.623657 76.0 
365.680695 96.0 
365.912476 56.0 
365.942444 72.0 
366.002411 120.0 
366.02121 76.0 
366.173431 80.0 
366.212585 76.0 
366.268433 64.0 
366.302032 35272.0 
366.346344 304.0 
366.376526 88.0 
366.400177 140.0 
366.43396 132.0 
366.449005 108.0 
366.563446 60.0 
366.587952 72.0 
366.629272 68.0 
366.826843 76.0 
366.869629 60.0 
366.963562 52.0 
366.986084 64.0 
367.04245 52.0 
367.111084 132.0 
367.166351 100.0 
367.303925 8296.0 
367.342377 192.0 
367.696442 64.0 
367.782898 72.0 
367.798004 52.0 
367.93103 108.0 
368.06131 52.0 
368.30368 1132.0 
368.357513 116.0 
368.456421 56.0 
368.576782 128.0 
368.618256 76.0 
368.652222 52.0 
368.820068 68.0 
369.077759 64.0 
369.096619 64.0 
369.258606 80.0 
369.287292 120.0 
369.310577 184.0 
369.3302 72.0 
369.36264 52.0 
369.390503 76.0 
369.480927 92.0 
369.541321 52.0 
369.607849 76.0 
369.726044 60.0 
370.001373 60.0 
370.280548 64.0 
370.306885 100.0 
370.450348 80.0 
370.688202 56.0 
371.40387 84.0 
372.275635 64.0 
372.30838 152.0 
372.339935 68.0 
372.472382 84.0 
373.323212 228.0 
373.347076 132.0 
374.002869 152.0 
374.059875 64.0 
374.215332 104.0 
374.249542 60.0 
374.276733 156.0 
374.294159 88.0 
374.321777 184.0 
374.545471 76.0 
374.575806 96.0 
375.313446 128.0 
375.369507 64.0 
376.144867 128.0 
376.284912 11356.0 
376.35788 144.0 
376.388397 72.0 
376.406311 132.0 
376.551941 108.0 
376.60141 128.0 
376.631927 72.0 
376.719482 64.0 
377.103973 72.0 
377.159607 52.0 
377.172485 96.0 
377.28714 3200.0 
377.420044 132.0 
377.439148 88.0 
378.291412 752.0 
378.333435 100.0 
379.025665 104.0 
379.312103 76.0 
379.671234 56.0 
379.866119 68.0 
380.275116 108.0 
380.305756 76.0 
381.281555 88.0 
381.829285 104.0 
382.166504 160.0 
382.342957 84.0 
382.557678 112.0 
383.121826 60.0 
384.300659 192.0 
384.343201 208.0 
385.314606 84.0 
385.335846 92.0 
386.302551 292.0 
386.391296 120.0 
387.297638 168.0 
387.320862 100.0 
387.421265 64.0 
387.853607 112.0 
387.892273 92.0 
388.282471 72.0 
388.336487 140.0 
389.338104 72.0 
390.182159 52.0 
390.271545 84.0 
390.310181 104.0 
391.264801 204.0 
392.171814 56.0 
392.214447 112.0 
392.509735 60.0 
392.871155 52.0 
393.313141 144.0 
393.388306 52.0 
393.473816 72.0 
393.508789 88.0 
393.744354 52.0 
393.773407 68.0 
393.874573 76.0 
394.19754 176.0 
394.233459 116.0 
394.296234 6848.0 
394.676666 92.0 
394.719574 68.0 
395.300598 1620.0 
395.503082 64.0 
395.526367 148.0 
395.670776 72.0 
395.98291 64.0 
396.041473 56.0 
396.301117 344.0 
396.490356 68.0 
396.732452 92.0 
397.271637 116.0 
397.319183 456.0 
397.474945 88.0 
397.68222 64.0 
397.729156 60.0 
398.329681 1140.0 
398.390289 100.0 
398.6409 64.0 
399.275391 88.0 
399.332153 564.0 
399.694855 60.0 
400.334869 100.0 
401.314148 284.0 
401.347076 68.0 
401.64563 112.0 
402.301666 76.0 
402.329834 68.0 
403.333435 88.0 
403.349121 140.0 
403.601227 124.0 
403.920441 100.0 
404.321899 224.0 
405.316681 100.0 
405.348816 168.0 
407.309143 64.0 
407.333832 120.0 
408.006012 56.0 
408.27536 80.0 
408.3172 76.0 
409.246674 104.0 
409.316437 116.0 
409.33783 192.0 
409.353882 60.0 
410.322296 96.0 
411.188812 160.0 
411.28833 92.0 
411.32019 64.0 
411.507141 60.0 
412.306732 1876.0 
412.386749 60.0 
412.824921 60.0 
412.844879 52.0 
413.127686 132.0 
413.303802 240.0 
413.354919 120.0 
414.256592 52.0 
414.294281 88.0 
414.314606 160.0 
414.332245 180.0 
414.703644 88.0 
415.286835 136.0 
415.302002 152.0 
415.333435 504.0 
416.246552 92.0 
416.310852 92.0 
416.336426 316.0 
416.390594 100.0 
416.814819 120.0 
417.307556 56.0 
417.327148 100.0 
417.351318 336.0 
417.535828 92.0 
418.00885 76.0 
418.357697 84.0 
418.650574 80.0 
418.690765 52.0 
419.323822 248.0 
420.031982 72.0 
420.3237 172.0 
420.335449 216.0 
421.339813 96.0 
421.657227 88.0 
422.342041 96.0 
422.358124 108.0 
423.035583 60.0 
423.19278 112.0 
423.321869 116.0 
425.318237 184.0 
425.355316 88.0 
426.319855 464.0 
426.608582 56.0 
426.762451 80.0 
427.293274 116.0 
427.319641 196.0 
427.33493 220.0 
428.307251 132.0 
428.325195 108.0 
429.312012 308.0 
429.497345 56.0 
430.306274 172.0 
430.320801 80.0 
430.880157 80.0 
431.323975 76.0 
431.360626 84.0 
431.755798 72.0 
432.318237 116.0 
433.277039 64.0 
433.301483 80.0 
433.336395 60.0 
433.350433 112.0 
433.615814 104.0 
434.293976 92.0 
434.338959 68.0 
434.486023 112.0 
435.283508 92.0 
435.353149 60.0 
435.635468 76.0 
435.872833 120.0 
435.90152 100.0 
436.2742 76.0 
436.479004 84.0 
437.241333 120.0 
437.338745 1280.0 
438.337616 620.0 
439.294067 72.0 
439.318695 92.0 
439.348572 104.0 
439.417267 160.0 
440.017792 64.0 
440.345764 88.0 
441.660614 64.0 
442.291351 72.0 
442.36969 84.0 
442.604767 128.0 
443.285767 116.0 
443.325043 1692.0 
443.374207 212.0 
444.20285 104.0 
444.329376 524.0 
444.344574 196.0 
444.384735 96.0 
444.798279 64.0 
445.232635 68.0 
445.351868 268.0 
445.381561 96.0 
445.460175 104.0 
446.338104 84.0 
446.367065 92.0 
447.25412 112.0 
447.323059 240.0 
448.088135 92.0 
448.319397 176.0 
449.280273 100.0 
449.328064 72.0 
449.367493 144.0 
449.392517 92.0 
449.587799 180.0 
449.812531 64.0 
450.33783 112.0 
451.231842 92.0 
451.348877 136.0 
452.18634 60.0 
453.302887 256.0 
453.362915 144.0 
453.83078 76.0 
453.98526 132.0 
454.316772 88.0 
454.336395 88.0 
455.347473 1380.0 
455.407043 100.0 
455.867493 104.0 
456.290527 72.0 
456.325592 132.0 
456.347382 348.0 
456.358551 488.0 
457.33902 76.0 
457.356781 80.0 
457.386292 136.0 
458.328644 60.0 
458.349609 76.0 
458.517548 84.0 
459.353577 68.0 
459.37027 144.0 
460.62793 80.0 
461.305817 64.0 
461.337128 860.0 
461.470001 120.0 
461.600708 60.0 
461.743988 52.0 
462.344177 396.0 
462.629333 52.0 
462.861877 108.0 
463.093262 116.0 
463.32547 84.0 
463.355011 84.0 
464.089813 76.0 
465.28186 100.0 
465.336487 1916.0 
465.421448 96.0 
465.730408 60.0 
466.272278 56.0 
466.33609 444.0 
467.000824 80.0 
467.329254 224.0 
467.357727 176.0 
467.831848 68.0 
468.332336 140.0 
468.404602 80.0 
469.500183 108.0 
469.691467 80.0 
469.865753 64.0 
470.190857 76.0 
470.273804 124.0 
470.364227 68.0 
470.473663 144.0 
470.52478 104.0 
470.550293 112.0 
470.66098 64.0 
470.912018 68.0 
471.163147 64.0 
471.192902 80.0 
471.324554 8720.0 
471.369446 228.0 
471.392883 128.0 
471.461121 80.0 
471.48233 112.0 
471.703766 124.0 
471.84671 88.0 
471.989288 60.0 
472.018951 148.0 
472.272003 108.0 
472.324036 3156.0 
472.414185 88.0 
472.564606 68.0 
472.628571 60.0 
473.076324 56.0 
473.326263 884.0 
473.35553 236.0 
473.413208 124.0 
473.57962 116.0 
474.330872 104.0 
474.352417 84.0 
475.164276 72.0 
475.350342 112.0 
475.600433 56.0 
475.886963 80.0 
475.959747 60.0 
476.335083 72.0 
476.362 56.0 
476.717255 72.0 
477.192596 84.0 
477.371277 280.0 
478.337067 84.0 
480.346344 100.0 
482.35553 112.0 
482.473358 72.0 
483.345978 608.0 
483.424164 152.0 
483.713287 52.0 
484.333374 188.0 
484.351837 272.0 
485.332153 116.0 
485.36087 252.0 
486.342468 100.0 
487.334229 68.0 
488.386566 212.0 
488.475311 96.0 
488.989319 80.0 
489.292847 104.0 
489.333191 3312.0 
489.392639 96.0 
489.453369 108.0 
489.631348 60.0 
489.722412 84.0 
490.334473 924.0 
490.608215 52.0 
491.348907 632.0 
491.755585 52.0 
492.325317 88.0 
492.368774 112.0 
492.390625 72.0 
493.371674 792.0 
493.967041 96.0 
494.372314 220.0 
495.382904 168.0 
495.655182 108.0 
496.389038 52.0 
498.370148 80.0 
499.119049 64.0 
499.386169 152.0 
501.342651 100.0 
501.430573 56.0 
502.858734 60.0 
503.302887 88.0 
503.360077 88.0 
504.378235 196.0 
504.397583 76.0 
505.38327 104.0 
506.387482 92.0 
506.413513 204.0 
506.515228 64.0 
507.341461 108.0 
507.36026 104.0 
507.398193 112.0 
507.415833 128.0 
508.359344 100.0 
508.600494 68.0 
508.830353 136.0 
509.281769 72.0 
512.588501 68.0 
514.179138 84.0 
514.348022 168.0 
514.406006 72.0 
514.917664 52.0 
515.380371 152.0 
516.280151 76.0 
516.315735 108.0 
516.390015 1352.0 
516.436035 128.0 
517.309937 72.0 
517.380981 252.0 
517.425842 104.0 
517.689209 56.0 
518.345154 112.0 
518.372498 292.0 
518.398621 176.0 
519.877747 68.0 
520.888733 80.0 
521.314026 80.0 
521.358582 200.0 
521.385681 72.0 
522.223328 76.0 
522.357788 68.0 
522.388977 192.0 
523.263489 92.0 
523.371155 88.0 
524.376587 72.0 
524.488892 64.0 
524.73584 92.0 
525.5448 60.0 
528.123901 76.0 
528.295166 68.0 
528.403259 104.0 
529.314331 64.0 
529.36377 148.0 
530.131226 80.0 
530.993835 152.0 
531.129578 56.0 
531.265137 64.0 
532.042847 64.0 
532.379578 492.0 
532.431885 72.0 
532.772949 84.0 
533.380371 132.0 
534.034973 68.0 
534.143677 76.0 
534.338562 100.0 
534.392151 4380.0 
534.551758 52.0 
534.601501 104.0 
534.655823 156.0 
534.810242 52.0 
535.232056 56.0 
535.2547 72.0 
535.392212 1540.0 
535.486084 80.0 
535.658569 56.0 
536.298645 72.0 
536.365723 156.0 
536.394226 568.0 
537.375488 76.0 
537.393677 84.0 
537.411865 72.0 
537.434631 64.0 
539.997131 72.0 
540.047302 56.0 
541.027466 68.0 
541.406067 100.0 
542.364746 76.0 
542.39209 96.0 
542.424133 68.0 
544.174744 92.0 
545.323608 60.0 
547.028442 68.0 
547.647888 52.0 
550.358521 184.0 
550.383606 624.0 
551.394348 444.0 
552.400391 112.0 
552.421631 76.0 
552.647583 56.0 
552.841187 68.0 
553.385437 52.0 
553.440735 72.0 
554.506958 64.0 
555.638794 92.0 
556.087341 68.0 
558.591858 96.0 
558.666016 84.0 
560.373657 904.0 
560.426086 96.0 
560.464844 124.0 
560.489075 96.0 
560.507568 140.0 
560.572754 52.0 
561.366089 200.0 
561.391479 284.0 
561.414368 300.0 
562.373108 184.0 
562.463989 56.0 
562.575623 68.0 
562.83606 84.0 
562.989624 68.0 
563.09198 84.0 
563.408447 92.0 
564.11615 92.0 
564.399597 72.0 
564.423645 64.0 
566.032166 60.0 
568.638367 100.0 
572.141663 64.0 
572.268311 68.0 
572.521667 64.0 
575.413879 704.0 
575.500183 140.0 
575.528625 64.0 
576.338074 68.0 
576.376099 100.0 
576.420715 588.0 
576.462585 80.0 
576.502869 64.0 
576.592285 76.0 
577.350647 68.0 
577.369141 372.0 
577.400208 216.0 
577.433533 224.0 
578.283936 92.0 
578.380493 1680.0 
578.562195 96.0 
578.666016 84.0 
579.27478 56.0 
579.334045 84.0 
579.389221 1024.0 
579.458679 136.0 
579.520142 84.0 
580.354126 104.0 
580.393677 340.0 
580.488281 92.0 
580.573242 128.0 
580.82251 72.0 
581.320068 108.0 
581.366943 768.0 
581.452576 80.0 
581.570801 76.0 
581.589722 68.0 
582.369507 172.0 
582.445862 136.0 
585.293884 56.0 
586.319092 56.0 
588.391113 88.0 
595.346985 64.0 
600.271057 80.0 
600.814087 84.0 
611.265686 80.0 
611.954407 56.0 
612.114502 60.0 
624.602722 72.0 
627.463257 76.0 
630.118591 88.0 
631.256165 108.0 
634.472778 60.0 
637.915283 76.0 
638.291748 88.0 
639.679749 72.0 
642.117249 84.0 
644.703796 108.0 
654.063538 100.0 
657.714844 56.0 
666.1604 164.0 
695.638184 96.0 
695.855591 60.0 
699.377502 100.0 
702.398987 108.0 
707.18866 92.0 
708.185059 92.0 
716.695862 92.0 
719.112915 68.0 
719.191711 96.0 
722.793335 124.0 
739.250916 56.0 
749.673828 52.0 
752.715698 104.0 
756.966858 56.0 
760.65094 52.0 
770.596802 88.0 
770.880066 52.0 
776.432739 56.0 
783.33844 56.0 
795.592407 68.0 
799.396851 96.0 
801.016724 72.0 
814.218872 68.0 
833.468262 96.0 
853.578552 64.0 
862.844727 76.0 
863.928101 52.0 
880.048828 100.0 
880.811218 68.0 
885.8302 52.0 
898.093994 80.0 
900.840576 72.0 
908.123962 132.0 
948.638855 76.0 
954.906372 108.0 
1003.044067 52.0 
END IONS

