BEGIN IONS
PEPMASS=414.155
CHARGE=1+
COMPOUNDNAME=MLS001060855-01!
LIBRARYQUALITY=1
SMILES=COc1ccc2[C@H](OC(=O)c2c1OC)[C@@H]3N(C)CCc4cc5OCOc5c(OC)c34
INCHIKEY=AKNNEGZIBPJZJG-MSOLQXFVSA-N
INCHI=N/A
MSLEVEL=2
SOURCE_INSTRUMENT=LC-ESI-qTof
FILENAME=p2-B07_GB7_01_17995.mzXML
SEQ=*..*
IONMODE=Positive
ORGANISM=GNPS-NIH-NATURALPRODUCTSLIBRARY
NAME=MLS001060855-01! M+H
PI=Dorrestein
DATACOLLECTOR=VVP/LMS
PUBMED=N/A
SUBMITUSER=vphelan
TAGS=
SPECTRUMID=CCMSLIB00000080320
SCANS=1569
95.015404 180.0 
95.072968 128.0 
95.111786 128.0 
95.181679 52.0 
95.197212 136.0 
95.214546 152.0 
95.275604 100.0 
95.422935 168.0 
95.443993 156.0 
95.480942 44.0 
95.537354 128.0 
95.64827 132.0 
95.718361 112.0 
95.749298 108.0 
95.817696 44.0 
95.833282 124.0 
95.873711 64.0 
95.879295 52.0 
95.887222 164.0 
95.944374 112.0 
96.022369 128.0 
96.051628 140.0 
96.082207 160.0 
96.117958 104.0 
96.145279 164.0 
96.201881 192.0 
96.272171 76.0 
96.339928 124.0 
96.355202 164.0 
96.385475 136.0 
96.414787 200.0 
96.43824 152.0 
96.489059 132.0 
96.506828 136.0 
96.541855 80.0 
96.588799 52.0 
96.645531 252.0 
96.704239 152.0 
96.721855 132.0 
96.877365 116.0 
96.926544 132.0 
96.94709 152.0 
97.039215 180.0 
97.113731 124.0 
97.184357 144.0 
97.211823 136.0 
97.252083 180.0 
97.341385 196.0 
97.37281 164.0 
97.412094 40.0 
97.448418 228.0 
97.486755 124.0 
97.565376 196.0 
97.675499 60.0 
97.724678 124.0 
97.758133 104.0 
97.780693 328.0 
97.803612 184.0 
97.888054 84.0 
97.907745 124.0 
97.9235 128.0 
97.999619 356.0 
98.144211 76.0 
98.163933 140.0 
98.21521 132.0 
98.231369 104.0 
98.250717 196.0 
98.371574 148.0 
98.4244 84.0 
98.440201 156.0 
98.45797 60.0 
98.52919 216.0 
98.558716 108.0 
98.582428 112.0 
98.631844 128.0 
98.667419 208.0 
98.705894 128.0 
98.732674 340.0 
98.75174 188.0 
98.821693 136.0 
98.836876 176.0 
98.881058 156.0 
98.927109 180.0 
99.003365 236.0 
99.025589 148.0 
99.071144 140.0 
99.114731 76.0 
99.134544 116.0 
99.235641 232.0 
99.28521 192.0 
99.376457 244.0 
99.469734 220.0 
99.523338 148.0 
99.598801 140.0 
99.668335 196.0 
99.727951 40.0 
99.755783 112.0 
99.843269 36.0 
99.870964 160.0 
99.894981 156.0 
99.910896 192.0 
100.02433 96.0 
100.058167 144.0 
100.14579 60.0 
100.167694 168.0 
100.418846 172.0 
100.45076 160.0 
100.472702 128.0 
100.541267 264.0 
100.569893 204.0 
100.594437 124.0 
100.620384 152.0 
100.644348 152.0 
100.688843 128.0 
100.720238 132.0 
100.777153 188.0 
100.828125 88.0 
100.850113 160.0 
100.868103 100.0 
100.896088 168.0 
100.947342 196.0 
101.072098 128.0 
101.088104 176.0 
101.174171 180.0 
101.192184 172.0 
101.276299 176.0 
101.319466 236.0 
101.344406 160.0 
101.376465 156.0 
101.40052 248.0 
101.442612 156.0 
101.488724 160.0 
101.512787 172.0 
101.623108 164.0 
101.725456 184.0 
101.745529 116.0 
101.848633 168.0 
101.871422 204.0 
101.878136 140.0 
101.884758 208.0 
101.930313 132.0 
101.953278 188.0 
102.03672 128.0 
102.067001 360.0 
102.147446 112.0 
102.187683 96.0 
102.213844 52.0 
102.288307 124.0 
102.324547 184.0 
102.356758 200.0 
102.378914 100.0 
102.482933 300.0 
102.538063 180.0 
102.60257 176.0 
102.694542 156.0 
102.729622 164.0 
102.790146 156.0 
102.816902 232.0 
102.878952 108.0 
102.915291 108.0 
102.965775 144.0 
103.028931 136.0 
103.054008 340.0 
103.127632 144.0 
103.147621 28.0 
103.208275 184.0 
103.258827 152.0 
103.381493 152.0 
103.408546 76.0 
103.453079 108.0 
103.481491 116.0 
103.511795 128.0 
103.532166 136.0 
103.590782 88.0 
103.613068 104.0 
103.629936 256.0 
103.72081 120.0 
103.738708 136.0 
103.886749 160.0 
103.917183 96.0 
103.949646 148.0 
103.980087 200.0 
104.009979 376.0 
104.046463 188.0 
104.063316 156.0 
104.079559 100.0 
104.120171 212.0 
104.142509 196.0 
104.272545 132.0 
104.288803 120.0 
104.361984 192.0 
104.376221 132.0 
104.401039 136.0 
104.437233 224.0 
104.457573 192.0 
104.514122 236.0 
104.52832 160.0 
104.551163 100.0 
104.565414 68.0 
104.618332 204.0 
104.648872 120.0 
104.672607 140.0 
104.764961 184.0 
104.842384 164.0 
104.885185 172.0 
104.957275 144.0 
104.978973 176.0 
104.993248 156.0 
105.013641 152.0 
105.031227 284.0 
105.052399 156.0 
105.06765 300.0 
105.08374 232.0 
105.117691 196.0 
105.13401 64.0 
105.153999 136.0 
105.205452 164.0 
105.252411 128.0 
105.327972 144.0 
105.352486 160.0 
105.385178 124.0 
105.419914 96.0 
105.489403 144.0 
105.571388 188.0 
105.593987 216.0 
105.620277 112.0 
105.712364 168.0 
105.845398 60.0 
105.900688 148.0 
105.929367 88.0 
106.011322 68.0 
106.038788 196.0 
106.065414 284.0 
106.103561 168.0 
106.117912 136.0 
106.140945 204.0 
106.173271 172.0 
106.218399 148.0 
106.245064 132.0 
106.273788 248.0 
106.300461 172.0 
106.359985 156.0 
106.448265 180.0 
106.493446 140.0 
106.555069 160.0 
106.677132 132.0 
106.712288 324.0 
106.745064 220.0 
106.820267 156.0 
106.83802 184.0 
106.914909 116.0 
106.933434 104.0 
106.956078 180.0 
106.970482 228.0 
107.011658 60.0 
107.049698 528.0 
107.071915 488.0 
107.089912 224.0 
107.150681 176.0 
107.236557 184.0 
107.260933 252.0 
107.283607 132.0 
107.312126 120.0 
107.372269 136.0 
107.399086 188.0 
107.446526 164.0 
107.483101 128.0 
107.498108 128.0 
107.522873 56.0 
107.537323 220.0 
107.597725 184.0 
107.66153 172.0 
107.698372 136.0 
107.792961 148.0 
107.818207 148.0 
107.874008 72.0 
107.893028 188.0 
107.960846 156.0 
107.985664 128.0 
108.058327 160.0 
108.103592 160.0 
108.250565 48.0 
108.267136 132.0 
108.325127 128.0 
108.355476 160.0 
108.453163 152.0 
108.492981 148.0 
108.538597 160.0 
108.559479 224.0 
108.643555 364.0 
108.677567 272.0 
108.748123 136.0 
108.851929 128.0 
108.870613 180.0 
108.970917 208.0 
109.003563 128.0 
109.045128 172.0 
109.155312 120.0 
109.248901 208.0 
109.315483 28.0 
109.367516 96.0 
109.390411 216.0 
109.419556 136.0 
109.484108 116.0 
109.513268 148.0 
109.57576 216.0 
109.617432 52.0 
109.707054 136.0 
109.831184 228.0 
109.963615 200.0 
109.979958 188.0 
110.024155 100.0 
110.057976 160.0 
110.120209 44.0 
110.148926 156.0 
110.233017 200.0 
110.254677 176.0 
110.336182 236.0 
110.370979 132.0 
110.448357 196.0 
110.479736 140.0 
110.502754 200.0 
110.546692 148.0 
110.567619 108.0 
110.697411 148.0 
110.737206 200.0 
110.770714 168.0 
110.795273 188.0 
110.816185 352.0 
110.864998 184.0 
110.91127 160.0 
110.936424 212.0 
110.977798 148.0 
111.028519 108.0 
111.044571 128.0 
111.090225 192.0 
111.160683 136.0 
111.226524 108.0 
111.267731 208.0 
111.303421 184.0 
111.46888 156.0 
111.561844 136.0 
111.578667 160.0 
111.597588 96.0 
111.639641 140.0 
111.702271 180.0 
111.730995 176.0 
111.780586 160.0 
111.807938 360.0 
111.88372 52.0 
111.906876 160.0 
111.942673 124.0 
111.976364 176.0 
112.020599 92.0 
112.04377 44.0 
112.069054 60.0 
112.08802 152.0 
112.125954 160.0 
112.193405 144.0 
112.304367 400.0 
112.469742 176.0 
112.53096 132.0 
112.615433 148.0 
112.706268 188.0 
112.723175 108.0 
112.774117 116.0 
112.873703 152.0 
112.91555 156.0 
112.951508 100.0 
113.084808 188.0 
113.15255 268.0 
113.171608 132.0 
113.194893 216.0 
113.213959 120.0 
113.250267 192.0 
113.317749 124.0 
113.334702 128.0 
113.366592 152.0 
113.565773 128.0 
113.608192 128.0 
113.642143 120.0 
113.673965 80.0 
113.703613 132.0 
113.724899 240.0 
113.769691 40.0 
113.820435 144.0 
113.850166 100.0 
113.884148 172.0 
113.918129 144.0 
113.984894 180.0 
114.006653 224.0 
114.113655 240.0 
114.131897 188.0 
114.167023 156.0 
114.27317 64.0 
114.300339 160.0 
114.366798 100.0 
114.39447 144.0 
114.460854 200.0 
114.481766 156.0 
114.498802 112.0 
114.575485 156.0 
114.594666 224.0 
114.637276 88.0 
114.664986 116.0 
114.690559 164.0 
114.722534 84.0 
114.754517 124.0 
114.86541 132.0 
114.955017 172.0 
114.990288 220.0 
115.0522 128.0 
115.149292 140.0 
115.197815 128.0 
115.271439 112.0 
115.309525 296.0 
115.361832 144.0 
115.404846 168.0 
115.424965 92.0 
115.44635 132.0 
115.465599 144.0 
115.480568 112.0 
115.499817 108.0 
115.549019 136.0 
115.581116 168.0 
115.720299 148.0 
115.799469 76.0 
115.870163 156.0 
115.953728 72.0 
116.035187 124.0 
116.052338 128.0 
116.093079 140.0 
116.112381 148.0 
116.158485 224.0 
116.194923 192.0 
116.215347 52.0 
116.322655 160.0 
116.412827 184.0 
116.533119 136.0 
116.624062 300.0 
116.668518 120.0 
116.698616 152.0 
116.769577 148.0 
116.855621 48.0 
116.872833 116.0 
116.943848 188.0 
116.963219 52.0 
116.991028 48.0 
117.029144 148.0 
117.067154 528.0 
117.217354 156.0 
117.288475 112.0 
117.327278 176.0 
117.426468 160.0 
117.445 92.0 
117.49334 192.0 
117.514915 156.0 
117.532173 172.0 
117.601234 160.0 
117.67247 120.0 
117.713493 128.0 
117.748299 312.0 
117.865761 124.0 
117.881989 40.0 
117.940338 220.0 
118.039787 148.0 
118.06443 296.0 
118.11116 220.0 
118.287033 188.0 
118.33622 192.0 
118.386024 216.0 
118.470497 56.0 
118.491478 164.0 
118.5355 132.0 
118.557167 132.0 
118.583778 144.0 
118.621445 268.0 
118.672272 312.0 
118.688995 172.0 
118.743614 80.0 
118.815193 152.0 
118.849907 204.0 
118.869438 144.0 
118.916672 188.0 
118.945396 112.0 
118.984749 128.0 
119.02356 180.0 
119.046997 728.0 
119.072029 296.0 
119.124443 168.0 
119.286438 132.0 
119.301659 152.0 
119.344727 296.0 
119.382103 212.0 
119.586609 92.0 
119.608376 180.0 
119.623611 276.0 
119.660622 76.0 
119.719414 168.0 
119.739014 64.0 
119.830505 180.0 
119.871902 172.0 
119.893692 116.0 
119.952896 148.0 
120.029556 136.0 
120.052101 264.0 
120.080765 308.0 
120.120453 72.0 
120.206123 164.0 
120.252701 120.0 
120.301575 72.0 
120.356155 164.0 
120.434769 124.0 
120.539131 196.0 
120.572418 72.0 
120.607307 108.0 
120.612305 144.0 
120.642365 192.0 
120.659851 204.0 
120.710144 100.0 
120.758255 88.0 
120.799812 80.0 
120.838058 172.0 
120.86824 144.0 
120.942039 172.0 
120.959557 96.0 
120.994583 108.0 
121.037933 160.0 
121.065674 2984.0 
121.08773 588.0 
121.147881 28.0 
121.209229 60.0 
121.244286 80.0 
121.272781 120.0 
121.371277 116.0 
121.395554 96.0 
121.419678 192.0 
121.513176 188.0 
121.537582 192.0 
121.582024 132.0 
121.827942 136.0 
121.849907 164.0 
121.983963 156.0 
122.039093 724.0 
122.066315 500.0 
122.128777 140.0 
122.250092 168.0 
122.333221 208.0 
122.371155 220.0 
122.399124 156.0 
122.417397 60.0 
122.492432 172.0 
122.509903 160.0 
122.534142 192.0 
122.569389 48.0 
122.696915 168.0 
122.728096 184.0 
122.767448 208.0 
122.828438 96.0 
122.890472 200.0 
122.955307 152.0 
122.988243 160.0 
123.008278 196.0 
123.023727 276.0 
123.046799 196.0 
123.071503 284.0 
123.112549 176.0 
123.136345 148.0 
123.154015 164.0 
123.176102 132.0 
123.19503 288.0 
123.242378 48.0 
123.257843 104.0 
123.304253 192.0 
123.368355 140.0 
123.388557 116.0 
123.428047 208.0 
123.46122 184.0 
123.591728 92.0 
123.69059 204.0 
123.719986 160.0 
123.753304 132.0 
123.866119 136.0 
123.90834 136.0 
123.948227 104.0 
123.976402 160.0 
123.992546 256.0 
124.045738 116.0 
124.061256 144.0 
124.103386 148.0 
124.125557 56.0 
124.165474 144.0 
124.209831 76.0 
124.254204 196.0 
124.313919 92.0 
124.440628 148.0 
124.485039 120.0 
124.60276 120.0 
124.66053 72.0 
124.732147 180.0 
124.7939 188.0 
124.851715 112.0 
125.060852 160.0 
125.238976 200.0 
125.365967 96.0 
125.461807 52.0 
125.611221 160.0 
125.683357 216.0 
125.716087 88.0 
125.74733 112.0 
125.762955 140.0 
125.816528 180.0 
125.836617 152.0 
125.856712 188.0 
125.905838 176.0 
125.921478 128.0 
125.99971 156.0 
126.073395 224.0 
126.106918 144.0 
126.149239 184.0 
126.160706 184.0 
126.189629 80.0 
126.205276 196.0 
126.23658 76.0 
126.254471 144.0 
126.379738 176.0 
126.395401 200.0 
126.459518 156.0 
126.525093 180.0 
126.574478 180.0 
126.594627 128.0 
126.636726 156.0 
126.695419 324.0 
126.733513 284.0 
126.764877 316.0 
126.794014 132.0 
126.892639 180.0 
126.928001 140.0 
126.998039 52.0 
127.027069 140.0 
127.098991 72.0 
127.170807 176.0 
127.197739 164.0 
127.258263 204.0 
127.312248 124.0 
127.357162 156.0 
127.399841 200.0 
127.467499 180.0 
127.516685 216.0 
127.55265 148.0 
127.570633 112.0 
127.591385 160.0 
127.631927 184.0 
127.658318 132.0 
127.757286 160.0 
127.795532 168.0 
127.81353 164.0 
127.878792 76.0 
127.937317 176.0 
127.981102 124.0 
128.012634 196.0 
128.059967 156.0 
128.099457 40.0 
128.117035 140.0 
128.131714 164.0 
128.234467 148.0 
128.338348 136.0 
128.406006 124.0 
128.430817 160.0 
128.484955 144.0 
128.5233 132.0 
128.572952 60.0 
128.588745 132.0 
128.611328 184.0 
128.631638 100.0 
128.730972 112.0 
128.748032 160.0 
128.76358 156.0 
128.791962 160.0 
128.84166 168.0 
128.932037 164.0 
128.950119 140.0 
129.026978 136.0 
129.059021 136.0 
129.108368 148.0 
129.144562 92.0 
129.219208 100.0 
129.250885 112.0 
129.335266 84.0 
129.379898 212.0 
129.395737 148.0 
129.413849 184.0 
129.436493 76.0 
129.50444 136.0 
129.554276 136.0 
129.606384 108.0 
129.629044 160.0 
129.667572 212.0 
129.7061 124.0 
129.814926 44.0 
129.859268 164.0 
129.911575 176.0 
129.94194 144.0 
130.012283 204.0 
130.042542 392.0 
130.061951 172.0 
130.116699 160.0 
130.173462 140.0 
130.271133 124.0 
130.32338 60.0 
130.388474 232.0 
130.414291 184.0 
130.440353 128.0 
130.459747 100.0 
130.496124 220.0 
130.613464 60.0 
130.700821 252.0 
130.730408 164.0 
130.76683 132.0 
130.841934 188.0 
130.887482 108.0 
130.93074 100.0 
130.974014 148.0 
130.996796 160.0 
131.047302 276.0 
131.083374 200.0 
131.103882 164.0 
131.177414 76.0 
131.21553 184.0 
131.247406 208.0 
131.286255 96.0 
131.310989 128.0 
131.363815 116.0 
131.388901 108.0 
131.459641 136.0 
131.491592 180.0 
131.555496 136.0 
131.573761 188.0 
131.599045 164.0 
131.643005 196.0 
131.671951 128.0 
131.75914 212.0 
131.786133 140.0 
131.822723 44.0 
131.870712 228.0 
131.900436 52.0 
131.930145 244.0 
131.964447 184.0 
132.028809 136.0 
132.057037 756.0 
132.083359 132.0 
132.106705 176.0 
132.161148 168.0 
132.177155 124.0 
132.276917 184.0 
132.296173 140.0 
132.321259 188.0 
132.435852 96.0 
132.465637 120.0 
132.518326 140.0 
132.536652 196.0 
132.584778 168.0 
132.642075 120.0 
132.735336 184.0 
132.757751 120.0 
132.783493 356.0 
132.862228 136.0 
132.905823 144.0 
132.960251 188.0 
132.97731 216.0 
133.02417 304.0 
133.063843 684.0 
133.113831 392.0 
133.188187 180.0 
133.222656 112.0 
133.261703 348.0 
133.296173 204.0 
133.319153 76.0 
133.346725 140.0 
133.400909 272.0 
133.452469 36.0 
133.50766 96.0 
133.59967 108.0 
133.622665 204.0 
133.695602 144.0 
133.704865 100.0 
133.739151 136.0 
133.761581 276.0 
133.821487 176.0 
133.848236 48.0 
133.889679 152.0 
133.963394 380.0 
134.007172 156.0 
134.038757 820.0 
134.111588 236.0 
134.213165 192.0 
134.276871 68.0 
134.307693 176.0 
134.325256 172.0 
134.350677 84.0 
134.378372 88.0 
134.496063 136.0 
134.636902 132.0 
134.690018 216.0 
134.736221 96.0 
134.76857 252.0 
134.786377 208.0 
134.869476 84.0 
134.921478 124.0 
134.953476 176.0 
135.016998 228.0 
135.044067 256.0 
135.075897 128.0 
135.131561 152.0 
135.233383 128.0 
135.256531 192.0 
135.28894 72.0 
135.374603 168.0 
135.393127 152.0 
135.409348 164.0 
135.43251 48.0 
135.451035 144.0 
135.49968 164.0 
135.559937 164.0 
135.610916 132.0 
135.687408 120.0 
135.756973 184.0 
135.940231 172.0 
135.972733 28.0 
136.039825 348.0 
136.054703 596.0 
136.231232 180.0 
136.256012 148.0 
136.2901 108.0 
136.375061 172.0 
136.40242 152.0 
136.421021 64.0 
136.439621 160.0 
136.532455 108.0 
136.58844 80.0 
136.614029 108.0 
136.669876 168.0 
136.690811 204.0 
136.714081 108.0 
136.821152 204.0 
136.92128 172.0 
136.943558 136.0 
136.967865 220.0 
137.027359 320.0 
137.048355 196.0 
137.064392 416.0 
137.080826 156.0 
137.140289 152.0 
137.165924 120.0 
137.191559 152.0 
137.240524 160.0 
137.298828 232.0 
137.340805 124.0 
137.424789 84.0 
137.441116 152.0 
137.462128 96.0 
137.5065 296.0 
137.567993 88.0 
137.634247 212.0 
137.644913 104.0 
137.64946 140.0 
137.710968 164.0 
137.765503 188.0 
137.809692 164.0 
137.887146 104.0 
137.912994 132.0 
137.975967 140.0 
138.062485 304.0 
138.078857 128.0 
138.149033 100.0 
138.28006 120.0 
138.401947 124.0 
138.433533 268.0 
138.507187 64.0 
138.564285 244.0 
138.631607 148.0 
138.657135 48.0 
138.713394 132.0 
138.811859 184.0 
138.85173 160.0 
138.885544 192.0 
138.90567 204.0 
138.926788 172.0 
139.05336 148.0 
139.128601 144.0 
139.18248 132.0 
139.229568 116.0 
139.248367 132.0 
139.335281 204.0 
139.368164 184.0 
139.398712 32.0 
139.43161 136.0 
139.490952 132.0 
139.510376 240.0 
139.529648 96.0 
139.561554 164.0 
139.589233 80.0 
139.62204 124.0 
139.678497 52.0 
139.721695 168.0 
139.826721 252.0 
139.904404 132.0 
139.963257 124.0 
139.985718 156.0 
140.03862 140.0 
140.085358 204.0 
140.154053 200.0 
140.231384 132.0 
140.284866 140.0 
140.348984 200.0 
140.373276 164.0 
140.443085 140.0 
140.459076 136.0 
140.484116 92.0 
140.590027 68.0 
140.663467 148.0 
140.682358 68.0 
140.776794 232.0 
140.850006 164.0 
140.868912 204.0 
140.937424 112.0 
140.994141 104.0 
141.013046 140.0 
141.072128 172.0 
141.126511 108.0 
141.147797 132.0 
141.187729 140.0 
141.197525 124.0 
141.250839 276.0 
141.282608 92.0 
141.355957 136.0 
141.372513 72.0 
141.422211 168.0 
141.484406 244.0 
141.549149 104.0 
141.580841 148.0 
141.635315 160.0 
141.696915 48.0 
141.775528 248.0 
141.820129 84.0 
141.893448 108.0 
141.913437 156.0 
141.998779 184.0 
142.027573 124.0 
142.058304 136.0 
142.125977 128.0 
142.145035 96.0 
142.28508 96.0 
142.332565 36.0 
142.451309 80.0 
142.483704 176.0 
142.513077 144.0 
142.627151 148.0 
142.686584 236.0 
142.734909 296.0 
142.810242 328.0 
142.936325 68.0 
142.957748 212.0 
143.022003 164.0 
143.055939 216.0 
143.081512 112.0 
143.162567 156.0 
143.205338 44.0 
143.233917 92.0 
143.274414 152.0 
143.2948 144.0 
143.50798 156.0 
143.564667 192.0 
143.705948 204.0 
143.77037 192.0 
143.789459 252.0 
143.889465 180.0 
144.016281 224.0 
144.044952 176.0 
144.064713 176.0 
144.104675 144.0 
144.142899 180.0 
144.233719 96.0 
144.253082 156.0 
144.300659 148.0 
144.408264 108.0 
144.45076 204.0 
144.487198 140.0 
144.518311 116.0 
144.578568 172.0 
144.66539 240.0 
144.700211 144.0 
144.716965 328.0 
144.762466 196.0 
144.779221 116.0 
144.824722 160.0 
144.863052 196.0 
144.925339 264.0 
144.954102 116.0 
145.024582 368.0 
145.065308 288.0 
145.102707 176.0 
145.133881 52.0 
145.190353 160.0 
145.215408 116.0 
145.232193 140.0 
145.286713 160.0 
145.30896 148.0 
145.349747 124.0 
145.368942 112.0 
145.422562 188.0 
145.445755 208.0 
145.488953 156.0 
145.519119 248.0 
145.546967 220.0 
145.624802 160.0 
145.77478 60.0 
145.791595 68.0 
145.825241 168.0 
145.858902 136.0 
145.878128 168.0 
145.921402 132.0 
145.947845 96.0 
145.991272 136.0 
146.033218 168.0 
146.039795 456.0 
146.057877 428.0 
146.108994 112.0 
146.14267 36.0 
146.242355 212.0 
146.287079 212.0 
146.32962 256.0 
146.428055 108.0 
146.506226 84.0 
146.61705 172.0 
146.689499 152.0 
146.708389 148.0 
146.756866 64.0 
146.806534 128.0 
146.850922 164.0 
146.901566 132.0 
147.047913 532.0 
147.069382 852.0 
147.159805 160.0 
147.188782 44.0 
147.232239 76.0 
147.287796 164.0 
147.336105 64.0 
147.386841 164.0 
147.415848 168.0 
147.453461 120.0 
147.507965 168.0 
147.609222 224.0 
147.660019 184.0 
147.691452 104.0 
147.812424 124.0 
147.897125 172.0 
147.914062 160.0 
147.931015 48.0 
147.960068 204.0 
148.018433 112.0 
148.05307 592.0 
148.075943 824.0 
148.16803 92.0 
148.204681 180.0 
148.226486 132.0 
148.267685 220.0 
148.299194 192.0 
148.378616 256.0 
148.476181 236.0 
148.49559 112.0 
148.536819 152.0 
148.558655 132.0 
148.743073 76.0 
148.813477 180.0 
148.840179 100.0 
148.886322 460.0 
148.908188 88.0 
148.985916 160.0 
149.023117 480.0 
149.061386 1264.0 
149.080566 392.0 
149.119553 132.0 
149.219223 160.0 
149.238678 108.0 
149.295685 72.0 
149.365128 176.0 
149.411148 232.0 
149.506241 84.0 
149.554916 140.0 
149.624191 96.0 
149.654739 160.0 
149.694031 368.0 
149.769196 116.0 
149.78624 36.0 
149.837555 124.0 
149.905624 240.0 
149.956802 184.0 
149.988495 136.0 
150.036758 160.0 
150.062607 344.0 
150.095764 208.0 
150.11908 296.0 
150.155304 192.0 
150.185989 152.0 
150.210388 104.0 
150.234772 104.0 
150.290894 216.0 
150.31041 172.0 
150.359222 100.0 
150.45549 192.0 
150.483719 104.0 
150.559418 80.0 
150.698944 160.0 
150.747787 180.0 
150.800217 128.0 
150.823273 220.0 
150.967529 204.0 
150.991989 92.0 
151.037628 380.0 
151.075989 492.0 
151.114288 112.0 
151.23909 136.0 
151.258682 120.0 
151.305191 188.0 
151.370651 168.0 
151.464371 164.0 
151.513351 124.0 
151.542099 192.0 
151.562363 196.0 
151.623627 124.0 
151.643234 172.0 
151.663513 160.0 
151.697968 108.0 
151.729019 212.0 
151.823257 212.0 
151.881058 108.0 
151.939865 132.0 
151.9841 128.0 
152.042389 152.0 
152.04657 308.0 
152.059067 196.0 
152.063812 460.0 
152.084717 236.0 
152.109268 92.0 
152.136261 128.0 
152.200104 132.0 
152.25412 156.0 
152.271317 108.0 
152.332718 176.0 
152.440826 52.0 
152.492432 92.0 
152.521667 152.0 
152.529953 136.0 
152.539825 188.0 
152.634781 124.0 
152.684204 168.0 
152.824417 48.0 
152.846558 156.0 
152.867065 204.0 
152.90979 144.0 
152.974548 144.0 
153.021317 136.0 
153.042923 176.0 
153.072128 560.0 
153.223267 68.0 
153.255295 40.0 
153.302124 224.0 
153.389572 176.0 
153.410568 88.0 
153.477142 76.0 
153.541245 100.0 
153.647308 140.0 
153.701599 224.0 
153.755157 188.0 
153.80278 128.0 
153.837341 164.0 
153.911407 144.0 
153.94104 136.0 
153.9608 312.0 
154.025009 164.0 
154.065506 132.0 
154.09433 132.0 
154.112885 224.0 
154.197968 168.0 
154.282013 48.0 
154.301788 96.0 
154.328598 152.0 
154.335632 128.0 
154.342575 112.0 
154.505219 204.0 
154.585495 148.0 
154.606186 188.0 
154.662003 248.0 
154.712524 172.0 
154.766937 108.0 
154.801605 48.0 
154.862625 152.0 
154.935349 224.0 
155.056763 116.0 
155.088989 136.0 
155.203018 212.0 
155.246979 160.0 
155.267502 148.0 
155.302078 136.0 
155.331985 168.0 
155.424362 204.0 
155.453552 116.0 
155.502655 184.0 
155.535461 192.0 
155.570816 148.0 
155.591705 200.0 
155.622345 204.0 
155.694351 260.0 
155.739059 120.0 
155.781296 104.0 
155.850861 380.0 
155.885635 128.0 
155.935349 116.0 
155.981781 204.0 
156.009918 104.0 
156.027313 152.0 
156.067245 140.0 
156.096939 228.0 
156.119324 148.0 
156.141693 140.0 
156.164246 192.0 
156.223785 136.0 
156.353714 220.0 
156.448044 172.0 
156.62207 208.0 
156.709259 168.0 
156.791489 44.0 
156.856293 164.0 
156.898666 96.0 
156.938553 144.0 
157.031906 204.0 
157.062561 160.0 
157.1306 136.0 
157.217178 144.0 
157.252884 184.0 
157.330917 212.0 
157.453415 136.0 
157.517548 176.0 
157.570007 140.0 
157.612488 92.0 
157.732452 132.0 
157.802444 196.0 
157.902466 188.0 
157.93248 192.0 
157.985016 156.0 
158.041977 296.0 
158.04567 228.0 
158.056366 124.0 
158.083542 232.0 
158.179276 188.0 
158.23027 144.0 
158.248444 184.0 
158.277847 104.0 
158.330429 140.0 
158.358643 120.0 
158.438141 156.0 
158.498276 144.0 
158.518311 176.0 
158.588486 184.0 
158.731384 104.0 
158.801346 192.0 
158.844254 140.0 
158.932053 44.0 
159.000381 180.0 
159.041138 344.0 
159.070053 292.0 
159.132843 112.0 
159.171021 140.0 
159.233292 124.0 
159.283524 100.0 
159.321213 156.0 
159.368225 180.0 
159.396591 112.0 
159.426376 140.0 
159.454391 148.0 
159.562378 188.0 
159.607727 128.0 
159.668091 92.0 
159.708328 68.0 
159.775024 72.0 
159.826569 156.0 
159.929749 168.0 
160.007782 172.0 
160.052429 624.0 
160.105988 164.0 
160.326508 172.0 
160.373047 236.0 
160.405807 148.0 
160.453705 92.0 
160.504135 144.0 
160.567184 176.0 
160.584839 112.0 
160.625137 180.0 
160.668076 208.0 
160.705917 176.0 
160.76088 180.0 
160.822006 176.0 
160.864914 176.0 
160.938126 100.0 
161.060684 596.0 
161.139069 272.0 
161.183136 232.0 
161.218521 104.0 
161.246323 164.0 
161.317627 248.0 
161.373322 216.0 
161.440979 164.0 
161.534561 328.0 
161.567459 116.0 
161.605286 204.0 
161.648422 144.0 
161.680023 172.0 
161.706619 140.0 
161.728104 196.0 
161.842606 168.0 
161.939056 164.0 
161.946259 132.0 
161.95433 168.0 
162.03244 292.0 
162.058319 672.0 
162.092728 596.0 
162.192932 52.0 
162.249756 96.0 
162.276596 76.0 
162.309555 156.0 
162.329834 192.0 
162.380554 148.0 
162.431839 264.0 
162.540375 216.0 
162.602341 116.0 
162.718048 108.0 
162.745255 212.0 
162.79422 148.0 
162.814102 188.0 
162.824509 156.0 
162.862793 152.0 
162.883118 168.0 
162.916794 140.0 
162.935745 128.0 
162.980423 132.0 
163.040848 992.0 
163.062469 384.0 
163.127762 144.0 
163.16478 208.0 
163.294876 136.0 
163.360199 124.0 
163.38855 216.0 
163.416977 128.0 
163.518768 76.0 
163.54422 248.0 
163.577316 140.0 
163.612946 260.0 
163.668961 128.0 
163.696976 200.0 
163.785629 148.0 
163.941528 36.0 
163.969559 176.0 
163.998505 112.0 
164.047485 1416.0 
164.107208 128.0 
164.135269 136.0 
164.293396 168.0 
164.324005 204.0 
164.408218 128.0 
164.487335 124.0 
164.543854 204.0 
164.573929 152.0 
164.626602 168.0 
164.677719 124.0 
164.742691 140.0 
164.791229 140.0 
164.824448 156.0 
164.870453 196.0 
164.95224 212.0 
165.021088 180.0 
165.054993 1856.0 
165.118439 64.0 
165.138901 80.0 
165.205399 164.0 
165.228424 156.0 
165.261688 76.0 
165.29097 388.0 
165.351257 124.0 
165.410126 116.0 
165.52533 156.0 
165.563736 32.0 
165.594467 176.0 
165.625214 68.0 
165.673874 232.0 
165.696945 72.0 
165.741455 188.0 
165.794312 116.0 
165.825058 112.0 
165.886871 72.0 
165.935287 64.0 
166.018875 148.0 
166.056824 272.0 
166.080505 540.0 
166.130203 120.0 
166.186172 180.0 
166.235397 80.0 
166.258484 176.0 
166.276825 136.0 
166.360764 220.0 
166.424103 156.0 
166.453583 180.0 
166.487625 124.0 
166.528061 56.0 
166.546036 108.0 
166.682205 204.0 
166.701767 196.0 
166.74324 192.0 
166.761871 188.0 
166.826126 72.0 
166.883911 152.0 
166.934113 92.0 
167.011276 148.0 
167.054153 196.0 
167.084656 144.0 
167.224243 88.0 
167.271149 100.0 
167.338089 80.0 
167.392166 148.0 
167.513214 172.0 
167.544128 204.0 
167.608536 76.0 
167.662659 144.0 
167.685852 196.0 
167.764969 164.0 
167.785126 328.0 
167.836761 148.0 
167.858856 180.0 
167.879196 32.0 
167.982376 204.0 
168.023651 96.0 
168.055801 164.0 
168.092972 124.0 
168.124023 164.0 
168.133896 148.0 
168.209457 124.0 
168.259872 188.0 
168.457001 180.0 
168.466187 160.0 
168.509018 160.0 
168.586533 56.0 
168.705429 156.0 
168.770905 124.0 
168.889023 136.0 
168.960861 172.0 
169.013199 172.0 
169.03746 172.0 
169.06868 256.0 
169.096008 112.0 
169.129654 112.0 
169.178024 208.0 
169.217682 192.0 
169.240982 140.0 
169.28241 124.0 
169.303131 200.0 
169.358246 352.0 
169.403351 156.0 
169.461136 80.0 
169.481857 124.0 
169.502594 100.0 
169.530701 180.0 
169.559601 132.0 
169.580338 88.0 
169.616623 216.0 
169.676254 212.0 
169.785156 200.0 
169.803314 88.0 
169.825531 168.0 
169.878525 136.0 
169.90448 112.0 
169.928848 216.0 
169.995285 84.0 
170.013458 152.0 
170.052383 148.0 
170.141373 168.0 
170.164001 132.0 
170.187378 156.0 
170.228912 148.0 
170.259842 172.0 
170.299591 132.0 
170.327606 152.0 
170.408142 188.0 
170.46225 184.0 
170.486099 292.0 
170.579666 176.0 
170.618652 124.0 
170.644653 112.0 
170.78685 372.0 
170.951584 236.0 
171.014542 148.0 
171.034866 180.0 
171.088058 388.0 
171.110367 76.0 
171.14682 156.0 
171.227539 128.0 
171.280502 96.0 
171.316101 112.0 
171.389053 200.0 
171.472443 100.0 
171.498505 84.0 
171.542816 120.0 
171.56517 176.0 
171.587143 212.0 
171.621033 244.0 
171.657532 108.0 
171.694046 40.0 
171.73056 96.0 
171.754028 200.0 
171.774902 104.0 
171.832291 168.0 
171.856781 188.0 
171.881866 204.0 
171.90535 128.0 
171.927017 172.0 
172.055634 208.0 
172.08284 128.0 
172.142899 124.0 
172.213409 60.0 
172.233154 184.0 
172.336197 92.0 
172.404129 136.0 
172.447891 156.0 
172.545288 164.0 
172.57666 160.0 
172.6185 124.0 
172.710037 364.0 
172.730957 152.0 
172.780655 164.0 
172.871094 92.0 
172.99263 120.0 
173.014801 112.0 
173.054581 188.0 
173.089508 120.0 
173.196152 144.0 
173.313324 196.0 
173.359314 60.0 
173.37767 160.0 
173.406494 104.0 
173.461533 144.0 
173.500854 204.0 
173.537567 124.0 
173.639832 124.0 
173.794601 148.0 
173.822861 140.0 
173.880035 116.0 
173.910065 212.0 
173.952072 164.0 
173.988815 180.0 
174.034073 500.0 
174.055939 1236.0 
174.096512 156.0 
174.127991 124.0 
174.16214 168.0 
174.200363 108.0 
174.221573 160.0 
174.246124 148.0 
174.305267 104.0 
174.332901 168.0 
174.351303 192.0 
174.40387 168.0 
174.487991 212.0 
174.553726 48.0 
174.601059 64.0 
174.674698 144.0 
174.699524 156.0 
174.847992 148.0 
174.929993 152.0 
174.997772 84.0 
175.039398 648.0 
175.065628 1152.0 
175.165756 248.0 
175.211487 140.0 
175.261795 64.0 
175.332932 164.0 
175.385651 164.0 
175.451996 48.0 
175.612411 124.0 
175.752808 72.0 
175.849869 136.0 
175.89473 96.0 
175.976578 156.0 
176.04985 1356.0 
176.067276 992.0 
176.145096 308.0 
176.173416 164.0 
176.208984 64.0 
176.248627 140.0 
176.279968 176.0 
176.351685 52.0 
176.425323 140.0 
176.468002 368.0 
176.500183 140.0 
176.557907 252.0 
176.596985 88.0 
176.617294 124.0 
176.658417 184.0 
176.687515 112.0 
176.708679 140.0 
176.733444 200.0 
176.81189 148.0 
176.848938 140.0 
176.952179 128.0 
176.975998 164.0 
177.010422 196.0 
177.05603 2548.0 
177.073578 1308.0 
177.108414 248.0 
177.126953 172.0 
177.150803 140.0 
177.193192 156.0 
177.229248 124.0 
177.251663 56.0 
177.289841 100.0 
177.315079 144.0 
177.362793 160.0 
177.386642 136.0 
177.490036 132.0 
177.588165 212.0 
177.606735 120.0 
177.66095 136.0 
177.694275 44.0 
177.712845 152.0 
177.790878 88.0 
177.798187 252.0 
177.83226 184.0 
177.88269 92.0 
177.906433 204.0 
177.982346 156.0 
178.023407 224.0 
178.061447 592.0 
178.080124 824.0 
178.137619 308.0 
178.18335 204.0 
178.219025 136.0 
178.267807 100.0 
178.292404 212.0 
178.347534 44.0 
178.419312 196.0 
178.48053 152.0 
178.525665 160.0 
178.548035 204.0 
178.576599 208.0 
178.655991 48.0 
178.7061 144.0 
178.759766 144.0 
178.778397 92.0 
178.892838 88.0 
178.930115 112.0 
178.951416 164.0 
179.035339 356.0 
179.071228 10920.0 
179.138626 256.0 
179.185791 108.0 
179.234512 176.0 
179.259323 160.0 
179.279663 344.0 
179.369659 120.0 
179.417648 176.0 
179.462967 144.0 
179.587204 116.0 
179.614975 108.0 
179.665665 96.0 
179.711029 120.0 
179.7724 56.0 
179.803635 284.0 
179.86676 200.0 
179.944916 196.0 
179.983276 220.0 
180.007309 108.0 
180.044495 452.0 
180.073212 1692.0 
180.172897 164.0 
180.204971 204.0 
180.226334 88.0 
180.269089 60.0 
180.290466 136.0 
180.373322 176.0 
180.430328 160.0 
180.471893 156.0 
180.499283 172.0 
180.523041 144.0 
180.545853 76.0 
180.662781 132.0 
180.822678 396.0 
180.862823 200.0 
180.884537 176.0 
180.924393 76.0 
180.953842 256.0 
180.997452 196.0 
181.065918 1344.0 
181.099213 236.0 
181.180206 212.0 
181.202927 112.0 
181.235077 88.0 
181.28331 112.0 
181.339584 132.0 
181.422684 116.0 
181.454849 164.0 
181.497742 96.0 
181.610382 156.0 
181.665649 172.0 
181.739151 128.0 
181.765991 136.0 
181.794891 228.0 
181.827713 152.0 
181.872055 168.0 
181.908234 120.0 
181.962448 184.0 
182.045151 140.0 
182.071503 284.0 
182.081848 260.0 
182.149902 148.0 
182.174088 152.0 
182.195572 124.0 
182.228897 168.0 
182.254684 44.0 
182.297668 60.0 
182.331268 136.0 
182.355774 72.0 
182.415924 164.0 
182.480453 128.0 
182.51152 148.0 
182.558426 184.0 
182.585327 128.0 
182.655258 168.0 
182.684845 252.0 
182.703674 180.0 
182.781708 152.0 
182.800537 144.0 
182.864822 168.0 
182.902802 148.0 
182.953949 156.0 
183.038727 292.0 
183.073822 288.0 
183.190933 132.0 
183.213867 216.0 
183.400162 148.0 
183.449631 144.0 
183.487137 176.0 
183.514343 140.0 
183.613037 212.0 
183.670746 120.0 
183.746292 192.0 
183.781357 108.0 
183.805649 44.0 
183.870407 92.0 
183.902802 168.0 
183.929794 168.0 
184.054214 180.0 
184.089233 136.0 
184.149292 136.0 
184.180908 152.0 
184.218719 124.0 
184.329559 180.0 
184.366104 44.0 
184.429489 176.0 
184.46463 160.0 
184.618744 52.0 
184.640152 144.0 
184.670135 196.0 
184.737747 144.0 
184.789154 204.0 
184.835159 144.0 
184.875748 104.0 
184.924454 168.0 
184.966202 152.0 
185.008377 176.0 
185.062515 164.0 
185.087463 224.0 
185.165421 140.0 
185.187088 88.0 
185.270203 176.0 
185.338791 176.0 
185.37944 152.0 
185.40654 172.0 
185.447189 176.0 
185.481918 168.0 
185.512253 100.0 
185.596298 100.0 
185.662598 400.0 
185.691208 152.0 
185.73732 108.0 
186.047073 204.0 
186.110413 100.0 
186.166138 164.0 
186.308929 144.0 
186.372574 128.0 
186.412109 200.0 
186.459534 172.0 
186.537872 156.0 
186.603607 192.0 
186.644394 116.0 
186.713821 128.0 
186.894638 156.0 
186.95108 124.0 
186.978989 160.0 
187.057922 152.0 
187.116425 140.0 
187.172272 104.0 
187.204956 80.0 
187.259415 160.0 
187.292099 120.0 
187.330231 160.0 
187.359589 160.0 
187.394714 144.0 
187.542084 156.0 
187.575073 184.0 
187.67363 112.0 
187.714539 52.0 
187.769073 116.0 
187.823624 44.0 
187.869995 208.0 
187.916931 176.0 
188.048401 1276.0 
188.071167 664.0 
188.09848 196.0 
188.133224 96.0 
188.162003 220.0 
188.211151 104.0 
188.309143 380.0 
188.328583 220.0 
188.426575 156.0 
188.473373 68.0 
188.500702 144.0 
188.540741 236.0 
188.590881 124.0 
188.69902 316.0 
188.751465 152.0 
188.760773 112.0 
188.769501 168.0 
188.795929 224.0 
188.891663 172.0 
188.95784 148.0 
189.017166 124.0 
189.057816 1656.0 
189.113297 172.0 
189.210205 220.0 
189.266418 116.0 
189.31041 144.0 
189.337799 60.0 
189.378876 40.0 
189.400787 148.0 
189.44696 136.0 
189.495163 188.0 
189.515854 136.0 
189.553223 168.0 
189.595322 124.0 
189.633698 148.0 
189.667511 176.0 
189.776245 140.0 
189.794373 196.0 
189.910614 228.0 
189.943527 76.0 
189.962723 100.0 
190.028748 124.0 
190.064194 968.0 
190.080597 984.0 
190.127823 212.0 
190.172134 148.0 
190.195969 124.0 
190.24263 184.0 
190.261856 132.0 
190.311676 108.0 
190.342041 136.0 
190.364182 164.0 
190.404633 144.0 
190.462311 168.0 
190.53923 120.0 
190.577698 120.0 
190.59967 176.0 
190.668579 180.0 
190.756332 172.0 
190.842499 188.0 
190.867355 104.0 
190.985977 296.0 
191.009308 204.0 
191.062622 2964.0 
191.140762 164.0 
191.166138 52.0 
191.204666 188.0 
191.256958 108.0 
191.42215 132.0 
191.457062 180.0 
191.526794 160.0 
191.55986 104.0 
191.579132 208.0 
191.616699 132.0 
191.642502 108.0 
191.666656 172.0 
191.722412 124.0 
191.75824 224.0 
191.784424 152.0 
191.836945 276.0 
191.901505 136.0 
191.976044 120.0 
191.996216 180.0 
192.060257 1056.0 
192.129532 172.0 
192.238998 172.0 
192.265701 60.0 
192.293304 56.0 
192.365067 112.0 
192.392899 144.0 
192.489822 232.0 
192.530014 204.0 
192.577682 104.0 
192.610825 124.0 
192.655823 124.0 
192.790405 160.0 
192.818054 148.0 
192.850952 172.0 
192.877136 148.0 
192.909256 88.0 
192.967316 180.0 
193.011551 200.0 
193.051941 2632.0 
193.110138 168.0 
193.152603 44.0 
193.220734 128.0 
193.241867 164.0 
193.265869 136.0 
193.329315 248.0 
193.381134 148.0 
193.415207 84.0 
193.492981 64.0 
193.51651 120.0 
193.648697 136.0 
193.782684 180.0 
193.839203 112.0 
193.86969 168.0 
193.916809 172.0 
193.941742 136.0 
194.071213 764.0 
194.260635 60.0 
194.285599 132.0 
194.321671 148.0 
194.361206 144.0 
194.411835 264.0 
194.44931 120.0 
194.539139 180.0 
194.607544 284.0 
194.650208 184.0 
194.699173 136.0 
194.829727 148.0 
194.86824 156.0 
194.944595 164.0 
194.97226 108.0 
195.078262 1080.0 
195.103348 140.0 
195.154892 116.0 
195.263351 104.0 
195.291153 52.0 
195.310623 132.0 
195.349579 104.0 
195.380173 112.0 
195.402435 96.0 
195.435822 176.0 
195.474777 212.0 
195.50412 184.0 
195.611221 164.0 
195.629517 400.0 
195.764282 200.0 
195.836685 164.0 
195.861755 352.0 
195.970398 80.0 
195.999847 120.0 
196.082764 360.0 
196.159912 144.0 
196.261505 136.0 
196.290955 140.0 
196.31604 104.0 
196.50293 136.0 
196.631287 116.0 
196.860214 176.0 
196.899307 356.0 
196.959869 164.0 
197.00824 160.0 
197.059509 204.0 
197.100967 108.0 
197.135544 164.0 
197.198257 136.0 
197.275314 164.0 
197.34082 32.0 
197.451553 100.0 
197.533783 196.0 
197.605194 92.0 
197.626892 200.0 
197.721252 164.0 
197.780029 108.0 
197.80098 132.0 
197.845886 136.0 
197.897598 120.0 
197.970413 232.0 
197.990005 136.0 
198.034821 164.0 
198.065781 156.0 
198.090851 108.0 
198.108719 188.0 
198.160355 168.0 
198.176788 420.0 
198.21463 152.0 
198.244949 108.0 
198.341248 184.0 
198.396301 188.0 
198.44957 236.0 
198.508453 212.0 
198.570145 172.0 
198.623444 148.0 
198.643066 72.0 
198.67157 200.0 
198.704788 128.0 
198.786163 84.0 
198.864746 144.0 
199.061554 156.0 
199.112579 88.0 
199.151123 220.0 
199.204498 124.0 
199.229782 200.0 
199.266296 64.0 
199.301315 164.0 
199.342163 132.0 
199.367035 132.0 
199.391373 180.0 
199.49675 148.0 
199.558609 204.0 
199.584702 284.0 
199.68335 156.0 
199.745911 152.0 
199.772339 196.0 
199.794846 40.0 
199.82579 96.0 
199.859558 84.0 
199.938354 140.0 
199.989014 120.0 
200.017151 104.0 
200.050156 188.0 
200.158936 156.0 
200.209961 96.0 
200.276199 164.0 
200.31282 188.0 
200.439606 100.0 
200.529236 248.0 
200.608704 128.0 
200.6651 192.0 
200.797623 180.0 
200.856857 184.0 
200.928818 236.0 
200.937164 120.0 
200.947983 172.0 
200.982819 388.0 
201.019226 232.0 
201.02684 128.0 
201.075424 344.0 
201.128784 152.0 
201.167252 176.0 
201.240494 176.0 
201.288666 160.0 
201.323456 212.0 
201.394028 180.0 
201.421402 92.0 
201.451324 176.0 
201.535995 128.0 
201.571136 164.0 
201.596573 156.0 
201.619171 68.0 
201.650269 152.0 
201.732239 144.0 
201.810303 164.0 
201.890579 108.0 
201.938644 248.0 
201.981079 104.0 
202.027145 196.0 
202.080093 172.0 
202.136688 156.0 
202.156204 80.0 
202.217606 216.0 
202.389114 176.0 
202.448074 184.0 
202.499054 156.0 
202.632187 156.0 
202.68602 136.0 
202.809982 124.0 
202.932617 168.0 
202.971909 200.0 
203.01413 144.0 
203.058716 712.0 
203.16745 164.0 
203.238937 188.0 
203.292847 52.0 
203.324066 176.0 
203.358124 96.0 
203.397858 132.0 
203.473419 188.0 
203.593765 140.0 
203.629364 152.0 
203.65625 196.0 
203.758514 216.0 
203.815338 148.0 
203.916489 148.0 
203.948914 232.0 
203.967957 108.0 
204.066254 4768.0 
204.131927 60.0 
204.1604 156.0 
204.182053 172.0 
204.219025 108.0 
204.255997 204.0 
204.295822 156.0 
204.347031 148.0 
204.375488 108.0 
204.416626 184.0 
204.46199 200.0 
204.555954 116.0 
204.588501 232.0 
204.645874 88.0 
204.673065 176.0 
204.723099 172.0 
204.776596 184.0 
204.787613 156.0 
204.794525 120.0 
204.831665 188.0 
204.859482 88.0 
204.893829 140.0 
204.916458 88.0 
204.946045 96.0 
204.985916 116.0 
205.075363 57628.0 
205.140442 256.0 
205.184143 140.0 
205.249542 120.0 
205.286728 160.0 
205.294006 68.0 
205.303772 196.0 
205.345627 152.0 
205.425812 84.0 
205.455856 120.0 
205.490814 176.0 
205.540771 104.0 
205.582932 76.0 
205.63559 232.0 
205.686432 104.0 
205.730209 60.0 
205.753769 80.0 
205.800629 140.0 
205.826324 180.0 
205.863342 468.0 
205.886292 232.0 
205.918015 148.0 
205.96022 68.0 
205.994965 160.0 
206.081924 29944.0 
206.160538 348.0 
206.209122 44.0 
206.250275 152.0 
206.383514 32.0 
206.403824 264.0 
206.429657 216.0 
206.463577 148.0 
206.519089 136.0 
206.548187 328.0 
206.589432 72.0 
206.615173 56.0 
206.663818 132.0 
206.724091 136.0 
206.76683 72.0 
206.788239 192.0 
206.826813 92.0 
206.869263 112.0 
206.924271 56.0 
206.945679 48.0 
206.978378 100.0 
207.044449 320.0 
207.083115 4660.0 
207.117447 192.0 
207.151596 84.0 
207.173416 104.0 
207.202072 88.0 
207.245041 300.0 
207.285446 120.0 
207.30809 212.0 
207.331009 132.0 
207.3573 140.0 
207.386658 48.0 
207.424637 156.0 
207.452316 148.0 
207.502335 344.0 
207.524414 120.0 
207.544327 96.0 
207.600143 100.0 
207.649033 56.0 
207.712341 140.0 
207.782562 344.0 
207.818497 104.0 
207.842041 116.0 
207.875 156.0 
207.958511 172.0 
208.013641 100.0 
208.047409 484.0 
208.08902 1016.0 
208.142838 32.0 
208.190002 104.0 
208.219238 132.0 
208.282181 216.0 
208.306534 384.0 
208.341019 64.0 
208.36113 168.0 
208.384109 84.0 
208.404221 64.0 
208.424332 96.0 
208.449188 240.0 
208.535522 160.0 
208.593903 96.0 
208.620819 124.0 
208.643814 256.0 
208.691193 144.0 
208.743256 240.0 
208.803787 104.0 
208.885773 248.0 
208.920319 196.0 
208.969406 140.0 
209.0009 184.0 
209.059982 984.0 
209.096069 840.0 
209.134659 52.0 
209.195114 152.0 
209.240921 184.0 
209.26709 148.0 
209.295883 172.0 
209.471558 136.0 
209.650192 140.0 
209.681885 92.0 
209.716476 288.0 
209.746506 48.0 
209.782776 148.0 
209.924057 176.0 
210.019226 164.0 
210.06749 380.0 
210.105957 412.0 
210.146149 112.0 
210.215988 60.0 
210.264465 64.0 
210.379929 140.0 
210.424484 156.0 
210.512741 104.0 
210.564484 148.0 
210.596497 52.0 
210.747787 96.0 
210.792938 64.0 
210.872498 152.0 
210.992371 192.0 
211.044998 100.0 
211.076889 352.0 
211.139847 144.0 
211.162979 112.0 
211.189011 76.0 
211.382843 220.0 
211.446518 196.0 
211.466766 132.0 
211.530884 108.0 
211.577118 100.0 
211.611511 124.0 
211.635925 184.0 
211.657837 84.0 
211.683899 148.0 
211.741821 44.0 
211.828705 188.0 
211.883759 180.0 
211.956192 120.0 
211.993851 108.0 
212.019943 184.0 
212.079575 544.0 
212.185165 196.0 
212.257645 140.0 
212.414261 172.0 
212.478073 136.0 
212.550613 172.0 
212.626221 156.0 
212.663788 136.0 
212.820557 120.0 
213.032562 76.0 
213.056091 176.0 
213.107376 132.0 
213.137161 180.0 
213.1604 172.0 
213.189468 48.0 
213.220718 148.0 
213.227448 112.0 
213.236786 156.0 
213.283127 88.0 
213.390854 244.0 
213.422012 176.0 
213.442368 192.0 
213.51506 160.0 
213.581955 188.0 
213.602325 92.0 
213.626083 180.0 
213.801285 188.0 
213.864197 132.0 
213.91951 100.0 
213.951523 168.0 
214.041779 108.0 
214.070908 124.0 
214.100021 204.0 
214.274796 100.0 
214.306839 64.0 
214.368027 124.0 
214.444382 120.0 
214.493362 128.0 
214.612885 128.0 
214.674118 140.0 
214.790787 156.0 
214.817032 88.0 
214.916229 184.0 
215.017197 200.0 
215.069931 180.0 
215.092041 180.0 
215.118805 184.0 
215.149719 112.0 
215.174698 136.0 
215.208099 204.0 
215.2845 100.0 
215.321991 40.0 
215.604111 220.0 
215.710602 80.0 
215.880173 132.0 
215.906036 128.0 
216.061615 452.0 
216.143448 60.0 
216.211655 180.0 
216.392227 104.0 
216.459579 116.0 
216.515213 136.0 
216.559143 124.0 
216.645966 200.0 
216.676315 68.0 
216.86972 156.0 
216.913696 196.0 
216.957672 120.0 
217.004578 164.0 
217.065628 616.0 
217.124802 272.0 
217.190353 172.0 
217.239197 152.0 
217.286133 288.0 
217.347748 60.0 
217.374161 116.0 
217.439697 132.0 
217.520996 132.0 
217.58548 196.0 
217.796921 252.0 
217.820419 92.0 
217.975021 160.0 
218.081757 5144.0 
218.143646 88.0 
218.196564 96.0 
218.284256 136.0 
218.317123 104.0 
218.363586 168.0 
218.446762 156.0 
218.499496 92.0 
218.575989 96.0 
218.596588 48.0 
218.620132 120.0 
218.678314 208.0 
218.746689 52.0 
218.793228 208.0 
218.886444 196.0 
218.928497 312.0 
218.969681 228.0 
218.994064 172.0 
219.044006 336.0 
219.087067 6628.0 
219.151581 116.0 
219.177582 136.0 
219.227753 324.0 
219.327484 120.0 
219.36824 76.0 
219.395905 52.0 
219.45079 200.0 
219.486176 216.0 
219.535019 64.0 
219.593124 164.0 
219.634995 156.0 
219.67131 136.0 
219.737686 220.0 
219.761551 488.0 
219.783737 172.0 
219.801453 248.0 
219.821289 152.0 
219.87204 204.0 
219.915176 268.0 
219.924271 144.0 
219.933762 344.0 
219.947006 224.0 
219.967239 220.0 
220.056473 1996.0 
220.098785 163052.0 
220.165848 212.0 
220.198639 204.0 
220.238144 68.0 
220.26207 164.0 
220.282349 80.0 
220.308212 76.0 
220.323166 68.0 
220.343109 372.0 
220.374115 204.0 
220.398834 280.0 
220.425598 164.0 
220.46196 164.0 
220.498459 132.0 
220.509018 132.0 
220.519958 192.0 
220.553345 132.0 
220.585037 928.0 
220.61673 128.0 
220.656219 176.0 
220.678024 104.0 
220.746262 88.0 
220.766525 48.0 
220.813034 220.0 
220.843414 276.0 
220.882812 128.0 
220.915283 68.0 
220.951996 192.0 
220.961258 76.0 
220.99379 296.0 
221.060974 2040.0 
221.101257 23104.0 
221.181793 100.0 
221.203918 76.0 
221.21109 76.0 
221.260315 180.0 
221.30629 68.0 
221.313492 136.0 
221.369614 136.0 
221.402222 112.0 
221.441086 80.0 
221.484848 140.0 
221.506699 48.0 
221.540268 72.0 
221.574097 76.0 
221.604172 248.0 
221.631851 188.0 
221.687881 68.0 
221.694336 56.0 
221.726746 64.0 
221.760635 140.0 
221.794525 248.0 
221.802155 168.0 
221.831619 100.0 
221.850632 120.0 
221.883041 84.0 
221.906021 96.0 
221.931824 84.0 
222.02124 180.0 
222.067078 1556.0 
222.104202 2508.0 
222.1539 40.0 
222.189148 232.0 
222.257751 88.0 
222.284988 200.0 
222.346558 112.0 
222.416 196.0 
222.448685 108.0 
222.506424 188.0 
222.545654 104.0 
222.581284 104.0 
222.615936 132.0 
222.678726 212.0 
222.722519 36.0 
222.729675 64.0 
222.761948 116.0 
222.779892 92.0 
222.806213 88.0 
222.874023 104.0 
222.907227 160.0 
222.947769 184.0 
222.978363 120.0 
223.02327 44.0 
223.077118 2360.0 
223.109985 492.0 
223.145752 200.0 
223.177078 196.0 
223.235031 84.0 
223.289139 144.0 
223.348785 120.0 
223.389694 164.0 
223.444519 132.0 
223.467041 200.0 
223.544403 92.0 
223.610825 216.0 
223.638336 64.0 
223.643524 92.0 
223.690231 72.0 
223.752747 108.0 
223.804306 128.0 
223.898087 124.0 
223.949295 48.0 
223.970139 56.0 
224.046951 188.0 
224.083633 2564.0 
224.115295 268.0 
224.185425 108.0 
224.212463 148.0 
224.271088 40.0 
224.36647 52.0 
224.405228 100.0 
224.482758 180.0 
224.510498 92.0 
224.587143 52.0 
224.825821 136.0 
224.847778 112.0 
224.909195 124.0 
225.057755 368.0 
225.091446 832.0 
225.244095 168.0 
225.345795 176.0 
225.482834 76.0 
225.509735 216.0 
225.620346 96.0 
225.674149 136.0 
225.704056 220.0 
225.724991 56.0 
225.781799 96.0 
225.813339 140.0 
225.964264 128.0 
226.033737 208.0 
226.061157 196.0 
226.100754 412.0 
226.212418 100.0 
226.270447 216.0 
226.356369 84.0 
226.42038 100.0 
226.479156 36.0 
226.516907 200.0 
226.763794 72.0 
226.787781 108.0 
226.829742 132.0 
226.871704 140.0 
226.985641 112.0 
227.075317 136.0 
227.144592 116.0 
227.172791 60.0 
227.333603 184.0 
227.423645 164.0 
227.495682 164.0 
227.546722 116.0 
227.609772 140.0 
227.743942 160.0 
227.756149 108.0 
227.79155 200.0 
227.934189 148.0 
228.00029 136.0 
228.057404 136.0 
228.080231 212.0 
228.144836 184.0 
228.246796 60.0 
228.303925 76.0 
228.42424 68.0 
228.516937 172.0 
228.643875 208.0 
228.679993 148.0 
228.824493 52.0 
228.887711 104.0 
228.908798 28.0 
228.959991 44.0 
229.029266 32.0 
229.065277 292.0 
229.12265 116.0 
229.381805 128.0 
229.530487 76.0 
229.586838 192.0 
229.647156 288.0 
229.779877 136.0 
229.831177 112.0 
229.966965 152.0 
230.075226 432.0 
230.136017 108.0 
230.163193 80.0 
230.29306 76.0 
230.507553 84.0 
230.643555 28.0 
230.728195 124.0 
230.858215 124.0 
230.917755 180.0 
230.954987 44.0 
230.985229 128.0 
231.0495 132.0 
231.082718 576.0 
231.172256 108.0 
231.296906 156.0 
231.36351 196.0 
231.402863 156.0 
231.523987 92.0 
231.572433 40.0 
231.596664 196.0 
231.617874 156.0 
231.642105 204.0 
231.67543 208.0 
231.713211 152.0 
231.823898 44.0 
231.917847 128.0 
231.951187 124.0 
231.993622 84.0 
232.056854 476.0 
232.090469 148.0 
232.13916 48.0 
232.278351 148.0 
232.283554 92.0 
232.318741 172.0 
232.391998 136.0 
232.414719 152.0 
232.501007 144.0 
232.620056 224.0 
232.767838 156.0 
232.793884 148.0 
232.925232 132.0 
232.979904 56.0 
233.001175 44.0 
233.060364 2036.0 
233.099319 224.0 
233.153107 80.0 
233.177414 108.0 
233.230515 128.0 
233.277725 112.0 
233.341553 92.0 
233.43277 172.0 
233.578766 164.0 
233.645691 40.0 
233.746094 100.0 
233.980453 92.0 
234.068604 3644.0 
234.132706 156.0 
234.158981 88.0 
234.3246 148.0 
234.36116 124.0 
234.451218 116.0 
234.528778 164.0 
234.615433 140.0 
234.72084 180.0 
234.961792 156.0 
235.040375 412.0 
235.074875 2760.0 
235.107224 436.0 
235.316772 64.0 
235.337189 196.0 
235.407425 144.0 
235.468506 148.0 
235.563187 44.0 
235.640274 224.0 
235.734283 104.0 
235.798462 136.0 
235.879761 160.0 
235.976562 196.0 
236.044647 340.0 
236.082169 1812.0 
236.137833 144.0 
236.275482 76.0 
236.314255 440.0 
236.338684 164.0 
236.458252 132.0 
236.51416 160.0 
236.586838 324.0 
236.642746 40.0 
236.670303 180.0 
236.713684 328.0 
236.745361 156.0 
236.79892 72.0 
236.826477 128.0 
236.871658 96.0 
236.934753 196.0 
236.961273 152.0 
236.989685 160.0 
237.056 3296.0 
237.090942 1268.0 
237.214401 160.0 
237.344391 88.0 
237.384308 144.0 
237.524597 240.0 
237.577484 240.0 
237.644989 80.0 
237.681808 112.0 
237.708618 76.0 
237.749313 68.0 
237.772049 116.0 
237.795349 116.0 
237.816833 264.0 
237.951904 224.0 
238.013031 44.0 
238.059509 1660.0 
238.095566 444.0 
238.197571 152.0 
238.308167 156.0 
238.460571 168.0 
238.489487 80.0 
238.514069 72.0 
238.66069 244.0 
238.740891 232.0 
238.87384 116.0 
238.898453 156.0 
238.950012 132.0 
239.003052 92.0 
239.074051 2036.0 
239.106247 564.0 
239.224655 60.0 
239.246201 148.0 
239.270828 80.0 
239.327347 136.0 
239.358047 124.0 
239.520264 72.0 
239.584961 64.0 
239.616745 100.0 
239.674301 144.0 
239.766754 300.0 
239.931686 172.0 
240.024796 164.0 
240.076996 404.0 
240.117599 240.0 
240.19223 112.0 
240.231903 168.0 
240.287872 68.0 
240.348236 184.0 
240.389694 48.0 
240.488449 148.0 
240.584137 44.0 
240.642792 60.0 
240.667496 160.0 
240.828079 60.0 
240.902222 240.0 
240.994904 148.0 
241.053604 212.0 
241.090317 476.0 
241.282333 184.0 
241.387451 80.0 
241.409103 296.0 
241.457367 132.0 
241.546219 224.0 
241.718445 52.0 
241.811279 168.0 
241.839142 180.0 
241.870087 68.0 
241.975342 180.0 
242.043457 128.0 
242.089676 244.0 
242.13327 176.0 
242.219986 180.0 
242.260254 148.0 
242.303635 132.0 
242.427567 252.0 
242.523651 180.0 
242.740662 176.0 
242.796478 180.0 
242.818192 132.0 
242.898178 152.0 
242.970184 68.0 
243.027649 156.0 
243.037491 52.0 
243.048203 136.0 
243.062927 128.0 
243.097397 180.0 
243.227753 120.0 
243.252579 72.0 
243.355026 140.0 
243.547577 96.0 
243.640762 132.0 
243.706009 168.0 
243.780579 72.0 
243.83963 160.0 
243.898682 156.0 
243.960846 52.0 
243.988831 136.0 
244.06076 160.0 
244.113205 100.0 
244.246933 140.0 
244.489609 220.0 
245.015091 200.0 
245.059723 496.0 
245.23085 156.0 
245.368011 192.0 
245.449066 156.0 
245.486496 148.0 
245.611237 116.0 
245.670517 156.0 
245.854599 144.0 
245.902496 112.0 
245.992996 200.0 
246.067993 1556.0 
246.154282 144.0 
246.176147 64.0 
246.201126 60.0 
246.229233 144.0 
246.257339 52.0 
246.297943 184.0 
246.341675 88.0 
246.426025 80.0 
246.588516 140.0 
246.720871 184.0 
246.844864 64.0 
246.910538 220.0 
246.935562 148.0 
246.979355 176.0 
247.038605 272.0 
247.074951 1552.0 
247.264069 192.0 
247.357971 160.0 
247.447128 168.0 
247.542679 148.0 
247.564606 164.0 
247.642899 44.0 
247.667953 112.0 
247.796402 108.0 
247.884125 48.0 
247.978683 140.0 
248.009491 100.0 
248.04892 784.0 
248.089035 2832.0 
248.200729 72.0 
248.246887 100.0 
248.373215 36.0 
248.454773 132.0 
248.49556 136.0 
248.680695 92.0 
248.837662 136.0 
248.872192 376.0 
248.950699 132.0 
248.982101 188.0 
249.056366 4908.0 
249.092667 1772.0 
249.148575 76.0 
249.223984 136.0 
249.305679 40.0 
249.389664 160.0 
249.480881 184.0 
249.66597 92.0 
249.769424 104.0 
249.815033 264.0 
249.862228 152.0 
249.893692 44.0 
249.978638 100.0 
250.022415 136.0 
250.062042 3432.0 
250.095612 640.0 
250.350571 136.0 
250.371094 96.0 
250.37915 124.0 
250.417236 232.0 
250.581879 144.0 
250.625473 144.0 
250.658813 56.0 
250.803787 124.0 
250.989792 152.0 
251.032074 468.0 
251.071686 4772.0 
251.207397 28.0 
251.27681 180.0 
251.317825 148.0 
251.352524 240.0 
251.406174 64.0 
251.516647 88.0 
251.567154 64.0 
251.62822 204.0 
251.661865 48.0 
251.69133 180.0 
251.728165 84.0 
251.781113 204.0 
251.848175 96.0 
251.880264 76.0 
251.911346 56.0 
251.95874 180.0 
251.996658 120.0 
252.078934 4992.0 
252.126755 164.0 
252.258957 108.0 
252.281082 64.0 
252.372772 84.0 
252.445496 40.0 
252.489777 168.0 
252.522156 168.0 
252.578339 100.0 
252.634415 148.0 
252.673492 196.0 
252.755493 192.0 
252.793472 160.0 
252.877899 236.0 
252.929153 124.0 
253.049973 404.0 
253.084732 1264.0 
253.124222 140.0 
253.436264 160.0 
253.490128 92.0 
253.550339 60.0 
253.591553 116.0 
253.613739 60.0 
253.647018 72.0 
253.678101 236.0 
253.821274 248.0 
253.873703 64.0 
253.943481 140.0 
254.022781 140.0 
254.060699 344.0 
254.095825 1592.0 
254.146393 116.0 
254.29248 120.0 
254.321045 132.0 
254.38739 40.0 
254.590912 152.0 
254.615341 196.0 
254.711594 92.0 
254.854553 196.0 
254.879974 48.0 
254.922409 204.0 
255.066528 580.0 
255.099457 668.0 
255.16922 80.0 
255.347488 128.0 
255.430969 116.0 
255.522232 132.0 
255.573151 68.0 
255.639969 76.0 
255.741806 104.0 
255.865952 120.0 
255.888245 108.0 
255.934128 108.0 
255.983765 96.0 
256.070251 332.0 
256.19397 180.0 
256.315521 132.0 
256.356018 232.0 
256.512634 112.0 
256.534973 160.0 
256.659302 100.0 
256.697571 104.0 
256.75177 72.0 
256.837891 192.0 
256.935181 208.0 
257.010162 164.0 
257.067383 268.0 
257.132477 184.0 
257.195251 80.0 
257.227173 156.0 
257.249512 128.0 
257.329346 136.0 
257.383606 124.0 
257.434692 156.0 
257.460175 136.0 
257.596222 200.0 
257.661499 212.0 
257.71579 132.0 
257.79248 220.0 
257.88501 160.0 
257.993866 92.0 
258.062805 120.0 
258.214478 236.0 
258.308502 132.0 
258.359222 144.0 
258.454407 124.0 
258.664673 144.0 
258.72644 100.0 
258.795258 168.0 
258.84491 112.0 
258.947479 140.0 
259.041962 692.0 
259.077759 476.0 
259.12677 156.0 
259.178925 160.0 
259.205109 124.0 
259.258148 180.0 
259.338287 60.0 
259.543457 132.0 
259.601166 76.0 
259.658905 116.0 
259.748688 128.0 
259.804016 164.0 
259.996338 264.0 
260.049957 744.0 
260.08551 332.0 
260.191559 228.0 
260.230072 56.0 
260.258972 108.0 
260.313568 176.0 
260.461304 48.0 
260.493408 176.0 
260.564087 104.0 
260.602661 84.0 
260.69931 200.0 
260.811523 44.0 
260.930664 144.0 
260.982788 176.0 
261.055573 2280.0 
261.165222 84.0 
261.21347 216.0 
261.348602 172.0 
261.390167 244.0 
261.474091 108.0 
261.496613 172.0 
261.522369 56.0 
261.586761 240.0 
261.609283 148.0 
261.670441 56.0 
261.754181 72.0 
261.815338 52.0 
261.84433 60.0 
261.918427 276.0 
261.989288 132.0 
262.016693 164.0 
262.064362 4596.0 
262.172943 84.0 
262.240631 68.0 
262.372284 200.0 
262.45166 188.0 
262.488861 92.0 
262.543671 76.0 
262.569489 60.0 
262.643646 268.0 
262.727539 184.0 
262.872711 216.0 
262.974548 152.0 
263.029327 172.0 
263.070648 8524.0 
263.16571 52.0 
263.19278 180.0 
263.276245 52.0 
263.300568 152.0 
263.363434 80.0 
263.418365 84.0 
263.631592 96.0 
263.74472 176.0 
263.785187 196.0 
263.822296 124.0 
263.934784 156.0 
263.958099 104.0 
263.990417 80.0 
264.079193 5928.0 
264.197418 120.0 
264.229797 124.0 
264.341034 52.0 
264.41098 96.0 
264.468628 232.0 
264.491913 204.0 
264.513763 200.0 
264.614716 180.0 
264.642151 116.0 
264.673187 44.0 
264.805969 176.0 
264.843933 180.0 
264.925812 140.0 
264.954987 396.0 
265.001862 156.0 
265.050995 10040.0 
265.085175 5764.0 
265.179779 108.0 
265.224945 52.0 
265.259369 132.0 
265.308228 68.0 
265.371826 116.0 
265.395752 68.0 
265.435852 88.0 
265.473572 92.0 
265.567627 76.0 
265.660126 140.0 
265.733063 32.0 
265.76062 72.0 
265.835571 108.0 
265.866119 60.0 
265.939667 228.0 
265.999176 164.0 
266.056885 2740.0 
266.093689 1292.0 
266.223206 144.0 
266.278412 44.0 
266.358673 192.0 
266.424591 48.0 
266.499329 172.0 
266.590302 32.0 
266.625153 220.0 
266.652039 84.0 
266.762573 80.0 
266.811218 112.0 
266.84964 128.0 
266.855682 100.0 
266.870972 192.0 
266.924408 220.0 
266.970642 172.0 
267.016174 212.0 
267.06662 3536.0 
267.100037 2044.0 
267.162537 108.0 
267.188568 96.0 
267.234131 64.0 
267.304749 176.0 
267.362366 104.0 
267.39682 156.0 
267.457031 136.0 
267.531952 132.0 
267.611664 152.0 
267.633881 88.0 
267.658966 212.0 
267.686554 40.0 
267.775055 68.0 
267.808746 132.0 
267.83963 72.0 
267.875092 72.0 
267.927582 104.0 
268.012299 224.0 
268.074463 876.0 
268.177856 60.0 
268.302368 148.0 
268.494751 52.0 
268.541931 64.0 
268.608917 128.0 
268.710022 72.0 
268.812469 112.0 
268.863403 92.0 
268.954773 104.0 
268.984161 48.0 
269.039307 144.0 
269.078522 956.0 
269.114807 988.0 
269.190094 124.0 
269.278015 76.0 
269.366211 112.0 
269.463379 140.0 
269.55896 80.0 
269.617798 304.0 
269.703522 164.0 
269.774689 52.0 
269.846619 112.0 
270.052307 180.0 
270.089935 244.0 
270.546722 32.0 
270.605652 64.0 
270.749725 72.0 
270.818512 128.0 
270.870911 156.0 
270.908997 160.0 
270.95282 48.0 
271.061829 204.0 
271.087433 308.0 
271.369049 132.0 
271.431335 192.0 
271.483826 156.0 
271.587677 96.0 
271.664581 140.0 
271.76593 120.0 
271.851501 100.0 
271.890625 60.0 
272.049042 272.0 
272.078003 212.0 
272.113831 152.0 
272.245148 100.0 
272.271423 176.0 
272.327271 184.0 
272.591614 112.0 
272.652527 100.0 
272.691956 184.0 
272.853027 68.0 
272.977325 200.0 
273.053802 472.0 
273.183807 200.0 
273.214783 208.0 
273.329956 48.0 
273.408936 104.0 
273.711792 140.0 
273.780945 164.0 
274.017548 144.0 
274.023926 120.0 
274.065857 2032.0 
274.143311 216.0 
274.261963 44.0 
274.357086 204.0 
274.459747 112.0 
274.655518 132.0 
274.753296 248.0 
274.791931 124.0 
274.822571 164.0 
275.032837 224.0 
275.071747 2632.0 
275.144928 108.0 
275.164703 212.0 
275.233643 52.0 
275.379547 72.0 
275.401215 72.0 
275.449829 56.0 
275.53241 36.0 
275.583893 76.0 
275.65799 104.0 
275.725708 48.0 
275.786865 144.0 
275.852966 152.0 
276.043518 1524.0 
276.0755 2132.0 
276.163788 52.0 
276.236572 76.0 
276.298126 176.0 
276.405304 160.0 
276.505951 48.0 
276.55423 52.0 
276.593933 224.0 
276.630341 164.0 
276.667114 152.0 
276.782654 128.0 
276.865417 84.0 
276.964172 108.0 
277.004547 112.0 
277.051483 5280.0 
277.086029 3748.0 
277.187775 136.0 
277.216583 52.0 
277.243103 52.0 
277.441956 40.0 
277.514893 144.0 
277.644623 192.0 
277.672546 80.0 
277.748138 144.0 
277.779816 148.0 
277.926392 192.0 
277.972656 172.0 
278.056793 3280.0 
278.091797 1316.0 
278.186554 108.0 
278.249908 120.0 
278.347748 208.0 
278.370972 44.0 
278.41748 40.0 
278.463989 124.0 
278.492157 132.0 
278.523773 76.0 
278.62674 120.0 
278.696503 92.0 
278.792877 52.0 
278.839417 96.0 
278.862671 104.0 
278.895905 152.0 
278.953979 220.0 
278.995636 196.0 
279.067535 6944.0 
279.099548 1292.0 
279.178497 32.0 
279.245026 200.0 
279.312134 220.0 
279.419464 72.0 
279.504486 48.0 
279.554413 152.0 
279.620575 136.0 
279.628937 172.0 
279.67514 200.0 
279.740784 108.0 
279.79248 92.0 
279.827362 32.0 
279.860657 72.0 
279.91391 136.0 
279.961945 200.0 
279.988647 240.0 
280.074585 21860.0 
280.191925 68.0 
280.20636 80.0 
280.218811 112.0 
280.253876 124.0 
280.280121 60.0 
280.31366 72.0 
280.392517 96.0 
280.427887 116.0 
280.513611 124.0 
280.536957 44.0 
280.576965 44.0 
280.643646 72.0 
280.705933 112.0 
280.80249 172.0 
280.868652 172.0 
280.904266 148.0 
280.949097 164.0 
281.040314 372.0 
281.080078 8216.0 
281.167358 56.0 
281.232147 64.0 
281.257477 160.0 
281.314941 112.0 
281.374878 184.0 
281.421051 140.0 
281.47113 92.0 
281.537933 112.0 
281.566833 184.0 
281.593262 120.0 
281.627441 244.0 
281.674744 108.0 
281.686676 204.0 
281.713379 128.0 
281.760223 112.0 
281.783112 100.0 
281.81665 80.0 
281.8703 96.0 
281.912079 88.0 
281.980225 124.0 
282.087494 1800.0 
282.147217 116.0 
282.222961 64.0 
282.246368 136.0 
282.273102 76.0 
282.333313 120.0 
282.43161 92.0 
282.455475 40.0 
282.510559 184.0 
282.600891 104.0 
282.718018 40.0 
282.827057 76.0 
282.849091 76.0 
282.915497 76.0 
283.009552 88.0 
283.061279 532.0 
283.088654 524.0 
283.16748 152.0 
283.210175 140.0 
283.293915 164.0 
283.348541 52.0 
283.499634 48.0 
283.582092 92.0 
283.638031 140.0 
283.670074 144.0 
283.732941 84.0 
283.761749 128.0 
283.888641 208.0 
283.944244 248.0 
284.060822 464.0 
284.094391 228.0 
284.117157 312.0 
284.19577 108.0 
284.356842 112.0 
284.434052 160.0 
284.5784 72.0 
284.615326 44.0 
284.838806 132.0 
284.927673 84.0 
285.028473 76.0 
285.064789 124.0 
285.111786 444.0 
285.216675 40.0 
285.277191 164.0 
285.337708 72.0 
285.63028 168.0 
285.684082 104.0 
285.795105 48.0 
285.859039 100.0 
285.976837 172.0 
286.055878 132.0 
286.08905 152.0 
286.141785 120.0 
286.239258 120.0 
286.28656 136.0 
286.535126 152.0 
286.609955 220.0 
286.652618 164.0 
286.895233 136.0 
286.975006 116.0 
287.038605 280.0 
287.069397 728.0 
287.149323 144.0 
287.405701 200.0 
287.452942 128.0 
287.566101 212.0 
287.662201 108.0 
287.723511 220.0 
287.928925 136.0 
287.976227 256.0 
288.053436 204.0 
288.076324 380.0 
288.189026 196.0 
288.212677 176.0 
288.265564 148.0 
288.29718 84.0 
288.372009 56.0 
288.39856 116.0 
288.425598 52.0 
288.635193 124.0 
288.907471 136.0 
288.9599 144.0 
289.051758 3068.0 
289.132477 160.0 
289.247559 48.0 
289.34491 168.0 
289.440521 116.0 
289.55365 188.0 
289.643738 152.0 
289.860565 72.0 
290.008118 140.0 
290.056061 3092.0 
290.192719 48.0 
290.287659 92.0 
290.372467 120.0 
290.447083 136.0 
290.484467 148.0 
290.55304 116.0 
290.586151 196.0 
290.641632 208.0 
290.820312 108.0 
290.942505 28.0 
291.003632 180.0 
291.066437 5444.0 
291.134399 148.0 
291.221802 80.0 
291.253052 188.0 
291.38385 92.0 
291.392334 88.0 
291.40213 132.0 
291.425812 132.0 
291.452667 156.0 
291.49353 120.0 
291.550507 96.0 
291.744232 168.0 
291.952148 200.0 
292.073242 6088.0 
292.155731 156.0 
292.249817 104.0 
292.359894 44.0 
292.393768 88.0 
292.420013 256.0 
292.448364 92.0 
292.536865 28.0 
292.560699 200.0 
292.594757 60.0 
292.676453 32.0 
292.747955 132.0 
292.77182 144.0 
292.809265 48.0 
292.93869 172.0 
292.990387 184.0 
293.046173 3044.0 
293.081635 4380.0 
293.252167 88.0 
293.34079 60.0 
293.388519 136.0 
293.44989 160.0 
293.480591 100.0 
293.509796 68.0 
293.557312 48.0 
293.585205 212.0 
293.641937 200.0 
293.680115 204.0 
293.705658 76.0 
293.746582 68.0 
293.794342 48.0 
293.836761 120.0 
293.917175 88.0 
293.95813 116.0 
294.053467 2208.0 
294.088867 3476.0 
294.152649 140.0 
294.240906 164.0 
294.364349 36.0 
294.440552 176.0 
294.478027 112.0 
294.507782 136.0 
294.541931 116.0 
294.572662 56.0 
294.600006 80.0 
294.637573 84.0 
294.716156 96.0 
294.811829 108.0 
294.842346 136.0 
294.89212 124.0 
294.915466 160.0 
294.945923 140.0 
294.981171 220.0 
295.062927 9092.0 
295.097992 14404.0 
295.194214 144.0 
295.216278 132.0 
295.259674 72.0 
295.304138 280.0 
295.325592 192.0 
295.369965 84.0 
295.440979 136.0 
295.511108 96.0 
295.547028 64.0 
295.570984 84.0 
295.626984 60.0 
295.651642 128.0 
295.677063 160.0 
295.717316 124.0 
295.776337 136.0 
295.82666 68.0 
295.856781 136.0 
295.916687 48.0 
295.94751 128.0 
296.01236 172.0 
296.065735 1832.0 
296.100098 2264.0 
296.1763 164.0 
296.23175 68.0 
296.262573 68.0 
296.30368 132.0 
296.364258 188.0 
296.395538 64.0 
296.461304 52.0 
296.486938 108.0 
296.550415 80.0 
296.642975 132.0 
296.718658 52.0 
296.734314 80.0 
296.782776 168.0 
296.843231 204.0 
296.897827 84.0 
296.911621 128.0 
296.94812 72.0 
297.077545 2056.0 
297.107605 1392.0 
297.191681 60.0 
297.233856 232.0 
297.270599 100.0 
297.34491 92.0 
297.457581 140.0 
297.507446 52.0 
297.648193 64.0 
297.675659 120.0 
297.769928 180.0 
298.019165 120.0 
298.083832 764.0 
298.115997 472.0 
298.160065 128.0 
298.187561 84.0 
298.238617 140.0 
298.250671 120.0 
298.285492 72.0 
298.41806 68.0 
298.469421 252.0 
298.500397 68.0 
298.634491 48.0 
298.754883 172.0 
298.778992 116.0 
298.837463 108.0 
299.030182 188.0 
299.058929 212.0 
299.08548 400.0 
299.123962 220.0 
299.319336 44.0 
299.343445 76.0 
299.381317 60.0 
299.643097 116.0 
299.708588 72.0 
299.777496 100.0 
299.92569 144.0 
299.960144 96.0 
299.984283 96.0 
300.122894 100.0 
300.197906 96.0 
300.205688 92.0 
300.253235 148.0 
300.311859 20.0 
300.384308 180.0 
300.439484 72.0 
300.722443 124.0 
300.967529 84.0 
301.050262 372.0 
301.347473 92.0 
301.435272 88.0 
301.606659 160.0 
301.630859 116.0 
301.736115 108.0 
301.77951 128.0 
301.835938 188.0 
301.863495 200.0 
301.945496 152.0 
301.981354 120.0 
302.060883 1960.0 
302.163422 124.0 
302.24646 136.0 
302.29837 208.0 
302.499084 44.0 
302.598022 168.0 
302.630646 188.0 
302.665283 104.0 
303.066772 2100.0 
303.167572 160.0 
303.240814 148.0 
303.385681 116.0 
303.639038 28.0 
303.670258 148.0 
303.715363 48.0 
303.808228 144.0 
303.965149 104.0 
304.072357 2976.0 
304.183777 188.0 
304.26709 100.0 
304.340027 60.0 
304.371277 208.0 
304.513641 104.0 
304.555328 188.0 
304.624786 188.0 
304.669952 152.0 
304.732483 104.0 
304.767944 96.0 
304.790649 76.0 
304.822021 140.0 
304.851715 156.0 
304.914337 144.0 
304.943329 148.0 
305.045715 1788.0 
305.082855 3932.0 
305.180084 116.0 
305.372284 152.0 
305.499329 196.0 
305.555603 144.0 
305.587799 44.0 
305.618073 96.0 
305.6539 164.0 
305.681549 216.0 
305.749207 236.0 
305.793091 124.0 
305.852264 96.0 
305.955688 168.0 
305.984558 112.0 
306.052734 7708.0 
306.084686 2448.0 
306.146637 80.0 
306.228638 396.0 
306.325104 116.0 
306.410095 128.0 
306.462616 248.0 
306.506226 36.0 
306.555786 96.0 
306.739746 88.0 
306.768402 92.0 
306.798767 152.0 
306.826691 100.0 
306.96875 128.0 
307.012451 108.0 
307.061768 15732.0 
307.180908 68.0 
307.273102 96.0 
307.327087 164.0 
307.371765 192.0 
307.398346 72.0 
307.420624 176.0 
307.458984 60.0 
307.507874 72.0 
307.570679 312.0 
307.619568 56.0 
307.79837 164.0 
307.845551 208.0 
307.87442 64.0 
307.898895 100.0 
307.926331 56.0 
307.982697 96.0 
308.067169 7268.0 
308.173431 80.0 
308.20401 160.0 
308.251709 108.0 
308.304138 40.0 
308.360046 88.0 
308.576782 92.0 
308.608246 176.0 
308.727142 48.0 
308.751617 148.0 
308.786591 44.0 
308.855377 96.0 
308.921143 168.0 
308.975677 128.0 
309.076355 7160.0 
309.166565 144.0 
309.200623 140.0 
309.281219 64.0 
309.332123 64.0 
309.412933 200.0 
309.468964 268.0 
309.508545 188.0 
309.571259 148.0 
309.623047 152.0 
309.651062 108.0 
309.682556 128.0 
309.712128 76.0 
309.745605 32.0 
309.791168 100.0 
309.847992 200.0 
309.917267 124.0 
309.994385 92.0 
310.084167 7652.0 
310.167175 220.0 
310.23056 156.0 
310.292297 124.0 
310.316833 60.0 
310.376465 28.0 
310.40802 68.0 
310.506775 72.0 
310.597382 52.0 
310.706146 76.0 
310.779816 88.0 
310.811401 92.0 
310.906158 144.0 
310.941223 96.0 
310.974304 72.0 
311.020874 232.0 
311.088654 1656.0 
311.215057 96.0 
311.260681 84.0 
311.320404 60.0 
311.34848 92.0 
311.399292 204.0 
311.431763 112.0 
311.558167 112.0 
311.604919 48.0 
311.640045 28.0 
311.68219 120.0 
311.710327 48.0 
311.792084 176.0 
311.850891 48.0 
311.924713 108.0 
311.977417 52.0 
312.017456 136.0 
312.09729 1932.0 
312.146179 168.0 
312.188385 56.0 
312.220032 72.0 
312.258728 32.0 
312.318512 172.0 
312.406464 252.0 
312.490906 84.0 
312.530121 136.0 
312.606995 184.0 
313.104706 1472.0 
313.27951 44.0 
313.409851 132.0 
313.466217 104.0 
313.850433 44.0 
314.078247 252.0 
314.112061 480.0 
314.178436 164.0 
314.376038 64.0 
314.414856 76.0 
314.503082 152.0 
314.732544 48.0 
314.919708 112.0 
314.951508 60.0 
314.986847 248.0 
315.070251 316.0 
315.098419 120.0 
315.184662 104.0 
315.340179 204.0 
315.364899 84.0 
315.424988 92.0 
315.516907 144.0 
315.633575 136.0 
315.686615 180.0 
315.874084 144.0 
316.082916 152.0 
316.196045 184.0 
316.479248 92.0 
316.59964 148.0 
316.815704 144.0 
316.840515 108.0 
316.989319 56.0 
317.043091 628.0 
317.081451 176.0 
317.123993 96.0 
317.489166 60.0 
317.623932 148.0 
317.648773 140.0 
318.078217 260.0 
318.312439 100.0 
318.387024 60.0 
318.47937 72.0 
318.568146 108.0 
318.62146 104.0 
318.699615 104.0 
318.930603 172.0 
319.005249 100.0 
319.06192 4264.0 
319.151001 164.0 
319.279022 48.0 
319.375061 48.0 
319.414185 140.0 
319.648193 108.0 
319.662384 84.0 
319.816254 84.0 
319.894562 120.0 
319.932098 44.0 
319.997803 56.0 
320.0672 3820.0 
320.128265 216.0 
320.204224 108.0 
320.264893 160.0 
320.43396 52.0 
320.51532 164.0 
320.572083 108.0 
320.617615 92.0 
320.717407 168.0 
320.758026 96.0 
320.792267 100.0 
320.857574 124.0 
320.925537 104.0 
320.966125 192.0 
321.076935 3268.0 
321.163116 160.0 
321.26297 144.0 
321.291534 44.0 
321.382629 112.0 
321.578888 136.0 
321.67569 80.0 
321.716187 260.0 
321.781708 136.0 
321.85788 156.0 
321.962555 64.0 
321.996429 104.0 
322.085876 8668.0 
322.179565 136.0 
322.203949 172.0 
322.227539 136.0 
322.266205 132.0 
322.299713 156.0 
322.308655 100.0 
322.332458 408.0 
322.382355 228.0 
322.448425 64.0 
322.505615 40.0 
322.529999 144.0 
322.609283 64.0 
322.655762 168.0 
322.709381 132.0 
322.777649 176.0 
322.832062 300.0 
322.858398 160.0 
322.891449 88.0 
322.929443 188.0 
322.97403 60.0 
323.002502 216.0 
323.059418 4844.0 
323.092987 21592.0 
323.20459 80.0 
323.240112 72.0 
323.272614 52.0 
323.311279 300.0 
323.349701 44.0 
323.414124 44.0 
323.474976 104.0 
323.510773 68.0 
323.535126 40.0 
323.598633 72.0 
323.645111 100.0 
323.696503 64.0 
323.761414 40.0 
323.786469 136.0 
323.845795 200.0 
323.92868 136.0 
323.975098 172.0 
324.097931 7856.0 
324.205627 56.0 
324.314819 60.0 
324.391205 124.0 
324.450531 124.0 
324.52478 120.0 
324.628632 40.0 
324.707275 52.0 
324.772095 204.0 
324.807953 36.0 
324.833069 80.0 
324.912292 132.0 
324.997528 176.0 
325.106628 10140.0 
325.200012 60.0 
325.238556 52.0 
325.262512 68.0 
325.329895 120.0 
325.389313 76.0 
325.421631 36.0 
325.486267 40.0 
325.556885 60.0 
325.611938 120.0 
325.687378 44.0 
325.719696 68.0 
325.777435 128.0 
325.827484 192.0 
325.884949 116.0 
325.914734 56.0 
326.032288 180.0 
326.110809 2376.0 
326.178986 52.0 
326.235077 76.0 
326.287476 112.0 
326.319855 60.0 
326.358917 60.0 
326.395355 128.0 
326.450653 64.0 
326.52002 72.0 
326.672699 152.0 
326.726257 120.0 
326.852173 124.0 
326.960114 60.0 
327.016998 100.0 
327.028717 84.0 
327.087677 748.0 
327.121185 1676.0 
327.167725 140.0 
327.240906 88.0 
327.305725 80.0 
327.413727 96.0 
327.503784 48.0 
327.619049 112.0 
327.651489 120.0 
327.777588 44.0 
327.83905 68.0 
327.943359 88.0 
328.090607 380.0 
328.131073 624.0 
328.188477 80.0 
328.37561 72.0 
328.419281 136.0 
328.614105 196.0 
328.765656 76.0 
328.8703 52.0 
328.982208 104.0 
329.086914 152.0 
329.126373 56.0 
329.230957 148.0 
329.328857 140.0 
329.429993 92.0 
329.679291 68.0 
329.827484 212.0 
329.928711 40.0 
329.998383 176.0 
330.045349 120.0 
330.377136 136.0 
330.431396 76.0 
330.539948 68.0 
330.688324 124.0 
330.749847 84.0 
330.786041 116.0 
330.941711 176.0 
331.073364 420.0 
331.130005 120.0 
331.300262 120.0 
331.401703 72.0 
331.81488 112.0 
331.840271 64.0 
332.025177 136.0 
332.069855 1492.0 
332.243683 84.0 
332.289978 204.0 
332.602081 48.0 
332.663788 116.0 
332.743652 48.0 
332.946991 132.0 
333.074615 1032.0 
333.194824 140.0 
333.310272 124.0 
333.37204 48.0 
333.433807 116.0 
333.52832 84.0 
333.730927 236.0 
333.757355 104.0 
333.901337 180.0 
333.955536 152.0 
334.084686 4796.0 
334.171997 88.0 
334.197449 140.0 
334.262939 92.0 
334.379395 72.0 
334.431915 132.0 
334.608734 112.0 
334.712769 160.0 
334.743439 128.0 
334.816284 132.0 
334.963135 112.0 
335.002045 104.0 
335.058105 3188.0 
335.091431 3448.0 
335.235229 100.0 
335.271667 84.0 
335.333618 120.0 
335.461212 72.0 
335.498871 72.0 
335.610687 64.0 
335.672668 60.0 
335.723724 128.0 
335.920654 96.0 
335.986328 44.0 
336.063721 1080.0 
336.09848 1972.0 
336.197968 48.0 
336.227142 112.0 
336.304932 156.0 
336.373138 76.0 
336.468079 144.0 
336.511871 176.0 
336.78421 140.0 
336.825928 88.0 
336.851501 192.0 
336.920929 124.0 
336.993988 84.0 
337.072327 4724.0 
337.187653 164.0 
337.260773 76.0 
337.355804 52.0 
337.392365 44.0 
337.509338 60.0 
337.593445 80.0 
337.725128 64.0 
337.802094 92.0 
337.838501 164.0 
337.940948 132.0 
337.966553 180.0 
338.037872 384.0 
338.082184 7292.0 
338.186127 48.0 
338.254242 80.0 
338.325226 92.0 
338.356232 124.0 
338.715515 76.0 
338.746368 60.0 
338.830627 112.0 
338.867249 76.0 
338.895386 140.0 
338.991852 128.0 
339.085297 1916.0 
339.27774 136.0 
339.369385 64.0 
339.463837 124.0 
339.494049 36.0 
339.538055 64.0 
339.585754 76.0 
339.610962 32.0 
339.636292 128.0 
339.76181 56.0 
339.956268 96.0 
340.094879 936.0 
340.165497 48.0 
340.205872 124.0 
340.257263 92.0 
340.301331 92.0 
340.327026 44.0 
340.474243 44.0 
340.51062 40.0 
340.65387 36.0 
340.713379 144.0 
340.744843 132.0 
340.830231 128.0 
340.962524 44.0 
340.995605 68.0 
341.065552 276.0 
341.100677 872.0 
341.341156 96.0 
341.445496 120.0 
341.635406 56.0 
341.67218 144.0 
341.760468 108.0 
342.077942 152.0 
342.110748 436.0 
342.209503 92.0 
342.515167 68.0 
342.588837 72.0 
342.750946 48.0 
342.813599 36.0 
342.887299 52.0 
343.027374 224.0 
343.075287 156.0 
343.115753 412.0 
343.208008 216.0 
343.300201 52.0 
343.403473 116.0 
343.429291 108.0 
343.624786 112.0 
344.004913 68.0 
344.123535 152.0 
344.42218 40.0 
344.496063 88.0 
344.640137 56.0 
344.880341 148.0 
345.116943 180.0 
345.187195 44.0 
345.242676 108.0 
345.557068 88.0 
345.645874 56.0 
345.827209 100.0 
345.853119 160.0 
346.078491 128.0 
346.109375 244.0 
346.482635 124.0 
346.567871 104.0 
346.938477 96.0 
347.106262 200.0 
347.216583 116.0 
347.858459 136.0 
348.084991 548.0 
348.132324 184.0 
348.162933 108.0 
348.222351 124.0 
348.304047 76.0 
348.359406 40.0 
348.508392 120.0 
348.550629 108.0 
348.887482 44.0 
348.950684 120.0 
349.091736 960.0 
349.173798 164.0 
349.199829 152.0 
349.286346 136.0 
349.38208 104.0 
349.530914 100.0 
349.564392 160.0 
349.71698 116.0 
349.765381 112.0 
349.994843 176.0 
350.079956 8368.0 
350.269348 196.0 
350.285583 68.0 
350.296417 176.0 
350.560822 160.0 
350.686676 120.0 
350.836487 52.0 
350.908264 76.0 
350.994781 44.0 
351.084656 2628.0 
351.188721 56.0 
351.334198 128.0 
351.524475 48.0 
351.553009 180.0 
351.64389 152.0 
351.707367 68.0 
351.774536 108.0 
351.83255 148.0 
351.863861 164.0 
351.912689 180.0 
351.963623 216.0 
352.009766 64.0 
352.097046 4452.0 
352.200226 84.0 
352.27121 368.0 
352.32312 76.0 
352.337341 68.0 
352.398224 128.0 
352.446777 72.0 
352.481598 88.0 
352.514038 92.0 
352.581116 140.0 
352.59024 228.0 
352.700928 156.0 
352.765747 116.0 
352.839233 140.0 
352.876617 152.0 
352.906525 148.0 
352.932709 60.0 
352.96637 140.0 
353.023987 92.0 
353.104523 46072.0 
353.230835 56.0 
353.241608 40.0 
353.265198 212.0 
353.317932 212.0 
353.366852 100.0 
353.405243 80.0 
353.45636 100.0 
353.508759 76.0 
353.56488 112.0 
353.607208 68.0 
353.63562 80.0 
353.680908 164.0 
353.722717 24.0 
353.834381 100.0 
353.878082 132.0 
353.916748 84.0 
353.960449 72.0 
354.020294 92.0 
354.106689 8228.0 
354.185455 108.0 
354.211853 272.0 
354.252899 116.0 
354.258392 180.0 
354.30838 164.0 
354.375702 120.0 
354.413055 48.0 
354.454498 56.0 
354.47287 108.0 
354.52359 108.0 
354.602295 112.0 
354.664856 144.0 
354.704956 68.0 
354.757111 144.0 
354.872192 88.0 
354.909698 132.0 
354.956421 92.0 
355.113159 2880.0 
355.227264 100.0 
355.284729 52.0 
355.374786 56.0 
355.410309 76.0 
355.532379 56.0 
355.635712 60.0 
355.690033 28.0 
355.735077 80.0 
355.800049 104.0 
355.892731 36.0 
355.975342 140.0 
356.016113 112.0 
356.087646 588.0 
356.122131 428.0 
356.178345 196.0 
356.220825 144.0 
356.31189 100.0 
356.370392 116.0 
356.422516 100.0 
356.452423 76.0 
356.482483 172.0 
356.538483 124.0 
356.583954 68.0 
356.738068 72.0 
356.794434 92.0 
356.835815 84.0 
356.895416 84.0 
357.031342 56.0 
357.076447 152.0 
357.118561 164.0 
357.147919 148.0 
357.174957 152.0 
357.241974 60.0 
357.283356 40.0 
357.332245 92.0 
357.369873 100.0 
357.467712 104.0 
357.565552 60.0 
357.659637 92.0 
358.036133 76.0 
358.092651 116.0 
358.149139 116.0 
358.299805 68.0 
358.35257 44.0 
358.657806 64.0 
358.687958 64.0 
358.853821 32.0 
359.132904 48.0 
359.264923 92.0 
359.608276 40.0 
359.819672 108.0 
359.853668 88.0 
360.087769 36.0 
360.148224 52.0 
360.295532 44.0 
360.945618 192.0 
360.990997 128.0 
361.081757 124.0 
361.11203 184.0 
361.248199 124.0 
361.4487 152.0 
361.637909 112.0 
361.664429 80.0 
361.706055 92.0 
361.95813 124.0 
362.106018 572.0 
362.421814 40.0 
362.888031 112.0 
362.921509 72.0 
363.110535 412.0 
363.278625 52.0 
363.365906 160.0 
363.58017 144.0 
363.627716 104.0 
363.711212 72.0 
363.779541 96.0 
363.903961 88.0 
364.08136 384.0 
364.116791 740.0 
364.14917 116.0 
364.199799 160.0 
364.292206 52.0 
364.425171 128.0 
364.497375 136.0 
364.797607 68.0 
364.847046 84.0 
364.895416 160.0 
364.942596 88.0 
364.984589 132.0 
365.047272 144.0 
365.10434 8568.0 
365.182495 72.0 
365.26532 192.0 
365.303375 28.0 
365.333801 28.0 
365.375641 60.0 
365.436523 96.0 
365.486694 196.0 
365.581116 76.0 
365.641998 120.0 
365.721924 32.0 
365.75412 44.0 
365.81427 108.0 
365.906281 168.0 
366.100525 7236.0 
366.228333 36.0 
366.567413 68.0 
366.742706 52.0 
366.895203 60.0 
366.990509 76.0 
367.109802 1920.0 
367.257446 48.0 
367.362976 64.0 
367.608429 44.0 
367.684753 144.0 
367.803497 72.0 
367.839417 104.0 
367.909973 68.0 
368.092285 928.0 
368.120575 756.0 
368.226898 68.0 
368.429321 36.0 
368.456085 72.0 
368.487244 104.0 
368.673859 124.0 
368.865967 56.0 
369.025543 40.0 
369.095001 140.0 
369.161102 180.0 
369.373535 124.0 
369.641357 108.0 
369.993469 76.0 
370.102386 116.0 
370.13681 152.0 
370.172089 424.0 
370.238525 56.0 
370.349609 52.0 
370.495178 64.0 
370.636932 64.0 
370.717407 128.0 
370.966522 124.0 
371.115692 660.0 
371.171204 96.0 
371.202393 48.0 
371.610809 112.0 
372.121277 148.0 
372.259521 68.0 
373.124023 84.0 
373.304749 100.0 
373.816376 116.0 
374.251312 32.0 
375.785339 72.0 
375.904938 100.0 
376.090179 124.0 
376.256165 60.0 
377.307007 136.0 
377.341797 36.0 
378.034149 184.0 
378.131744 944.0 
378.792999 56.0 
378.831757 76.0 
379.135529 268.0 
379.184357 116.0 
379.393677 76.0 
380.112976 424.0 
380.243134 92.0 
380.278076 100.0 
380.305237 104.0 
380.351807 112.0 
380.66629 176.0 
380.757629 84.0 
380.876007 80.0 
381.031403 212.0 
381.120697 3880.0 
381.353912 52.0 
381.423889 76.0 
381.524963 124.0 
381.602722 124.0 
381.668793 60.0 
381.754364 84.0 
381.804901 100.0 
381.94104 76.0 
382.126587 1120.0 
382.178345 36.0 
382.516937 48.0 
382.62204 60.0 
382.855652 208.0 
383.116089 1364.0 
383.198425 40.0 
383.319214 100.0 
384.115234 516.0 
384.172211 144.0 
384.512543 120.0 
384.840454 84.0 
385.121918 156.0 
386.118256 108.0 
386.149536 132.0 
386.26297 52.0 
386.4664 100.0 
388.727295 48.0 
388.794006 40.0 
388.998108 44.0 
389.166931 36.0 
389.551788 244.0 
389.728577 80.0 
390.164856 64.0 
390.200226 148.0 
391.140442 92.0 
391.234894 64.0 
391.384521 48.0 
391.947784 44.0 
392.263062 72.0 
392.972931 80.0 
393.88092 96.0 
395.727722 128.0 
396.145813 1408.0 
396.214874 176.0 
396.90451 124.0 
397.051239 244.0 
397.143463 280.0 
397.443939 72.0 
397.515381 152.0 
397.658234 60.0 
398.146515 268.0 
398.48996 160.0 
398.706726 112.0 
399.137299 368.0 
399.696899 108.0 
399.764557 64.0 
400.138702 180.0 
401.058899 48.0 
401.126648 80.0 
403.046295 124.0 
405.856171 60.0 
407.353149 56.0 
408.390198 72.0 
409.211121 124.0 
409.331909 92.0 
410.601318 184.0 
411.053131 108.0 
411.343719 72.0 
411.545563 120.0 
413.2742 140.0 
413.587097 96.0 
413.676147 140.0 
414.06485 112.0 
414.156586 4892.0 
414.401062 32.0 
414.753632 76.0 
414.810364 64.0 
415.1586 1208.0 
415.236115 36.0 
415.434875 68.0 
415.544403 48.0 
415.58902 84.0 
415.751343 60.0 
415.889343 68.0 
415.925873 68.0 
416.15448 344.0 
416.445587 108.0 
416.648682 68.0 
416.774628 60.0 
417.632416 40.0 
418.918701 112.0 
419.921387 80.0 
422.093964 80.0 
424.413513 64.0 
424.993958 36.0 
425.83963 56.0 
426.155914 48.0 
426.834137 72.0 
429.115173 72.0 
429.506927 48.0 
430.101105 92.0 
430.373566 76.0 
430.464417 48.0 
431.084045 56.0 
431.241089 56.0 
431.873688 92.0 
432.788269 116.0 
433.098846 68.0 
434.454346 84.0 
435.097595 140.0 
435.475464 56.0 
435.7995 40.0 
436.539368 84.0 
436.892914 64.0 
437.97522 56.0 
438.500183 88.0 
440.235687 88.0 
440.632477 132.0 
441.476807 80.0 
442.054108 72.0 
442.811829 88.0 
445.761017 52.0 
446.719635 64.0 
446.92157 104.0 
446.972046 72.0 
447.241394 56.0 
447.64978 84.0 
448.601959 28.0 
449.028229 84.0 
449.221863 128.0 
450.369995 48.0 
450.420685 84.0 
451.016449 56.0 
451.51535 80.0 
452.861237 36.0 
455.431549 96.0 
456.111389 124.0 
456.289917 96.0 
456.715179 72.0 
458.213593 48.0 
460.756317 84.0 
462.50531 88.0 
463.049072 60.0 
463.584564 44.0 
464.888214 84.0 
466.360168 76.0 
468.469757 100.0 
469.314453 76.0 
469.353271 76.0 
470.660675 44.0 
471.64566 64.0 
471.98288 36.0 
473.345886 164.0 
474.49527 88.0 
475.513458 56.0 
475.587219 48.0 
479.092041 80.0 
481.473572 92.0 
483.235168 52.0 
484.215698 92.0 
484.833405 80.0 
485.113922 56.0 
485.837494 92.0 
486.487 120.0 
486.741638 148.0 
489.023224 44.0 
489.274139 44.0 
491.248413 92.0 
491.336639 156.0 
492.541779 96.0 
496.312317 112.0 
496.840118 60.0 
497.829895 52.0 
498.962952 104.0 
499.389832 72.0 
499.589996 44.0 
501.883636 92.0 
501.98175 56.0 
503.820618 80.0 
504.048492 52.0 
504.718964 68.0 
505.421234 68.0 
505.770294 40.0 
506.970581 128.0 
509.694397 48.0 
510.134827 48.0 
510.683411 132.0 
511.09729 64.0 
511.254791 48.0 
515.760376 124.0 
517.859802 124.0 
517.909607 72.0 
518.172363 140.0 
521.875916 124.0 
522.194214 76.0 
524.657654 60.0 
524.730591 68.0 
525.063477 60.0 
526.432556 128.0 
526.473633 52.0 
527.062927 56.0 
529.157715 112.0 
530.5 76.0 
530.669617 72.0 
531.945007 116.0 
533.801147 100.0 
534.228882 76.0 
534.609314 52.0 
535.596008 52.0 
536.06134 52.0 
536.167297 56.0 
536.397766 96.0 
537.144775 100.0 
539.130066 32.0 
539.264099 72.0 
539.999207 92.0 
540.364685 120.0 
540.660828 76.0 
541.220947 68.0 
541.475647 92.0 
543.543152 96.0 
544.936096 84.0 
546.777527 52.0 
548.295715 68.0 
548.999695 84.0 
549.111633 116.0 
549.232849 72.0 
549.704102 204.0 
551.586243 84.0 
553.228149 72.0 
553.733826 88.0 
556.214172 40.0 
556.678955 96.0 
557.190918 112.0 
559.85321 152.0 
561.747925 92.0 
562.51709 76.0 
562.932556 96.0 
564.728455 92.0 
565.556458 32.0 
566.560303 48.0 
566.929871 80.0 
567.897034 60.0 
567.944458 68.0 
568.997925 72.0 
569.686523 100.0 
569.810059 96.0 
570.152161 72.0 
570.774902 112.0 
571.388489 76.0 
571.621582 44.0 
571.792908 120.0 
571.945251 92.0 
573.669617 68.0 
576.50946 76.0 
576.901367 36.0 
581.965332 100.0 
582.018188 116.0 
582.267883 100.0 
582.363953 60.0 
582.541687 60.0 
583.805725 48.0 
583.969238 44.0 
585.509338 36.0 
586.097046 68.0 
588.494202 104.0 
589.218628 120.0 
591.29303 76.0 
591.472107 96.0 
592.440613 124.0 
592.619873 72.0 
593.691101 88.0 
593.996643 80.0 
594.253784 124.0 
594.826416 48.0 
597.124634 72.0 
597.372681 100.0 
597.635437 120.0 
600.914429 136.0 
603.01416 40.0 
603.243896 44.0 
605.92572 48.0 
606.896118 32.0 
607.278625 64.0 
607.494446 60.0 
607.666138 80.0 
608.490662 148.0 
608.809814 112.0 
609.11438 100.0 
611.09552 88.0 
613.084839 48.0 
614.564148 56.0 
614.958923 120.0 
616.065002 108.0 
618.131653 40.0 
621.37207 80.0 
622.08667 72.0 
622.861328 68.0 
623.606628 60.0 
623.720947 80.0 
625.392212 76.0 
630.814148 76.0 
635.561951 60.0 
638.74707 48.0 
638.933167 88.0 
640.539001 64.0 
640.604492 100.0 
641.229309 124.0 
642.030884 84.0 
642.086365 92.0 
642.323425 48.0 
646.425842 56.0 
648.593445 80.0 
648.90271 100.0 
649.962708 116.0 
650.292603 60.0 
651.775452 84.0 
652.1922 40.0 
652.52771 72.0 
652.659851 48.0 
655.225037 88.0 
656.560486 64.0 
657.979004 68.0 
659.281494 44.0 
660.42157 100.0 
663.345337 104.0 
665.351135 168.0 
665.751648 108.0 
667.766235 136.0 
669.171021 80.0 
672.392761 40.0 
675.767029 64.0 
680.846924 184.0 
681.587585 136.0 
683.664551 116.0 
684.497437 108.0 
685.106812 92.0 
689.014221 52.0 
689.150085 76.0 
692.958984 148.0 
693.828979 192.0 
694.521179 48.0 
696.132385 96.0 
697.892639 96.0 
699.876221 92.0 
699.997375 72.0 
701.815247 72.0 
705.109192 104.0 
708.840027 60.0 
711.019531 40.0 
713.170532 104.0 
713.319336 68.0 
714.574402 40.0 
716.203369 76.0 
721.218872 68.0 
723.374512 28.0 
726.530884 60.0 
727.534424 68.0 
734.378967 124.0 
734.78894 32.0 
735.042542 80.0 
735.56604 104.0 
736.224731 84.0 
739.728271 48.0 
740.101807 40.0 
740.334656 48.0 
745.787109 48.0 
759.876038 80.0 
763.314392 64.0 
763.721313 96.0 
770.059692 116.0 
772.585815 52.0 
772.934326 84.0 
774.063538 76.0 
774.927612 48.0 
776.640564 68.0 
778.771912 40.0 
780.294495 104.0 
788.270508 52.0 
792.960144 60.0 
796.506165 100.0 
801.406128 96.0 
802.437561 100.0 
805.219482 92.0 
805.80127 100.0 
806.564148 40.0 
815.207092 84.0 
819.964661 56.0 
820.443481 52.0 
820.933838 40.0 
824.741821 84.0 
825.101929 44.0 
828.197754 56.0 
832.700073 100.0 
832.826416 88.0 
834.682678 116.0 
842.942871 64.0 
848.516724 124.0 
849.630188 124.0 
858.331177 108.0 
861.149841 100.0 
865.799316 84.0 
871.753601 104.0 
875.78949 100.0 
878.323975 64.0 
883.267944 44.0 
883.504578 56.0 
885.718506 104.0 
889.572754 36.0 
889.70929 108.0 
889.79834 72.0 
891.467407 120.0 
894.572083 64.0 
896.674622 92.0 
896.77594 100.0 
898.970642 160.0 
900.504883 56.0 
902.686157 76.0 
906.523254 148.0 
909.659973 216.0 
912.255066 56.0 
915.305298 104.0 
916.931824 56.0 
918.077271 76.0 
920.684265 80.0 
926.939209 72.0 
930.311401 64.0 
935.417603 36.0 
937.287292 72.0 
937.884521 60.0 
945.916809 52.0 
951.004272 64.0 
958.55011 68.0 
958.889038 144.0 
960.954773 32.0 
963.059814 116.0 
964.196594 52.0 
964.839417 124.0 
997.681824 72.0 
1000.474976 128.0 
1001.280945 104.0 
1024.418945 72.0 
1025.075195 124.0 
1029.0354 164.0 
1030.49231 180.0 
1032.620972 112.0 
1034.540527 164.0 
1037.109253 156.0 
1037.17334 64.0 
1040.361328 92.0 
1042.500122 52.0 
1050.76123 136.0 
1052.122925 60.0 
1057.13208 112.0 
1061.640747 76.0 
1063.496216 140.0 
1072.941284 176.0 
1074.330322 44.0 
1078.136963 64.0 
1078.940918 92.0 
1083.980591 108.0 
1084.760498 88.0 
1087.561401 148.0 
1093.167236 96.0 
1094.681274 104.0 
1095.728516 56.0 
1098.543457 44.0 
1099.777344 44.0 
1100.180054 156.0 
1104.627319 140.0 
1105.196289 96.0 
1107.41394 128.0 
1115.369385 40.0 
1118.64209 96.0 
1120.433472 120.0 
1130.395142 160.0 
1131.433228 92.0 
1139.776001 72.0 
1140.78418 244.0 
1141.550537 92.0 
1148.64917 104.0 
1151.375977 100.0 
1162.233765 124.0 
1163.380737 108.0 
1165.49292 52.0 
1168.7771 44.0 
1171.227783 128.0 
1171.677368 96.0 
1175.134033 152.0 
1176.198608 64.0 
1177.017822 148.0 
1186.630859 172.0 
1197.956421 128.0 
1199.465454 72.0 
1200.472046 136.0 
1201.210938 160.0 
1203.266479 180.0 
1205.912109 28.0 
1207.239502 160.0 
1209.197266 136.0 
1209.314941 36.0 
1210.616455 56.0 
1213.797119 196.0 
1215.135742 28.0 
1219.135254 156.0 
1219.413208 256.0 
1220.775757 184.0 
1222.445312 156.0 
1223.139526 216.0 
1223.983643 52.0 
1227.530396 208.0 
1228.388184 56.0 
1231.04248 172.0 
1231.096191 116.0 
1231.333618 116.0 
1232.619019 36.0 
1234.660278 176.0 
1239.511353 64.0 
1240.156128 208.0 
1246.928955 212.0 
1247.371704 176.0 
1248.377075 156.0 
1251.620972 124.0 
1252.318115 172.0 
1252.881714 60.0 
1254.558838 28.0 
1259.357056 184.0 
1262.742554 84.0 
1266.231567 76.0 
1267.846924 168.0 
1268.052368 232.0 
1268.513062 172.0 
1274.737427 124.0 
1282.82959 88.0 
1283.13623 172.0 
1288.024414 120.0 
1291.905884 52.0 
1291.963135 136.0 
1292.585571 184.0 
1294.61853 76.0 
1295.96521 152.0 
1296.481079 124.0 
1297.39856 172.0 
1297.506104 140.0 
1298.000732 68.0 
1301.430542 144.0 
1301.739258 44.0 
1301.990601 60.0 
1303.520752 96.0 
1304.411865 232.0 
1307.209595 184.0 
1307.8573 192.0 
1308.476318 144.0 
1309.153198 156.0 
1310.701904 76.0 
1311.350464 68.0 
1313.63623 120.0 
1314.400879 184.0 
1314.949341 104.0 
1315.728882 148.0 
1321.836304 112.0 
1322.082275 120.0 
1322.531006 112.0 
1322.987061 36.0 
1323.197021 244.0 
1324.203491 220.0 
1324.782959 68.0 
1325.072754 152.0 
1325.732178 208.0 
1329.945801 200.0 
1331.078247 188.0 
1332.443726 176.0 
1332.552734 188.0 
1335.271362 116.0 
1337.563232 176.0 
1337.905396 316.0 
1338.218384 88.0 
1339.04126 228.0 
1340.425415 44.0 
1346.925659 184.0 
1347.531982 156.0 
1347.758545 52.0 
1353.214722 104.0 
1354.423096 128.0 
1358.975464 188.0 
1359.239624 48.0 
1359.393677 128.0 
1359.481812 216.0 
1361.17749 204.0 
1363.028442 148.0 
1364.175049 124.0 
1364.983765 268.0 
1369.81897 184.0 
1370.592529 136.0 
1372.103516 156.0 
1372.560669 104.0 
1374.345581 88.0 
1375.216309 108.0 
1375.459961 108.0 
1376.707642 124.0 
1377.86731 84.0 
1377.985474 96.0 
1378.362305 56.0 
1380.446899 64.0 
1383.702393 172.0 
1386.146606 136.0 
1387.621582 76.0 
1389.208618 264.0 
1390.937622 144.0 
1391.976929 180.0 
1392.132935 168.0 
1392.48938 208.0 
1392.571045 176.0 
1393.02417 228.0 
1393.729858 136.0 
1394.926392 128.0 
1395.565796 100.0 
1398.50415 72.0 
1398.965698 100.0 
1400.060181 116.0 
1400.7677 72.0 
1402.84668 208.0 
1403.10022 116.0 
1404.159058 124.0 
1404.352905 40.0 
1406.02417 204.0 
1408.532715 124.0 
1414.791748 136.0 
1416.341797 192.0 
1417.458008 144.0 
1417.900146 268.0 
1418.3573 168.0 
1419.459351 96.0 
1420.711914 108.0 
1424.472778 184.0 
1427.057983 60.0 
1427.85498 140.0 
1428.479248 204.0 
1429.38208 208.0 
1433.508545 72.0 
1434.058716 172.0 
1434.126587 104.0 
1434.526001 200.0 
1435.581543 148.0 
1437.520264 124.0 
1438.735352 160.0 
1439.981323 56.0 
1440.540161 96.0 
1441.265503 124.0 
1442.633423 176.0 
1442.814819 48.0 
1445.643555 156.0 
1445.719238 252.0 
1446.26416 200.0 
1446.498901 200.0 
1447.278564 200.0 
1449.202393 80.0 
1449.354004 76.0 
1449.838989 92.0 
1451.097168 176.0 
1452.765625 160.0 
1454.639893 92.0 
1454.989136 164.0 
1456.135742 184.0 
1456.401489 160.0 
1458.211548 188.0 
1458.529053 184.0 
1458.741821 88.0 
1458.871094 156.0 
1459.707397 92.0 
1460.521118 176.0 
1463.565186 104.0 
1463.88501 92.0 
1465.095947 104.0 
1465.804565 44.0 
1465.949341 132.0 
1466.498047 140.0 
1468.602417 200.0 
1468.686279 160.0 
1471.799927 160.0 
1472.426025 128.0 
1472.609375 184.0 
1474.175415 64.0 
1474.420044 108.0 
1476.654419 136.0 
1476.958374 208.0 
1478.358398 132.0 
1479.384033 168.0 
1480.341064 140.0 
1481.650757 152.0 
1483.030029 76.0 
1484.118652 56.0 
1486.458008 128.0 
1487.747437 60.0 
1488.054565 132.0 
1489.068115 132.0 
1489.252441 128.0 
1489.421509 68.0 
1490.143555 136.0 
1490.934937 160.0 
1491.081055 72.0 
1491.188599 252.0 
1491.265503 128.0 
1492.372437 188.0 
1493.095215 48.0 
1494.018188 144.0 
1494.541382 152.0 
1494.772217 164.0 
1495.526367 92.0 
1496.327026 116.0 
1498.429443 188.0 
1499.153809 64.0 
1501.512695 264.0 
1502.438354 116.0 
1502.530884 84.0 
1503.008179 136.0 
END IONS

