BEGIN IONS
PEPMASS=377.103
CHARGE=1+
COMPOUNDNAME=NCGC00160275-01!RESISTOMYCIN
LIBRARYQUALITY=1
SMILES=CC1=C2C(O)=CC3=C4C2=C(C(O)=C1)C(=O)C5=C4C(=C(O)C=C5O)C(=O)C3(C)C
INCHIKEY=ABLACSIRCKEUOB-UHFFFAOYSA-N
INCHI=N/A
MSLEVEL=2
SOURCE_INSTRUMENT=LC-ESI-qTOF
FILENAME=p1-G03_GG3_01_17947.mzXML
SEQ=*..*
IONMODE=Positive
ORGANISM=GNPS-PRESTWICKPHYTOCHEM
NAME=NCGC00160275-01!RESISTOMYCIN M+H
PI=Dorrestein
DATACOLLECTOR=VVP/LMS
PUBMED=N/A
SUBMITUSER=vphelan
TAGS=
SPECTRUMID=CCMSLIB00000078771
SCANS=2978
96.408356 164.0 
100.418266 188.0 
100.597847 208.0 
102.487099 48.0 
104.139885 56.0 
104.994682 104.0 
108.281013 176.0 
114.121521 144.0 
119.699158 152.0 
122.264832 84.0 
122.939186 64.0 
125.002312 100.0 
125.690857 92.0 
132.37561 228.0 
133.449463 160.0 
133.481659 164.0 
133.80838 112.0 
134.082504 196.0 
134.19545 96.0 
136.259949 160.0 
137.891098 148.0 
138.312119 204.0 
138.380005 120.0 
142.569382 120.0 
145.651505 136.0 
146.036087 220.0 
146.115631 184.0 
147.231506 56.0 
150.646591 120.0 
150.983902 176.0 
153.604614 148.0 
153.964981 216.0 
154.21698 168.0 
155.46521 172.0 
155.569443 156.0 
158.422348 212.0 
159.941559 176.0 
164.974472 148.0 
165.422134 120.0 
166.714828 112.0 
167.659286 204.0 
168.919281 88.0 
171.755859 128.0 
172.374222 120.0 
173.044205 92.0 
176.996399 124.0 
177.11557 152.0 
180.169434 164.0 
181.392395 136.0 
181.848373 136.0 
181.904739 128.0 
184.174698 116.0 
184.298981 140.0 
186.59465 144.0 
186.877502 188.0 
187.231384 188.0 
194.781693 184.0 
195.176331 64.0 
195.891586 136.0 
200.385269 140.0 
200.49234 192.0 
200.613541 144.0 
204.013474 192.0 
204.878616 176.0 
205.408844 132.0 
205.925476 128.0 
209.292191 88.0 
209.352661 116.0 
209.954971 160.0 
210.728561 232.0 
212.387344 148.0 
213.069519 196.0 
216.291901 112.0 
216.344589 168.0 
222.717102 216.0 
223.427567 120.0 
225.443512 164.0 
226.948853 188.0 
228.167831 100.0 
228.516708 76.0 
229.070633 152.0 
229.124863 232.0 
229.996353 152.0 
232.083786 168.0 
234.211105 108.0 
235.837402 88.0 
236.069763 148.0 
237.257767 148.0 
238.322754 124.0 
239.014587 132.0 
244.647583 168.0 
248.388123 172.0 
250.317841 136.0 
252.356201 104.0 
253.917343 220.0 
254.405991 48.0 
256.566071 124.0 
256.814819 196.0 
258.741699 196.0 
259.068359 176.0 
261.982086 152.0 
263.059174 76.0 
263.188324 64.0 
264.069672 392.0 
265.109772 112.0 
269.283844 156.0 
269.731476 104.0 
271.071014 164.0 
272.282227 20.0 
272.582794 152.0 
272.684662 184.0 
274.452454 120.0 
275.046265 176.0 
275.075989 124.0 
275.442505 216.0 
275.71344 120.0 
276.51709 172.0 
277.086639 132.0 
277.517517 144.0 
278.090424 140.0 
278.463287 180.0 
279.370728 188.0 
280.286285 56.0 
281.066559 108.0 
281.607361 164.0 
286.572205 112.0 
287.060974 144.0 
287.334167 216.0 
287.799927 148.0 
288.174835 112.0 
289.07428 136.0 
289.646454 108.0 
291.058868 128.0 
291.995209 104.0 
292.042816 92.0 
292.074158 248.0 
293.062042 140.0 
296.467529 192.0 
297.24939 144.0 
297.942932 256.0 
298.063202 220.0 
299.067383 104.0 
301.685547 176.0 
302.155884 156.0 
305.089844 196.0 
306.008301 44.0 
306.081421 104.0 
306.966522 164.0 
307.081848 108.0 
307.507263 140.0 
308.348969 56.0 
309.181305 124.0 
311.614868 192.0 
313.867493 168.0 
314.121429 88.0 
315.049622 188.0 
315.068054 208.0 
315.933655 32.0 
316.071747 344.0 
316.56366 164.0 
317.081635 732.0 
318.073273 188.0 
318.078735 144.0 
319.05542 468.0 
319.346039 60.0 
319.662659 128.0 
320.064545 996.0 
320.959778 144.0 
321.067169 172.0 
321.25885 72.0 
322.033447 140.0 
322.065308 104.0 
322.119171 120.0 
322.215637 156.0 
323.39212 120.0 
327.063965 172.0 
327.31958 104.0 
328.054565 184.0 
328.425995 108.0 
331.070923 176.0 
332.412842 152.0 
333.077759 1360.0 
333.12085 156.0 
333.160797 176.0 
333.949585 156.0 
334.082855 296.0 
334.090637 316.0 
334.182404 48.0 
334.222443 88.0 
334.557281 36.0 
334.630096 36.0 
334.735687 160.0 
334.957825 92.0 
335.08493 304.0 
336.0867 100.0 
337.274902 200.0 
338.548096 68.0 
340.249451 128.0 
340.624023 128.0 
341.885132 60.0 
342.407898 192.0 
343.058746 232.0 
343.377197 140.0 
343.834686 152.0 
343.974945 52.0 
344.064697 316.0 
344.643402 200.0 
345.076996 860.0 
345.338379 72.0 
345.560333 108.0 
345.697235 68.0 
346.044159 284.0 
346.075989 324.0 
346.122955 52.0 
346.548889 116.0 
346.608185 44.0 
347.053223 116.0 
347.086365 124.0 
348.058533 104.0 
348.295135 84.0 
350.096313 152.0 
350.453918 140.0 
351.0354 124.0 
351.255463 192.0 
353.134247 216.0 
353.714203 232.0 
355.790985 52.0 
356.591095 160.0 
357.772217 148.0 
357.839966 116.0 
359.098572 176.0 
359.502258 60.0 
359.864624 216.0 
360.238495 88.0 
360.468994 124.0 
360.862091 148.0 
360.90744 140.0 
360.967957 260.0 
361.069427 4796.0 
361.157043 88.0 
361.342407 48.0 
361.455933 124.0 
361.673859 68.0 
361.701904 144.0 
361.781403 124.0 
361.938538 160.0 
361.981293 268.0 
362.011993 200.0 
362.077179 10988.0 
362.181305 40.0 
362.206085 156.0 
362.315399 124.0 
362.369843 60.0 
362.402527 56.0 
362.436646 60.0 
362.527588 52.0 
362.641266 56.0 
362.77774 64.0 
362.94455 76.0 
362.999084 164.0 
363.083008 3116.0 
363.153137 48.0 
363.24649 136.0 
363.280151 100.0 
363.464203 52.0 
363.642578 36.0 
363.707092 84.0 
363.737457 44.0 
363.779816 124.0 
363.816376 96.0 
364.087738 784.0 
364.16272 80.0 
364.219696 68.0 
364.299469 76.0 
364.39444 56.0 
364.546417 64.0 
364.637634 44.0 
364.713654 56.0 
364.850494 36.0 
365.036804 108.0 
365.116669 160.0 
365.230774 80.0 
365.314453 76.0 
365.376862 108.0 
365.447601 88.0 
365.474243 152.0 
365.53894 104.0 
365.626465 60.0 
365.736847 36.0 
366.005432 60.0 
366.083282 80.0 
366.39563 80.0 
367.299072 96.0 
367.695892 112.0 
375.974121 92.0 
376.04361 60.0 
376.070618 164.0 
376.591858 116.0 
376.642059 128.0 
376.696167 52.0 
376.889313 224.0 
377.100891 3364.0 
377.333801 52.0 
377.372467 28.0 
377.558075 36.0 
377.855927 60.0 
378.041656 132.0 
378.107819 1204.0 
378.440338 48.0 
378.684296 84.0 
378.974854 80.0 
379.106171 308.0 
379.137604 156.0 
379.242249 228.0 
379.56012 108.0 
380.091553 140.0 
380.68158 92.0 
383.681488 128.0 
394.062469 132.0 
394.80957 76.0 
404.03775 20.0 
416.197876 116.0 
517.08197 52.0 
548.646545 184.0 
558.019409 76.0 
571.70874 52.0 
625.513794 44.0 
626.718994 68.0 
700.269104 96.0 
718.771057 40.0 
721.484314 124.0 
725.02771 92.0 
726.341309 88.0 
727.409119 96.0 
810.19635 72.0 
811.1427 128.0 
881.707336 56.0 
965.966553 20.0 
1151.543213 92.0 
END IONS

