BEGIN IONS
TITLE=Scan Number: 15
PEPMASS=925.0
CHARGE=1+
COMPOUNDNAME=Amphotericin B
LIBRARYQUALITY=3
SMILES=C[C@H]1/C=C/C=C/C=C/C=C/C=C/C=C/C=C/[C@@H](C[C@H]2[C@@H]([C@H](C[C@](O2)(C[C@H](C[C@H]([C@@H](CC[C@H](C[C@H](CC(=O)O[C@H]([C@@H]([C@@H]1O)C)C)O)O)O)O)O)O)O)C(=O)O)O[C@H]3[C@H]([C@H]([C@@H]([C@H](O3)C)O)N)O
INCHIKEY=APKFDSVGJQXUKY-INPOYWNPSA-N
INCHI="InChI=1S/C47H73NO17/c1-27-17-15-13-11-9-7-5-6-8-10-12-14-16-18-34(64-46-44(58)41(48)43(57)30(4)63-46)24-38-40(45(59)60)37(54)26-47(61,65-38)25-33(51)22-36(53)35(52)20-19-31(49)21-32(50)23-39(55)62-29(3)28(2)42(27)56/h5-18,27-38,40-44,46,49-54,56-58,61H,19-26,48H2,1-4H3,(H,59,60)/b6-5+,9-7+,10-8+,13-11+,14-12+,17-15+,18-16+/t27-,28-,29-,30+,31+,32+,33-,34-,35+,36+,37-,38-,40+,41-,42+,43+,44-,46-,47+/m0/s1"
MSLEVEL=2
SOURCE_INSTRUMENT=DI-ESI-Ion Trap
FILENAME=Amphotericin_B_IT_925mz.mzXML
SEQ=*..*
NOTES=
IONMODE=Positive
ORGANISM=GNPS-LIBRARY
NAME=Amphotericin B M+H
SPECTRUMID=CCMSLIB00000075331
ACTIVATION=CID
INSTRUMENT=ion trap
SCANS=15
259.363647 1.168899 
261.129944 7.652896 
263.225311 3.150582 
265.187469 4.955006 
267.148865 17.033312 
268.181824 1.006662 
269.100342 11.936881 
271.134735 6.004105 
273.183167 9.267817 
275.212921 11.100739 
277.174866 9.570514 
279.165009 29.52599 
281.129028 9.216532 
283.163818 7.538247 
285.107666 29.3911 
287.137665 13.720932 
289.220581 16.072144 
290.090912 1.112411 
291.228485 6.387964 
293.242462 9.894877 
295.136536 14.792906 
297.059784 115.864075 
299.225372 9.849342 
301.191101 17.42309 
303.146667 65.722572 
304.181824 1.154524 
305.173889 15.296129 
307.268829 5.461254 
309.185242 8.988293 
311.220612 12.773138 
313.178314 35.979717 
315.016693 362.321991 
317.202118 15.218036 
319.196564 21.118509 
320.231079 3.043666 
321.019104 156.731827 
323.166595 18.492739 
325.139374 12.252909 
327.185669 19.681412 
329.177277 12.736213 
331.206024 20.858927 
333.218353 36.186764 
335.204712 19.028841 
336.272736 1.068046 
337.194427 43.27993 
338.943573 97.133743 
341.280151 23.337559 
343.20462 22.27957 
345.193604 27.76523 
347.231964 14.184555 
349.190094 32.096306 
351.226196 36.899437 
353.271729 24.692575 
355.119934 53.302025 
357.189819 23.632591 
359.248779 25.641487 
361.190582 16.40317 
363.202454 32.424057 
365.190033 20.611574 
367.153931 26.337648 
368.136108 2.412518 
369.276428 21.090366 
371.242004 25.112818 
373.181061 38.770115 
375.163269 46.777721 
377.224213 36.605286 
378.230713 3.011551 
379.242615 23.778404 
381.087067 120.13253 
383.313721 20.835083 
385.225769 34.497223 
387.221069 23.132902 
389.250031 36.737694 
391.250244 22.883688 
392.318024 2.0393 
393.204529 73.649063 
394.454559 1.190395 
395.227386 19.761339 
396.686462 2.769406 
397.250458 26.167847 
398.181824 1.164146 
399.220367 41.977921 
400.454559 1.068532 
401.194946 23.987066 
403.262573 43.96225 
404.265411 4.03438 
405.070374 97.126953 
407.258118 45.203739 
408.234039 2.40858 
409.253754 20.886076 
411.179626 26.288271 
412.225616 2.086093 
413.271667 21.571205 
414.272736 1.029349 
415.22348 34.42194 
416.267273 5.694022 
417.136963 60.018692 
418.090912 1.046088 
419.161285 26.55246 
421.207916 68.082268 
422.317444 2.371921 
423.036255 185.047531 
424.224609 2.209965 
425.233368 37.812794 
427.272858 19.576332 
429.240173 22.933172 
431.196655 23.405787 
433.27951 43.116596 
434.222809 7.301559 
435.240753 32.918621 
437.222961 25.810736 
439.249329 35.339924 
440.882294 76.916107 
441.41861 19.230625 
443.299835 39.803871 
445.271454 22.630438 
447.292114 34.962093 
448.641663 3.669332 
449.261108 28.918247 
451.246918 23.232321 
453.295746 19.702423 
455.27417 40.285275 
457.25769 28.091602 
459.155701 51.097878 
461.276642 49.970497 
463.341156 36.535667 
464.320404 3.135525 
465.27774 32.242561 
467.263489 30.849775 
467.818176 1.187432 
469.281128 36.109058 
471.282623 33.196018 
473.361938 38.839783 
475.292328 25.797489 
477.27475 20.531162 
479.263367 25.396898 
481.336121 30.239468 
483.355133 33.74905 
485.334686 40.525669 
486.226807 2.372601 
486.727295 1.033615 
487.316345 56.125668 
489.305634 40.569637 
490.320953 3.066188 
491.273682 50.342167 
492.363647 1.012237 
493.301971 15.035503 
495.339508 14.634334 
497.336121 22.958197 
499.293091 37.005951 
501.272217 33.734077 
503.288269 27.434845 
504.191956 4.20349 
505.198853 58.083885 
507.308167 34.406898 
508.181824 1.279816 
509.29245 39.569763 
511.305328 21.185301 
513.253174 23.980955 
515.335144 54.054871 
517.262329 56.322483 
519.262085 22.636414 
521.388733 13.976254 
523.263245 51.122612 
525.335754 40.660507 
527.235291 29.539587 
529.300415 15.099851 
530.315125 12.670611 
531.234741 84.91629 
532.332947 66.172836 
533.329712 98.657402 
534.53479 6.339088 
535.242432 37.736195 
537.343567 13.168517 
538.090942 1.119652 
539.271118 26.408352 
541.318909 39.636391 
543.31134 48.593018 
545.292419 31.652718 
547.336609 13.310187 
548.500854 3.125688 
549.273804 25.81292 
550.369629 2.328711 
551.238098 152.452637 
552.272766 1.066717 
553.375122 21.191833 
555.351929 16.908361 
557.294189 14.935317 
559.303284 20.750015 
561.074036 45.873211 
561.636353 1.460783 
563.310669 27.13909 
564.415771 2.390429 
565.456787 18.211256 
567.322266 22.04126 
568.269531 10.662147 
569.204285 222.082397 
570.317871 2.467345 
571.359131 21.785225 
573.349731 23.82678 
575.316101 35.882011 
577.346375 19.025526 
579.268311 24.997639 
581.34314 22.279621 
583.345032 24.238377 
585.358093 18.809954 
586.419373 7.895257 
587.315125 220.080124 
588.592224 2.560805 
589.393188 19.870533 
590.545471 1.130451 
591.387451 37.291592 
593.380615 15.962386 
594.409607 2.044775 
595.31427 18.295313 
597.406616 27.061281 
598.32074 2.118914 
599.297668 28.570139 
601.290894 13.059781 
603.332397 16.705273 
604.310791 7.386928 
605.297058 157.391159 
606.458313 4.52633 
607.329407 19.002153 
609.36676 72.083969 
610.178528 6.369991 
611.30011 25.355862 
613.285522 25.52066 
614.774658 2.25294 
615.302246 31.413143 
616.0 1.132546 
617.382874 82.515312 
619.337402 11.844589 
621.320435 10.916327 
623.052979 78.456581 
623.589905 15.800089 
625.40979 16.546133 
626.462219 7.580619 
627.365662 114.968094 
629.392822 10.376349 
633.370544 31.161772 
634.310852 10.308066 
635.271362 157.634384 
637.494995 2.251687 
638.502686 2.20787 
639.267883 4.93776 
640.272766 1.317957 
641.224182 67.579666 
643.411804 13.090347 
644.407654 4.486179 
645.254639 138.791153 
647.299866 12.687937 
649.215027 4.740851 
650.219788 3.344474 
650.818176 1.067078 
651.347656 20.273853 
652.287842 21.905111 
653.260437 420.587433 
654.547241 3.449924 
657.130005 2.579746 
658.272766 1.22931 
659.230408 11.09186 
661.319824 5.231246 
662.277222 4.884767 
663.270752 143.37265 
664.334839 6.830304 
665.318848 5.719977 
669.378418 22.321203 
670.30188 39.259804 
671.266296 985.90509 
672.251221 14.102358 
673.272766 1.044858 
675.321533 7.124013 
677.248535 17.576075 
678.582092 2.659332 
680.369202 3.98531 
681.247925 77.333511 
686.454529 1.016557 
687.281433 30.818153 
688.797302 450.895844 
689.305054 1205.283936 
690.379089 13.438765 
693.192383 6.727393 
699.300781 29.646944 
705.340576 20.995485 
706.574524 299.765198 
707.233154 1617.276367 
708.290039 17.52969 
709.090942 1.037723 
710.454529 1.045138 
711.333679 14.292947 
718.238159 3.178636 
719.401001 8.569093 
723.297119 24.943386 
724.642517 743.317688 
725.199646 3805.031982 
726.264221 21.209446 
727.502197 16.815247 
728.279846 18.742449 
729.293762 8.53009 
735.272766 1.186844 
738.363647 1.133678 
741.096863 27.610033 
742.368408 610.45575 
743.144653 18998.761719 
744.187317 58.917011 
745.275696 14.854618 
751.45459 1.029126 
758.683594 2.116989 
759.186218 47.899792 
760.44812 779.485229 
761.154297 4039.043945 
762.21521 19.428602 
764.636353 1.099581 
767.500671 2.350102 
786.494812 2.381882 
790.250916 3.249898 
793.725525 7.163489 
803.272766 1.038825 
807.367554 2.211566 
808.372192 11.824335 
809.23114 7.384383 
810.410156 2.095857 
815.683777 2.366925 
818.181824 1.102003 
819.40802 2.141901 
823.515137 14.362935 
824.504211 27.800972 
825.450806 180.635284 
826.462219 146.623123 
827.517822 46.80555 
828.449158 6.347345 
833.731567 8.485643 
836.636353 1.462058 
838.270264 4.781785 
842.584839 2.352636 
843.373352 13.128647 
844.367065 33.887585 
845.404358 10.626186 
846.418701 4.844057 
848.320679 2.146662 
852.291199 12.197328 
856.360657 3.861082 
860.560974 3.516118 
861.430969 14.176982 
862.434998 28.410429 
863.432861 19.570328 
864.374817 4.498368 
865.363647 1.10289 
866.543823 6.565353 
867.45459 1.135425 
868.272766 1.142655 
869.302307 9.367786 
870.225159 69.282318 
871.395081 5.683465 
874.361145 31.362007 
875.448608 32.402828 
876.08429 4.009248 
877.727295 1.016283 
879.367126 7.140914 
880.539612 15.234515 
881.501892 4.999478 
884.572815 9.21618 
885.453796 4.831106 
886.002747 3.479311 
887.319519 90.537315 
888.261963 339.24054 
889.424194 45.180614 
890.306335 12.989571 
890.863525 2.301801 
891.413391 25.711788 
892.275879 132.257797 
893.398499 44.436806 
894.65033 7.420896 
896.363647 1.05248 
897.294312 20.408346 
897.886047 5.817139 
899.331787 8.347736 
899.894958 4.539104 
900.597351 6.405656 
901.589111 2.339797 
904.304504 56.138424 
906.102051 80608.054688 
907.20459 519.020447 
908.427673 43.938354 
911.137512 2.743935 
915.59436 2.733713 
922.909119 1.239473 
996.319153 2.528543 
1069.545532 1.387795 
1086.272705 1.042831 
1087.410767 6.489557 
1088.59375 2.254717 
1105.500977 4.75155 
1111.316406 2.398427 
END IONS

